# vtk DataFile Version 2.0
Generated Volume Mesh
ASCII
DATASET UNSTRUCTURED_GRID
POINTS 177 float
0.0 -0.009999999776482582 0.0
0.05999999865889549 -0.009999999776482582 0.0
0.05999999865889549 0.009999999776482582 0.0
0.0 0.009999999776482582 0.0
0.004999999888241291 -0.009999999776482582 0.0
0.009999999776482582 -0.009999999776482582 0.0
0.014999999664723873 -0.009999999776482582 0.0
0.019999999552965164 -0.009999999776482582 0.0
0.02500000037252903 -0.009999999776482582 0.0
0.029999999329447746 -0.009999999776482582 0.0
0.03500000014901161 -0.009999999776482582 0.0
0.03999999910593033 -0.009999999776482582 0.0
0.04500000178813934 -0.009999999776482582 0.0
0.05000000074505806 -0.009999999776482582 0.0
0.054999999701976776 -0.009999999776482582 0.0
0.0024999999441206455 -0.009999999776482582 0.0
0.007499999832361937 -0.009999999776482582 0.0
0.012500000186264515 -0.009999999776482582 0.0
0.017500000074505806 -0.009999999776482582 0.0
0.02250000089406967 -0.009999999776482582 0.0
0.027499999850988388 -0.009999999776482582 0.0
0.032499998807907104 -0.009999999776482582 0.0
0.03750000149011612 -0.009999999776482582 0.0
0.042500000447034836 -0.009999999776482582 0.0
0.04749999940395355 -0.009999999776482582 0.0
0.05249999836087227 -0.009999999776482582 0.0
0.057500001043081284 -0.009999999776482582 0.0
0.05999999865889549 -0.004999999888241291 0.0
0.05999999865889549 -2.538941279439655e-14 0.0
0.05999999865889549 0.004999999888241291 0.0
0.05999999865889549 -0.007499999832361937 0.0
0.05999999865889549 -0.0024999999441206455 0.0
0.05999999865889549 0.0024999999441206455 0.0
0.05999999865889549 0.007499999832361937 0.0
0.054999999701976776 0.009999999776482582 0.0
0.05000000074505806 0.009999999776482582 0.0
0.04500000178813934 0.009999999776482582 0.0
0.03999999910593033 0.009999999776482582 0.0
0.03500000014901161 0.009999999776482582 0.0
0.029999999329447746 0.009999999776482582 0.0
0.02500000037252903 0.009999999776482582 0.0
0.019999999552965164 0.009999999776482582 0.0
0.014999999664723873 0.009999999776482582 0.0
0.009999999776482582 0.009999999776482582 0.0
0.004999999888241291 0.009999999776482582 0.0
0.057500001043081284 0.009999999776482582 0.0
0.05249999836087227 0.009999999776482582 0.0
0.04749999940395355 0.009999999776482582 0.0
0.042500000447034836 0.009999999776482582 0.0
0.03750000149011612 0.009999999776482582 0.0
0.032499998807907104 0.009999999776482582 0.0
0.027499999850988388 0.009999999776482582 0.0
0.02250000089406967 0.009999999776482582 0.0
0.017500000074505806 0.009999999776482582 0.0
0.012500000186264515 0.009999999776482582 0.0
0.007499999832361937 0.009999999776482582 0.0
0.0024999999441206455 0.009999999776482582 0.0
0.0 0.004999999888241291 0.0
0.0 2.538941279439655e-14 0.0
0.0 -0.004999999888241291 0.0
0.0 0.007499999832361937 0.0
0.0 0.0024999999441206455 0.0
0.0 -0.0024999999441206455 0.0
0.0 -0.007499999832361937 0.0
0.004999999888241291 -0.004999999888241291 0.0
0.004999999888241291 2.1157554874751128e-14 0.0
0.004999999888241291 0.004999999888241291 0.0
0.009999999776482582 -0.004999999888241291 0.0
0.009999999776482582 1.6926564316843695e-14 0.0
0.009999999776482582 0.004999999888241291 0.0
0.014999999664723873 -0.004999999888241291 0.0
0.014999999664723873 1.2694706397198274e-14 0.0
0.014999999664723873 0.004999999888241291 0.0
0.019999999552965164 -0.004999999888241291 0.0
0.019999999552965164 8.462848477552853e-15 0.0
0.019999999552965164 0.004999999888241291 0.0
0.02500000037252903 -0.004999999888241291 0.0
0.02500000037252903 4.231857919645421e-15 0.0
0.02500000037252903 0.004999999888241291 0.0
0.029999999329447746 -0.004999999888241291 0.0
0.029999999329447746 0.0 0.0
0.029999999329447746 0.004999999888241291 0.0
0.03500000014901161 -0.004999999888241291 0.0
0.03500000014901161 -4.231857919645421e-15 0.0
0.03500000014901161 0.004999999888241291 0.0
0.03999999910593033 -0.004999999888241291 0.0
0.03999999910593033 -8.462848477552853e-15 0.0
0.03999999910593033 0.004999999888241291 0.0
0.04500000178813934 -0.004999999888241291 0.0
0.04500000178813934 -1.2694706397198274e-14 0.0
0.04500000178813934 0.004999999888241291 0.0
0.05000000074505806 -0.004999999888241291 0.0
0.05000000074505806 -1.692623905619195e-14 0.0
0.05000000074505806 0.004999999888241291 0.0
0.054999999701976776 -0.004999999888241291 0.0
0.054999999701976776 -2.1157663294968376e-14 0.0
0.054999999701976776 0.004999999888241291 0.0
0.004999999888241291 -0.007499999832361937 0.0
0.0024999999441206455 -0.004999999888241291 0.0
0.004999999888241291 -0.0024999999441206455 0.0
0.0024999999441206455 2.3273483834573838e-14 0.0
0.004999999888241291 0.0024999999441206455 0.0
0.0024999999441206455 0.004999999888241291 0.0
0.004999999888241291 0.007499999832361937 0.0
0.009999999776482582 -0.007499999832361937 0.0
0.007499999832361937 -0.004999999888241291 0.0
0.009999999776482582 -0.0024999999441206455 0.0
0.007499999832361937 1.904205959579741e-14 0.0
0.009999999776482582 0.0024999999441206455 0.0
0.007499999832361937 0.004999999888241291 0.0
0.009999999776482582 0.007499999832361937 0.0
0.014999999664723873 -0.007499999832361937 0.0
0.012500000186264515 -0.004999999888241291 0.0
0.014999999664723873 -0.0024999999441206455 0.0
0.012500000186264515 1.4810635357020985e-14 0.0
0.014999999664723873 0.0024999999441206455 0.0
0.012500000186264515 0.004999999888241291 0.0
0.014999999664723873 0.007499999832361937 0.0
0.019999999552965164 -0.007499999832361937 0.0
0.017500000074505806 -0.004999999888241291 0.0
0.019999999552965164 -0.0024999999441206455 0.0
0.017500000074505806 1.0578777437375564e-14 0.0
0.019999999552965164 0.0024999999441206455 0.0
0.017500000074505806 0.004999999888241291 0.0
0.019999999552965164 0.007499999832361937 0.0
0.02500000037252903 -0.007499999832361937 0.0
0.02250000089406967 -0.004999999888241291 0.0
0.02500000037252903 -0.0024999999441206455 0.0
0.02250000089406967 6.347353198599137e-15 0.0
0.02500000037252903 0.0024999999441206455 0.0
0.02250000089406967 0.004999999888241291 0.0
0.02500000037252903 0.007499999832361937 0.0
0.029999999329447746 -0.007499999832361937 0.0
0.027499999850988388 -0.004999999888241291 0.0
0.029999999329447746 -0.0024999999441206455 0.0
0.027499999850988388 2.1159289598227105e-15 0.0
0.029999999329447746 0.0024999999441206455 0.0
0.027499999850988388 0.004999999888241291 0.0
0.029999999329447746 0.007499999832361937 0.0
0.03500000014901161 -0.007499999832361937 0.0
0.032499998807907104 -0.004999999888241291 0.0
0.03500000014901161 -0.0024999999441206455 0.0
0.032499998807907104 -2.1159289598227105e-15 0.0
0.03500000014901161 0.0024999999441206455 0.0
0.032499998807907104 0.004999999888241291 0.0
0.03500000014901161 0.007499999832361937 0.0
0.03999999910593033 -0.007499999832361937 0.0
0.03750000149011612 -0.004999999888241291 0.0
0.03999999910593033 -0.0024999999441206455 0.0
0.03750000149011612 -6.347353198599137e-15 0.0
0.03999999910593033 0.0024999999441206455 0.0
0.03750000149011612 0.004999999888241291 0.0
0.03999999910593033 0.007499999832361937 0.0
0.04500000178813934 -0.007499999832361937 0.0
0.042500000447034836 -0.004999999888241291 0.0
0.04500000178813934 -0.0024999999441206455 0.0
0.042500000447034836 -1.0578777437375564e-14 0.0
0.04500000178813934 0.0024999999441206455 0.0
0.042500000447034836 0.004999999888241291 0.0
0.04500000178813934 0.007499999832361937 0.0
0.05000000074505806 -0.007499999832361937 0.0
0.04749999940395355 -0.004999999888241291 0.0
0.05000000074505806 -0.0024999999441206455 0.0
0.04749999940395355 -1.4810472726695112e-14 0.0
0.05000000074505806 0.0024999999441206455 0.0
0.04749999940395355 0.004999999888241291 0.0
0.05000000074505806 0.007499999832361937 0.0
0.054999999701976776 -0.007499999832361937 0.0
0.05249999836087227 -0.004999999888241291 0.0
0.054999999701976776 -0.0024999999441206455 0.0
0.05249999836087227 -1.9041951175580163e-14 0.0
0.054999999701976776 0.0024999999441206455 0.0
0.05249999836087227 0.004999999888241291 0.0
0.054999999701976776 0.007499999832361937 0.0
0.057500001043081284 -0.004999999888241291 0.0
0.057500001043081284 -2.3273538044682462e-14 0.0
0.057500001043081284 0.004999999888241291 0.0
CELLS 48 432
8 0 4 64 59 15 97 98 63
8 59 64 65 58 98 99 100 62
8 58 65 66 57 100 101 102 61
8 57 66 44 3 102 103 56 60
8 4 5 67 64 16 104 105 97
8 64 67 68 65 105 106 107 99
8 65 68 69 66 107 108 109 101
8 66 69 43 44 109 110 55 103
8 5 6 70 67 17 111 112 104
8 67 70 71 68 112 113 114 106
8 68 71 72 69 114 115 116 108
8 69 72 42 43 116 117 54 110
8 6 7 73 70 18 118 119 111
8 70 73 74 71 119 120 121 113
8 71 74 75 72 121 122 123 115
8 72 75 41 42 123 124 53 117
8 7 8 76 73 19 125 126 118
8 73 76 77 74 126 127 128 120
8 74 77 78 75 128 129 130 122
8 75 78 40 41 130 131 52 124
8 8 9 79 76 20 132 133 125
8 76 79 80 77 133 134 135 127
8 77 80 81 78 135 136 137 129
8 78 81 39 40 137 138 51 131
8 9 10 82 79 21 139 140 132
8 79 82 83 80 140 141 142 134
8 80 83 84 81 142 143 144 136
8 81 84 38 39 144 145 50 138
8 10 11 85 82 22 146 147 139
8 82 85 86 83 147 148 149 141
8 83 86 87 84 149 150 151 143
8 84 87 37 38 151 152 49 145
8 11 12 88 85 23 153 154 146
8 85 88 89 86 154 155 156 148
8 86 89 90 87 156 157 158 150
8 87 90 36 37 158 159 48 152
8 12 13 91 88 24 160 161 153
8 88 91 92 89 161 162 163 155
8 89 92 93 90 163 164 165 157
8 90 93 35 36 165 166 47 159
8 13 14 94 91 25 167 168 160
8 91 94 95 92 168 169 170 162
8 92 95 96 93 170 171 172 164
8 93 96 34 35 172 173 46 166
8 14 1 27 94 26 30 174 167
8 94 27 28 95 174 31 175 169
8 95 28 29 96 175 32 176 171
8 96 29 2 34 176 33 45 173
CELL_TYPES 48
23
23
23
23
23
23
23
23
23
23
23
23
23
23
23
23
23
23
23
23
23
23
23
23
23
23
23
23
23
23
23
23
23
23
23
23
23
23
23
23
23
23
23
23
23
23
23
23
POINT_DATA 177
SCALARS stress11 float
LOOKUP_TABLE default
285994.1885564327
-80914586.28460312
80914112.25173378
-286439.8965318203
-3013734.740816593
-11331195.111708045
-17957017.564335227
-23914481.8136189
-29875976.561608315
-35823445.64184952
-41770040.0371418
-47718229.21712017
-53587103.74580574
-58781412.24292183
-65406364.96854973
-1238379.2241139412
-7752162.902056694
-14760940.596255302
-20907992.352766514
-26897852.702389717
-32846289.703098297
-38796527.14551163
-44736991.509093285
-50670334.31041336
-56400019.7102747
-60870528.93831825
-72027505.84831047
-31574985.200296402
-225.52596473693848
31574421.19634247
-54919126.24408531
-14882304.132562637
14881830.1878376
54918512.35739899
65405938.80509567
58780871.01136589
53586617.9908371
47717660.85917282
41770212.84628582
35823888.22785282
29875989.418308258
23913921.207478523
17956839.77459705
11331726.141714752
3014040.5633034706
72026817.1910057
60869991.75378609
56399621.06221199
50669577.332318306
44736609.505441666
38796646.258169174
32846178.586699486
26897180.533176422
20907564.067551136
14761389.192076504
7751996.3700733185
1237399.1406126022
275751.5703063011
-61.568878173828125
-274716.8567686081
-1480133.3482561111
7758376.359005928
-7757786.672894001
1480792.353508234
-5583633.672820091
-7.634941101074219
5583932.783786058
-6269266.714060664
-51.39560127258301
6269416.629078746
-9055695.293182492
-176.16850632429123
9055800.222269177
-11998415.786176443
276.38768696784973
11998722.677854061
-15005284.73092699
37.41057205200195
15005530.656760693
-18006576.620922565
-116.33793258666992
18006557.199982643
-21008074.039809227
-167.19778156280518
21007693.248613358
-24008326.291326523
-143.70926189422607
24008237.234484673
-27057159.675322533
-162.6918077468872
27056698.285280228
-30299666.901899338
-231.71109199523926
30299226.819540024
-34641719.12995529
-224.3869972229004
34641233.28824234
-4073033.856813669
-2105863.384198189
-3806250.8205976486
-172.03975915908813
3805952.954431772
2106038.581846714
4073677.142299652
-8908955.398805737
-5184788.052136421
-3820654.36980474
-203.82462882995605
3820560.4791799784
5184944.1877942085
8908923.037831783
-13443159.77388984
-7758699.05953306
-4572362.278809905
-7.543102324008942
4572168.133525014
7758601.430432022
13443327.292534292
-18003110.6358819
-10522220.50879085
-6014856.496704578
19.58286988735199
6015355.434236765
10522269.133239746
18002768.90481305
-22501819.64730501
-13508613.140413761
-7500370.894387245
104.68767809867859
7500444.204531193
13508825.391586542
22501888.353538513
-27004299.32780361
-16505322.631453037
-9001885.939568043
-76.7672667503357
9001650.495450974
16505363.48953724
27004276.44940281
-31505778.45796776
-19507672.38296604
-10500807.602527618
-227.4350528717041
10500264.25210476
19507395.11268902
31505729.51597023
-35991748.26197624
-22511726.26173687
-12023412.204593658
-133.98834133148193
12023282.082969666
22511327.80016899
35991338.784835815
-40501583.95642376
-25519431.618185997
-13499703.699429512
-166.1586503982544
13499261.815986633
25519149.429522514
40501190.61298752
-45248335.90492439
-28718089.205540657
-15341121.272388458
-161.75807857513428
15340724.222019196
28717639.89317608
45247860.44298363
-49964441.234443665
-31665765.500473022
-16879304.519161224
-227.46459770202637
16878796.46176529
31665235.48890686
49963854.76909447
-32210805.858867645
-218.07278060913086
32210325.87964481
SCALARS stress22 float
LOOKUP_TABLE default
2048420.249991417
-30275481.074718475
30275240.610271454
-2046816.1872718334
407825.4530246258
91741.94650912285
-76012.5454416275
-5867.475053787231
-22681.426387786865
-25606.115377426147
-26952.633186340332
-82015.40455436707
75361.91547393799
-475878.2123031616
1379069.2498016357
-451716.266449213
-629.8228248357773
-17447.596503973007
-25101.392553806305
-14445.730270385742
-23533.848789215088
-26117.752771377563
-53568.659255981445
3838.5836791992188
-409542.2226257324
1675164.6851387024
-8338467.891288757
-12414447.447418213
-107.47791290283203
12414166.991130829
-21179462.840934753
-6194282.805229187
6194068.00907135
21179196.5618515
-1378966.8869743347
475711.88789367676
-75363.00221252441
82128.48518371582
27270.251070022583
26446.42227935791
23311.0352973938
7107.063937187195
76585.59887313843
-92044.92709720135
-409809.53350031376
8338395.45362854
-1675170.5318832397
409537.56340789795
-3911.029836654663
53515.44466590881
26164.4649143219
23617.776153564453
15013.647972106934
26063.434710025787
17638.727253198624
-2109.074516057968
449726.3452990055
7817056.803346634
617.4498138427734
-7815905.075520039
243813.94045448303
20536163.18018484
-20535074.814220905
-242397.33433628082
-897550.2884707451
825.5305995941162
900956.2141184807
524911.376606226
543.3864423036575
-521747.2449619174
80398.0581407547
1108.6173017024994
-81174.29848337173
19834.644974708557
-718.963586807251
-19708.559357643127
630.2488718032837
-623.731972694397
-501.4821605682373
126.2030029296875
669.4731197357178
81.68047142028809
1699.6007080078125
478.5632953643799
-851.1576137542725
15194.2932472229
20.63083839416504
-14701.126588821411
31918.105377197266
90.2949447631836
-31901.04328918457
354794.66035461426
15.905693054199219
-354744.53747177124
-3057982.617832184
37.820369720458984
3058063.419605255
179172.71587395668
-1364454.5711894035
-222514.29750680923
281.57166814804077
224190.93094682693
1366134.2895822525
-177775.45262527466
106412.6548795104
201805.54470658302
108255.45289611816
514.0092196464539
-106143.59314703941
-199269.6873102188
-105258.55435723066
56068.95339298248
243166.51817059517
75867.4757566452
1032.9059782028198
-75326.4638440609
-242096.28619241714
-56073.45502614975
4303.798848152161
31832.496407032013
7331.261100769043
18.074035167694092
-7952.513279914856
-32428.378980636597
-4453.05096912384
655.6843824386597
4752.374786376953
881.2435131072998
-722.8377695083618
-1629.7357034683228
-4411.5537395477295
-438.6703939437866
-691.7562923431396
501.77241134643555
-46.02755355834961
-104.42500495910645
743.210636138916
-343.0740909576416
524.3003234863281
913.5295486450195
-211.5369873046875
1635.0616264343262
491.8935718536377
-1106.6941986083984
540.3978977203369
-202.8639793395996
1759.7531909942627
7741.404735565186
2238.874261856079
190.25674057006836
-1821.4970664978027
-7271.063188552856
-1551.2645530700684
50035.3593711853
3737.974277496338
59912.59742355347
89.45977401733398
-59878.565116882324
-3520.518148422241
-49841.24852371216
-52175.82506561279
239522.88119888306
-58219.763065338135
149.41739654541016
58334.16189956665
-239434.5012397766
52156.8475189209
-1136536.5683937073
-700568.1898460388
-852456.27293396
28.167675018310547
852376.1071548462
700659.0296592712
1136444.4196090698
-4184447.2806167603
-38.15982437133789
4184414.688120857
SCALARS stress12 float
LOOKUP_TABLE default
-761213.0562892258
15187095.488547944
15186968.299376875
-762751.0707661957
745057.3409134671
432082.0467212871
408018.2291639149
357281.66298902035
361268.9879778102
362270.449816525
368758.9593272023
371959.3154391274
389211.56253484264
102729.68163175508
-155510.8302049674
204411.75762589276
588605.8526623696
327216.1476390362
297935.8030933738
287065.1669299975
289219.66671930254
292351.41636181995
300924.22394417226
295927.12225113437
340966.3365929201
-220032.98324286193
6890006.95945663
1815100.9621285591
-985096.5450193062
1815028.212081939
8217765.0068283975
-381083.4114920944
-381106.2171205431
8217652.76822564
-155422.67161622643
102720.17711985111
389172.3634804785
371982.13723267615
368997.9281271398
362505.2666783035
361414.6795725748
357527.61076860875
408423.1851362586
432441.2203659117
745134.0640823245
6889972.327260673
-219989.44984392822
340894.5341040343
295860.02641390264
300871.51476474106
292378.36497074366
289493.1638059616
287113.24057997763
297953.3374750018
327217.23035496473
588679.2408232167
203910.94644846767
1892688.936438918
13498329.014012992
1892507.1186521724
-165042.81260421872
7794663.236476518
7794386.064598158
-164671.07941289246
5929913.835344106
3437983.089587696
5930042.0965175405
4876929.152205534
5558054.954611771
4876890.622609571
4694428.613877095
6056794.118912317
4694112.825443402
4656561.6425971985
6149310.35815765
4656578.950005889
4653208.549281426
6158635.8704725355
4653452.489458092
4652854.818002924
6158081.392249014
4652945.751173347
4652579.324104775
6158587.178117469
4652563.87035656
4646913.546618175
6162808.651986785
4646926.2057303935
4623661.742167674
6249705.320346229
4623733.048365474
4677359.867508613
6283399.840064518
4677378.734282002
5488513.281677594
5874476.58717595
5488517.0766877085
3279351.7634528875
4310952.142963737
4662374.349955462
7725284.802886866
4662331.687381372
4310930.0507807955
3279657.30741518
2839200.4321526587
4874409.42968151
5358550.993702628
4841843.955391012
5358503.338730723
4874460.541922219
2839071.899239354
2620151.519356318
4683744.840042621
5503171.521014504
5822120.8907701075
5502815.03841649
4683310.54053919
2620102.2472084835
2570061.6470989734
4574792.367687069
5561143.777894542
6014343.252714165
5561132.272384509
4574440.701582037
2570084.6184562147
2563455.360481888
4565963.496348232
5563146.275608569
6064350.07982859
5563329.561428979
4565914.40686588
2563626.8810516
2563652.9040882103
4562405.344684243
5563725.24803146
6066421.159800384
5563764.337210968
4562896.384464398
2563717.8732870445
2561669.2173806615
4561763.52316498
5562998.416987054
6066246.63425082
5563009.911770374
4561684.892878041
2561747.8198824152
2564032.1122643985
4562604.554137699
5567337.084185358
6070143.649986699
5567346.545812041
4562586.344394103
2563954.2053451985
2502185.998086486
4539973.834032789
5597171.947020605
6097814.6767151505
5597233.423798494
4539958.37969628
2502197.0547463596
2472309.647022914
4564915.153753862
5716514.831084341
6187117.364250079
5716516.450382903
4565011.815002546
2472290.3240768164
2514558.502068516
4669838.009651827
5385244.365882203
6104897.30935616
5385240.628074065
4669854.632550895
2514552.5077025443
3837172.5149032567
2774910.4416180924
3837145.3871282637
SCALARS strain11 float
LOOKUP_TABLE default
-5.386291940996137e-07
-6.182483149052862e-05
6.182450608520302e-05
5.375980921726829e-07
-2.9015504734978713e-06
-1.0347166947019429e-05
-1.631124143099507e-05
-2.1759890774302837e-05
-2.7178293168089512e-05
-3.2589347245954236e-05
-3.80002240788302e-05
-4.339160185925882e-05
-4.8793655089539084e-05
-5.330549065353957e-05
-6.0057626592562176e-05
-9.507557527570296e-07
-7.05422240741859e-06
-1.342565125463796e-05
-1.901648383339713e-05
-2.447141218370213e-05
-2.9880943430932584e-05
-3.5294655902281006e-05
-4.0689771588254934e-05
-4.611150001833635e-05
-5.1164293872495105e-05
-5.6045491382429656e-05
-6.229302954164953e-05
-2.3891601393953942e-05
-1.63223282288673e-10
2.3891196777331312e-05
-4.1716414927432736e-05
-1.1127126168436535e-05
1.1126779308957313e-05
4.171595954349096e-05
6.00572017396729e-05
5.33050606802421e-05
4.8793214608959556e-05
4.339104122800662e-05
3.8000258488262155e-05
3.2589424773465394e-05
2.7178057189241396e-05
2.1758896065826334e-05
1.6310856024968966e-05
1.0347768148562513e-05
2.902602519931456e-06
6.229242980106806e-05
5.604500879110822e-05
5.116393154010724e-05
4.6110836965922435e-05
4.068944204747518e-05
3.529474480918059e-05
2.9880809829861948e-05
2.4470577170455324e-05
1.901571693708505e-05
1.3425984648235195e-05
7.055139247899621e-06
9.506399073467252e-07
-2.7977183758540495e-06
-2.965357127600668e-10
2.798210903854747e-06
-1.4420086836668946e-06
-9.489812091485099e-07
9.490936623864207e-07
1.4420559827791127e-06
-4.731062040051921e-06
-3.289189026397035e-10
4.730005935783647e-06
-5.909748102946033e-06
-2.587013664271179e-10
5.908650687272833e-06
-8.272037885776688e-06
-5.926797655084193e-10
8.272435828364207e-06
-1.0926293846113264e-05
5.319582241066281e-10
1.0926523853503297e-05
-1.365505410659795e-05
2.7726356963391624e-10
1.3655228569169455e-05
-1.638603438678429e-05
-3.6695001030817576e-10
1.6385935415000178e-05
-1.911800894286201e-05
-3.388434013083287e-10
1.911733257867746e-05
-2.1853501403116925e-05
-1.389141887999691e-10
2.1853228467088437e-05
-2.4634464481189915e-05
-1.8321853973227165e-10
2.463403562017507e-05
-2.7711067514410654e-05
-2.170639962938885e-10
2.7710647213404795e-05
-3.0331351019134906e-05
-2.1897742999302597e-10
3.0330876760817745e-05
-3.776337929113768e-06
-1.384198336061332e-06
-3.3769078361362654e-06
-2.663770455298489e-10
3.375982867621398e-06
1.3837027206901062e-06
3.7763786504937035e-06
-8.14865022954873e-06
-4.7968614019492815e-06
-3.5190152114427872e-06
-3.859385718993358e-10
3.5181058589875804e-06
4.796014166777397e-06
8.148170412280238e-06
-1.2255141599129202e-05
-7.155251321930506e-06
-4.19043800232229e-06
-4.097497777275777e-10
4.190050588745485e-06
7.154744769175578e-06
1.2255296413218593e-05
-1.6384508204953093e-05
-9.587635061316497e-06
-5.476378596600169e-06
1.0834626490256738e-11
5.4770745402120445e-06
9.587911662150314e-06
1.6384255431764266e-05
-2.04769123086523e-05
-1.2294691041054824e-05
-6.825681265326721e-06
3.771066569365107e-10
6.826039938055174e-06
1.2294751660697865e-05
2.047689018377783e-05
-2.4573643391806693e-05
-1.502003931328394e-05
-8.191698512373055e-06
-2.9079870618713838e-11
8.191212210598002e-06
1.5020015112644997e-05
2.457368791002366e-05
-2.8670615276737824e-05
-1.7751899274961395e-05
-9.556372305611661e-06
-3.986899119222745e-10
9.555672436306682e-06
1.775151859666549e-05
2.867029321360938e-05
-3.275317716343765e-05
-2.0488689840842907e-05
-1.0942177743054166e-05
-1.9606302695198037e-10
1.0941897030414157e-05
2.0488143969688314e-05
3.27527238945429e-05
-3.687595729211552e-05
-2.322414139973504e-05
-1.2308096174651838e-05
-1.8612590586613784e-10
1.2307680913305045e-05
2.3223798434832414e-05
3.687552200733565e-05
-4.115563621375969e-05
-2.6226875447101086e-05
-1.3937714744466343e-05
-2.0559155427895236e-10
1.3937308589401196e-05
2.622643069878698e-05
4.115521299199867e-05
-4.5024390545384275e-05
-2.854262230645482e-05
-1.5027708721714945e-05
-2.1800805458842623e-10
1.5027278777394443e-05
2.8542106758234562e-05
4.5023894800387234e-05
-2.767989959581702e-05
-1.8350116943262242e-10
2.7679475937342092e-05
SCALARS strain22 float
LOOKUP_TABLE default
1.7525246996402287e-06
4.0060005774139595e-06
-4.006039305396586e-06
-1.7508911610126209e-06
1.5464776902133419e-06
4.502651551243058e-06
6.934065902994974e-06
9.32130909575557e-06
1.1630991659671366e-05
1.3947841067061748e-05
1.626578795548006e-05
1.8535475193369108e-05
2.0967550081933337e-05
2.249170134145488e-05
2.6763434636811745e-05
7.19061420139961e-08
3.0227704757433043e-06
5.74088965551783e-06
8.131275108125714e-06
1.0477017793627738e-05
1.2788636057579558e-05
1.5106880358104965e-05
1.7398679723022725e-05
1.9764923308523627e-05
2.1623323766307295e-05
2.5263904766193584e-05
2.050272443689105e-05
1.0170972894740782e-06
-9.885786633745397e-12
-1.0171322236303404e-06
2.145149385037598e-06
1.673014276282192e-07
-1.6731232605968205e-07
-2.145152832595809e-06
-2.6763179629823997e-05
-2.2491640206690963e-05
-2.096736276972766e-05
-1.8535150271706616e-05
-1.6265567336058023e-05
-1.3947252108997138e-05
-1.1630422663859961e-05
-9.319962257115823e-06
-6.933474932681923e-06
-4.503134164152113e-06
-1.5484025292755157e-06
-2.050252021043586e-05
-2.5263703095915885e-05
-2.162317251008794e-05
-1.9764692696259967e-05
-1.7398578780875723e-05
-1.5106884170784304e-05
-1.2788517018044385e-05
-1.0476238017005125e-05
-8.130232183164044e-06
-5.740890226916878e-06
-3.0251978721550004e-06
-7.333471306256167e-08
7.0059787264788e-06
5.859375263629618e-10
-7.0053342600528284e-06
7.991226659454388e-07
1.5662141532226965e-05
-1.5661380732469136e-05
-7.980906118038554e-07
1.360846469909303e-06
7.542450492295516e-10
-1.3578637527401297e-06
2.9226834239192193e-06
5.145301831084234e-10
-2.9198625414349677e-06
3.604883582437185e-06
1.077554123620622e-09
-3.605630606932182e-06
4.697431849191944e-06
-7.62064176519639e-10
-4.6974368239330495e-06
5.852634444778598e-06
-5.821770392155923e-10
-5.852613289601162e-06
7.022680528758103e-06
6.546196709700247e-10
-7.022483305393727e-06
8.1946953440111e-06
5.007576246024437e-10
-8.193775110468954e-06
9.377073620808751e-06
7.486464052852693e-11
-9.37659045808191e-06
1.0581338429191747e-05
1.4556963100209597e-10
-1.0581142096373689e-05
1.2139733538231445e-05
1.047996221054115e-10
-1.2139516294773847e-05
1.0727506685216659e-05
1.2192483481165972e-10
-1.0727243600763131e-05
1.7515302188660228e-06
-4.203668692351857e-07
1.2819499596652961e-06
3.2334733805414184e-10
-1.2803080686257188e-06
4.2182714226094917e-07
-1.7505098272505275e-06
3.5713279373551787e-06
2.205710428969691e-06
1.588567666400742e-06
5.471979254260961e-10
-1.5866091979862e-06
-2.203463613642694e-06
-3.5702652598862622e-06
5.293854975719093e-06
3.247174352877572e-06
1.852260776110011e-06
9.42908524913591e-10
-1.8516929095929637e-06
-3.246162278707984e-06
-5.2939245171091005e-06
7.025129363788692e-06
4.132633467831149e-06
2.352465586114103e-06
8.772006124951881e-12
-2.35322527744131e-06
-4.133194947624364e-06
-7.025131690505636e-06
8.776307187073791e-06
5.272683860048193e-06
2.92594675934104e-06
-6.985653297139627e-10
-2.9266565203280026e-06
-5.2724566780189275e-06
-8.776136377604792e-06
1.0531048096185276e-05
6.437533096940486e-06
3.5106938664928797e-06
-6.511612690024426e-11
-3.5099676206507696e-06
-6.437404570902583e-06
-1.0531190788204935e-05
1.2288085454030193e-05
7.607799556811137e-06
4.096802880122069e-06
5.362330666308646e-10
-4.0961103013967964e-06
-7.607392296398244e-06
-1.2287419842322081e-05
1.4038382803139085e-05
8.786617881425055e-06
4.691167839861177e-06
2.2534455898504113e-10
-4.690737517649285e-06
-8.786035067112619e-06
-1.403803536827869e-05
1.5841151559168806e-05
9.955980812091994e-06
5.319405340891217e-06
1.4624173226562842e-10
-5.3192016159202965e-06
-9.955671848095246e-06
-1.5840819985389956e-05
1.759937149477947e-05
1.141802108174314e-05
5.930057666796162e-06
1.9910456096339235e-10
-5.929798224507329e-06
-1.1417765432248511e-05
-1.7599204498848497e-05
1.8451884245852812e-05
1.1712130621188005e-05
5.807193514013875e-06
1.1439512184741041e-10
-5.80706899192332e-06
-1.1711842416928936e-05
-1.8451739062407685e-05
8.754367965123355e-06
5.0328855666359473e-11
-8.754210719301333e-06
SCALARS strain12 float
LOOKUP_TABLE default
-1.979153798068508e-06
3.948644402971612e-05
3.94861134814073e-05
-1.9831526341122427e-06
1.9371489281830236e-06
1.1234132815545774e-06
1.0608473771073863e-06
9.289323484142683e-07
9.392992540902028e-07
9.419031590216675e-07
9.587732367455338e-07
9.670942482642013e-07
1.0119500781376303e-06
2.670971712154737e-07
-4.0432815964420483e-07
5.314705380722498e-07
1.530375123207393e-06
8.507619654925399e-07
7.746330296803136e-07
7.463694034585288e-07
7.519711050862985e-07
7.601136873234843e-07
7.824030724362885e-07
7.694104015739636e-07
8.865124403745691e-07
-5.720856546420102e-07
1.7914016047776638e-05
4.719261953224479e-06
-2.5612507205208875e-06
4.719072953195548e-06
2.136618738658193e-05
-9.908168591044758e-07
-9.90876053612766e-07
2.1365895519185468e-05
-4.040988877303253e-07
2.670724370496067e-07
1.011848187950032e-06
9.67153451416063e-07
9.59394648269009e-07
9.425137068824036e-07
9.396781917994304e-07
9.295716239589053e-07
1.0619002394513395e-06
1.1243471033773429e-06
1.937348458390972e-06
1.7913927108974053e-05
-5.719725060289861e-07
8.863255836410663e-07
7.692360347868142e-07
7.822659358063422e-07
7.601835958958507e-07
7.526822145797183e-07
7.464943948300975e-07
7.746786885343035e-07
8.507648561758652e-07
1.5305659561059485e-06
5.301684078603262e-07
4.920990805572055e-06
3.5095653557082004e-05
4.920518082394883e-06
-4.2911130357855556e-07
2.026612231734309e-05
2.026540273976162e-05
-4.2814487867640126e-07
1.541777449422905e-05
8.938755295003192e-06
1.5418108068639846e-05
1.2680014871555126e-05
1.445094159157725e-05
1.2679914634980362e-05
1.220551361460878e-05
1.5747663675783855e-05
1.2204692683019552e-05
1.2107058965503268e-05
1.5988206012569725e-05
1.2107103964954536e-05
1.2098341075375644e-05
1.6012452055758734e-05
1.209897564337172e-05
1.2097421563789468e-05
1.601101069716099e-05
1.2097658196327563e-05
1.2096705287001193e-05
1.6012325414851134e-05
1.2096665039336766e-05
1.2081974259045694e-05
1.6023301455239073e-05
1.2082007437887529e-05
1.2021519348066857e-05
1.624923241225223e-05
1.2021704912253649e-05
1.2161134621820508e-05
1.6336838690190797e-05
1.2161183542789319e-05
1.427013359891034e-05
1.5273638035915254e-05
1.4270143176843629e-05
8.526313897383908e-06
1.1208474504465171e-05
1.2122172379998964e-05
2.008573913274696e-05
1.2122062036393644e-05
1.1208417037120161e-05
8.527108588000606e-06
7.381920624879542e-06
1.2673463878471326e-05
1.393223169142443e-05
1.258879347519902e-05
1.3932107681342875e-05
1.2673596703439798e-05
7.381586390159617e-06
6.8123932694737915e-06
1.217773615736528e-05
1.430824511478509e-05
1.5137513233290693e-05
1.4307317748431066e-05
1.217660631914398e-05
6.812265222590406e-06
6.682159576604238e-06
1.1894458919910569e-05
1.4458972383507633e-05
1.5637291037282042e-05
1.445894278775729e-05
1.18935445421652e-05
6.682219406440812e-06
6.66498344989612e-06
1.187150389399731e-05
1.446417954226627e-05
1.57673090288005e-05
1.4464655643868193e-05
1.1871376531572477e-05
6.665429072756469e-06
6.665497116667768e-06
1.1862252692731393e-05
1.4465684529522222e-05
1.5772693988068873e-05
1.4465786043462353e-05
1.1863529404118327e-05
6.665665879884982e-06
6.660339725319213e-06
1.186058400312266e-05
1.4463794591878393e-05
1.57722397195425e-05
1.4463824636807299e-05
1.1860379829654096e-05
6.660543715437115e-06
6.666482815629511e-06
1.1862770653391907e-05
1.4475074744689577e-05
1.578237264100927e-05
1.4475099982640371e-05
1.1862723869173928e-05
6.6662804227719786e-06
6.5056830402237596e-06
1.1803931094502641e-05
1.4552645973791878e-05
1.5854316696904555e-05
1.4552805610240632e-05
1.1803890727744393e-05
6.505711536972564e-06
6.428004465339523e-06
1.186877826639314e-05
1.4862937337769313e-05
1.6086503637148894e-05
1.4862941190565081e-05
1.1869029866182814e-05
6.427954382576479e-06
6.537851622166648e-06
1.2141577743328192e-05
1.4001633706010305e-05
1.587273209835034e-05
1.400162469401218e-05
1.2141621348191233e-05
6.537836083694609e-06
9.976647441074352e-06
7.214766394456431e-06
9.976577451474252e-06
SCALARS disp_x float
LOOKUP_TABLE default
1.9452400010777637e-06
0.0
0.0
-1.9452270407782635e-06
1.9418996544118272e-06
1.907575324366917e-06
1.8402918158244574e-06
1.7449227698307368e-06
1.622021500224946e-06
1.4718459624418756e-06
1.294345679525577e-06
1.0896088724621222e-06
8.573979357606731e-07
5.997501375532011e-07
3.18633055940154e-07
1.9435997273831163e-06
1.928867504830123e-06
1.8777012655846193e-06
1.796051265046117e-06
1.6868617649379303e-06
1.5503202348554623e-06
1.3864835182175739e-06
1.195345475935028e-06
9.769199778020266e-07
7.314471872632566e-07
4.6315938106999965e-07
1.608077155879073e-07
0.0
0.0
0.0
0.0
0.0
0.0
0.0
-3.186299579738261e-07
-5.997450216455036e-07
-8.573912850806664e-07
-1.089598754333565e-06
-1.2943341971549671e-06
-1.4718353895659675e-06
-1.6220105862885248e-06
-1.7449074221076444e-06
-1.8402724890620448e-06
-1.9075578165939078e-06
-1.9418876036070287e-06
-1.6080620923730748e-07
-4.631552883438417e-07
-7.314412187042763e-07
-9.769116786628729e-07
-1.1953342209380935e-06
-1.3864724905943149e-06
-1.5503096619795542e-06
-1.686849259385781e-06
-1.7960339846467832e-06
-1.877682166195882e-06
-1.9288520434201928e-06
-1.9435890408203704e-06
-9.698853773443261e-07
1.0610202820504622e-11
9.699057272882783e-07
-1.4520386457661516e-06
-4.92829769882519e-07
4.928498356093769e-07
1.4520542208629195e-06
9.63189222602523e-07
9.066748220265541e-12
-9.631719422031892e-07
9.398356155543297e-07
7.446032505853406e-12
-9.398221436640597e-07
9.038105872605229e-07
5.2075882668589646e-12
-9.03799900697777e-07
8.558938020541973e-07
5.152381125916872e-12
-8.558813533454668e-07
7.944200888232444e-07
7.12094619381709e-12
-7.944074695842573e-07
7.193349347289768e-07
7.0342468828921145e-12
-7.193220881163143e-07
6.305922397586983e-07
4.932086856979101e-12
-6.305811552920204e-07
5.281672770252044e-07
3.995703941328532e-12
-5.281588073557941e-07
4.120928167594684e-07
3.0576942887383662e-12
-4.120859671274957e-07
2.8072193458683614e-07
2.0354638113895263e-12
-2.807172165830707e-07
1.3907448703776026e-07
9.149295904231636e-13
-1.3907238383126241e-07
1.4469376310444204e-06
9.73304395301966e-07
4.85545058381831e-07
9.621538808735064e-12
-4.85526697957539e-07
-9.73283931671176e-07
-1.4469216012003017e-06
1.4167467270453926e-06
9.52675009102677e-07
4.684199268467637e-07
8.092209194399125e-12
-4.684068244387163e-07
-9.526593771624903e-07
-1.4167326298775151e-06
1.3658500392921269e-06
9.231281410393422e-07
4.499961221426929e-07
6.7146475012103135e-12
-4.499859187490074e-07
-9.23117568163434e-07
-1.3658359421242494e-06
1.2941573004354723e-06
8.815054570732173e-07
4.258712351656868e-07
4.193335349095273e-12
-4.2586006543388066e-07
-8.814937473289319e-07
-1.2941439990754589e-06
1.2020093436149182e-06
8.268614237749716e-07
3.9514202399004716e-07
6.254989148163359e-12
-3.951283247261017e-07
-8.268487476925657e-07
-1.201997179123282e-06
1.0893709259107709e-06
7.585905450468999e-07
3.575979974357324e-07
7.529469235600939e-12
-3.575848097625567e-07
-7.585774142171431e-07
-1.0893593298533233e-06
9.562587592881755e-07
6.766769047317212e-07
3.1322591098614794e-07
5.921905327221921e-12
-3.1321565074904356e-07
-6.766643423361529e-07
-9.56247504291241e-07
8.0266795521311e-07
5.811027108393318e-07
2.62015674934446e-07
4.298241450262363e-12
-2.6200768843409605e-07
-5.810932179883821e-07
-8.026589171095111e-07
6.286173857006361e-07
4.7185909579638974e-07
2.0379908960421744e-07
3.508565833698629e-12
-2.037928794607069e-07
-4.7185133666971524e-07
-6.286103939601162e-07
4.3419819917289715e-07
3.484622936866799e-07
1.383909022933949e-07
2.5866563665294384e-12
-1.383867811455275e-07
-3.484566946099221e-07
-4.341933106388751e-07
2.1720651943724079e-07
2.107525745032035e-07
6.630843785160323e-08
1.491002417017273e-12
-6.630647675365253e-08
-2.1074917810892657e-07
-2.1720406095937506e-07
6.322633794297872e-08
4.2195766195365914e-13
-6.322530765601186e-08
SCALARS disp_y float
LOOKUP_TABLE default
-8.446194442512933e-06
0.0
0.0
-8.446185347565915e-06
-7.451020337612135e-06
-6.44374085823074e-06
-5.4604843171546236e-06
-4.518715741141932e-06
-3.6315964280220214e-06
-2.8128001758886967e-06
-2.075939846690744e-06
-1.4345905583468266e-06
-9.028932481669472e-07
-4.926341148348001e-07
-2.1405750771918974e-07
-7.950781764520798e-06
-6.945171207917156e-06
-5.947852969256928e-06
-4.983610779163428e-06
-4.067467216373188e-06
-3.212813680875115e-06
-2.433273266433389e-06
-1.7424749785277527e-06
-1.1541486628630082e-06
-6.817975872763782e-07
-3.3849761393867084e-07
-1.1339825078948707e-07
0.0
0.0
0.0
0.0
0.0
0.0
0.0
-2.140557882057692e-07
-4.926319547848834e-07
-9.02890462839423e-07
-1.4345864656206686e-06
-2.0759332528541563e-06
-2.812795628415188e-06
-3.631599383879802e-06
-4.518719379120739e-06
-5.460481133923167e-06
-6.443724942073459e-06
-7.451006695191609e-06
-1.13397256029657e-07
-3.384955959973013e-07
-6.817950861659483e-07
-1.1541459343789029e-06
-1.7424698626200552e-06
-2.433269173707231e-06
-3.212813680875115e-06
-4.0674708543519955e-06
-4.983610779163428e-06
-5.947844783804612e-06
-6.94515802024398e-06
-7.950776307552587e-06
-8.447830623481423e-06
-8.541632269043475e-06
-8.447833351965528e-06
-8.443452315987088e-06
-8.485802027280442e-06
-8.485803846269846e-06
-8.443457772955298e-06
-7.440251920343144e-06
-7.436670330207562e-06
-7.440243734890828e-06
-6.4258501879521646e-06
-6.418077646230813e-06
-6.425839728763094e-06
-5.434016657090979e-06
-5.424736627901439e-06
-5.4340134738595225e-06
-4.483592420001514e-06
-4.4718235585605726e-06
-4.483596057980321e-06
-3.5877128539141268e-06
-3.5730818126467057e-06
-3.5877174013876356e-06
-2.7601420242717722e-06
-2.742587867032853e-06
-2.7601374767982634e-06
-2.014496431002044e-06
-1.994011654460337e-06
-2.0144930203969125e-06
-1.3643915508509963e-06
-1.3409340908765444e-06
-1.3643892771142418e-06
-8.236578423748142e-07
-7.970830893100356e-07
-8.236569897235313e-07
-4.049221331570152e-07
-3.7524259255405923e-07
-4.0492079733667197e-07
-1.2416978734108852e-07
-9.389754040967091e-08
-1.241689346898056e-07
-7.446418749168515e-06
-7.956654371810146e-06
-7.4402732934686355e-06
-7.96091444499325e-06
-7.4402696554898284e-06
-7.956648005347233e-06
-7.446403287758585e-06
-6.433546786865918e-06
-6.931723874004092e-06
-6.419547389668878e-06
-6.9236475610523485e-06
-6.419544206437422e-06
-6.931714779057074e-06
-6.433531780203339e-06
-5.44518525202875e-06
-5.925675395701546e-06
-5.427274572866736e-06
-5.917358521401184e-06
-5.427270025393227e-06
-5.925668119743932e-06
-5.445182523544645e-06
-4.498214366321918e-06
-4.952816652803449e-06
-4.474744400795316e-06
-4.942405666952254e-06
-4.474748493521474e-06
-4.9528171075508e-06
-4.498219823290128e-06
-3.606001655498403e-06
-4.027966951980488e-06
-3.576745257305447e-06
-4.0147888284991495e-06
-3.5767484405369032e-06
-4.027970135211945e-06
-3.6060052934772102e-06
-2.782082901831018e-06
-3.1645404305891134e-06
-2.7469777705846354e-06
-3.148450332446373e-06
-2.74697504210053e-06
-3.1645395210944116e-06
-2.7820790364785353e-06
-2.0400866560521536e-06
-2.3762254386383574e-06
-1.9991252884210553e-06
-2.3572074496769346e-06
-1.999123014684301e-06
-2.3762218006595504e-06
-2.0400805169629166e-06
-1.3937014955445193e-06
-1.6766406361057307e-06
-1.3468405768435332e-06
-1.6546841834497172e-06
-1.3468398947225069e-06
-1.6766381349953008e-06
-1.3936984259999008e-06
-8.56474230204185e-07
-1.0795296248033992e-06
-8.036498115870927e-07
-1.05453966625646e-06
-8.036491294660664e-07
-1.079528033187671e-06
-8.564722406845249e-07
-4.429546152096009e-07
-5.981992785564216e-07
-3.82829597356249e-07
-5.698996687897306e-07
-3.828289436569321e-07
-5.98197914314369e-07
-4.4295271095506905e-07
-1.5638828188002663e-07
-2.460963060002541e-07
-1.0100170300120226e-07
-2.1603969457828498e-07
-1.010012766755608e-07
-2.460953680838429e-07
-1.563869602705381e-07
-3.347204113879343e-08
-1.8147035873994355e-08
-3.347171784184866e-08
