# vtk DataFile Version 2.0
Generated Volume Mesh
ASCII
DATASET UNSTRUCTURED_GRID
POINTS 65 float
0.0 -0.01 0.0
0.06 -0.01 0.0
0.06 0.01 0.0
0.0 0.01 0.0
0.004999999999989176 -0.01 0.0
0.009999999999977303 -0.01 0.0
0.01499999999996193 -0.01 0.0
0.01999999999994689 -0.01 0.0
0.02499999999992982 -0.01 0.0
0.02999999999991614 -0.01 0.0
0.03499999999993181 -0.01 0.0
0.03999999999994545 -0.01 0.0
0.04499999999995909 -0.01 0.0
0.04999999999997273 -0.01 0.0
0.05499999999998636 -0.01 0.0
0.06 -0.005000000000010828 0.0
0.06 -2.538941279439655e-14 0.0
0.06 0.004999999999987136 0.0
0.05500000000001096 0.01 0.0
0.05000000000002507 0.01 0.0
0.04500000000003964 0.01 0.0
0.0400000000000542 0.01 0.0
0.03500000000007013 0.01 0.0
0.03000000000008537 0.01 0.0
0.02500000000006944 0.01 0.0
0.02000000000005555 0.01 0.0
0.01500000000004167 0.01 0.0
0.01000000000002778 0.01 0.0
0.005000000000013882 0.01 0.0
0.0 0.005000000000010828 0.0
0.0 2.538941279439655e-14 0.0
0.0 -0.004999999999987136 0.0
0.004999999999995354 -0.00499999999998911 0.0
0.005000000000001529 2.115755487475113e-14 0.0
0.005000000000007705 0.005000000000008855 0.0
0.00999999999998992 -0.004999999999991086 0.0
0.01000000000000254 1.69265643168437e-14 0.0
0.01000000000001516 0.005000000000006879 0.0
0.01499999999998186 -0.004999999999993059 0.0
0.0150000000000018 1.269470639719827e-14 0.0
0.01500000000002173 0.005000000000004905 0.0
0.01999999999997405 -0.004999999999995033 0.0
0.02000000000000122 8.462848477552853e-15 0.0
0.02000000000002838 0.005000000000002931 0.0
0.02499999999996472 -0.004999999999997009 0.0
0.02499999999999963 4.231857919645421e-15 0.0
0.02500000000003453 0.005000000000000957 0.0
0.02999999999995845 -0.004999999999998983 0.0
0.03000000000000076 0.0 0.0
0.03000000000004307 0.004999999999998983 0.0
0.03499999999996638 -0.005000000000000957 0.0
0.03500000000000097 -4.231857919645421e-15 0.0
0.03500000000003555 0.004999999999997009 0.0
0.03999999999997263 -0.00500000000000293 0.0
0.03999999999999983 -8.462848477552853e-15 0.0
0.04000000000002701 0.004999999999995034 0.0
0.04499999999997922 -0.005000000000004905 0.0
0.04499999999999937 -1.269470639719827e-14 0.0
0.0450000000000195 0.00499999999999306 0.0
0.04999999999998581 -0.005000000000006878 0.0
0.04999999999999891 -1.692623905619195e-14 0.0
0.05000000000001198 0.004999999999991084 0.0
0.0549999999999925 -0.005000000000008852 0.0
0.05499999999999866 -2.115766329496838e-14 0.0
0.05500000000000481 0.00499999999998911 0.0
CELLS 48 240
4 0 4 32 31
4 31 32 33 30
4 30 33 34 29
4 29 34 28 3
4 4 5 35 32
4 32 35 36 33
4 33 36 37 34
4 34 37 27 28
4 5 6 38 35
4 35 38 39 36
4 36 39 40 37
4 37 40 26 27
4 6 7 41 38
4 38 41 42 39
4 39 42 43 40
4 40 43 25 26
4 7 8 44 41
4 41 44 45 42
4 42 45 46 43
4 43 46 24 25
4 8 9 47 44
4 44 47 48 45
4 45 48 49 46
4 46 49 23 24
4 9 10 50 47
4 47 50 51 48
4 48 51 52 49
4 49 52 22 23
4 10 11 53 50
4 50 53 54 51
4 51 54 55 52
4 52 55 21 22
4 11 12 56 53
4 53 56 57 54
4 54 57 58 55
4 55 58 20 21
4 12 13 59 56
4 56 59 60 57
4 57 60 61 58
4 58 61 19 20
4 13 14 62 59
4 59 62 63 60
4 60 63 64 61
4 61 64 18 19
4 14 1 15 62
4 62 15 16 63
4 63 16 17 64
4 64 17 2 18
CELL_TYPES 48
9
9
9
9
9
9
9
9
9
9
9
9
9
9
9
9
9
9
9
9
9
9
9
9
9
9
9
9
9
9
9
9
9
9
9
9
9
9
9
9
9
9
9
9
9
9
9
9
POINT_DATA 65
SCALARS stress11 float
LOOKUP_TABLE default
2.847526921687241e+30
2.2109729982124707e+27
-2.210973007003497e+27
-2.8475269216815215e+30
-5.820256005028075e+29
1.4732674599877305e+29
-4.039217779732207e+28
1.1937732101218835e+28
-1.6422973154746132e+27
2.0221346810547223e+27
9.600633109188791e+26
1.148965139892214e+27
1.0179470939918318e+27
1.0081376557812731e+27
1.0631412714562568e+27
2.6625310425335777e+26
-1.8014398509481984e+18
-2.6625310951356214e+26
-1.0631412803913984e+27
-1.0081376612576503e+27
-1.0179471005490728e+27
-1.1489651133750195e+27
-9.60063282528187e+26
-2.0221346583205514e+27
1.6422977149258858e+27
-1.1937732116747246e+28
4.039217777428165e+28
-1.4732674596481591e+29
5.820256005095449e+29
4.15561473506552e+30
3.088748768435781e+20
-4.155614735239638e+30
7.575628284238092e+29
-6.967068623542157e+19
-7.575628284046149e+29
-2.178091606751214e+29
3.602879701896397e+17
2.178091606825974e+29
5.666324570233071e+28
-4.467570830351532e+18
-5.66632457079512e+28
-1.531350293361117e+28
2.323857407723176e+18
1.5313502948905394e+28
4.178067687477587e+27
-6.44915466639455e+18
-4.178067700123695e+27
-1.0186335891401893e+27
5.440348349863559e+18
1.0186336076950198e+27
3.740247904696453e+26
-2.44995819728955e+18
-3.7402477004131736e+26
-2.4110009796488845e+24
-2.341871806232658e+18
2.411009410387387e+24
9.600310971391189e+25
3.602879701896397e+16
-9.600310989405587e+25
7.055579733310555e+25
-2.5220157913274778e+17
-7.055580010732292e+25
9.008283462123924e+25
-9.367487224930632e+17
-9.008283822411894e+25
SCALARS stress22 float
LOOKUP_TABLE default
6.644224350878837e+30
5.077958982793966e+27
-5.077958999367212e+27
-6.644224350907174e+30
-1.3580666148796386e+30
3.437476143918485e+29
-9.42714906225414e+28
2.782396797381286e+28
-3.8703583283464856e+27
4.6724098852043014e+27
2.1866823564568602e+27
2.6199203378456865e+27
2.3068962407663316e+27
2.277064544408582e+27
2.3993853443450192e+27
5.8369423975763245e+26
-1.7293822569102705e+18
-5.8369424595458554e+26
-2.3993853501096268e+27
-2.2770645510378807e+27
-2.306896256330772e+27
-2.6199203222091886e+27
-2.1866823675537297e+27
-4.6724099146758574e+27
3.870358117722138e+27
-2.7823968916758534e+28
9.427149056730926e+28
-3.4374761436706066e+29
1.3580666148704873e+30
9.696436565129376e+30
6.80944263658419e+20
-9.69643656558932e+30
1.7676425298699504e+30
-1.3330654897016668e+20
-1.7676425297789417e+30
-5.0822990435355694e+29
5.580860658237519e+19
5.0822990440136715e+29
1.3220244217582789e+29
-3.707363213251392e+19
-1.3220244208265742e+29
-3.574701881078312e+28
9.61968880406338e+19
3.5747020336818845e+28
9.729460186224317e+27
-5.908722711110091e+18
-9.729460470491525e+27
-2.4000399510536536e+27
-3.9631676720860365e+18
2.4000399246085166e+27
8.456306431916949e+26
1.4411518807585587e+17
-8.456306780675704e+26
-3.6602718245480713e+25
-4.323455642275676e+17
3.6602739718643736e+25
1.8902697723356577e+26
6.341068275337658e+18
-1.8902698141290623e+26
1.2558043818905035e+26
-7.205759403792794e+17
-1.2558043674789847e+26
1.7097585313013048e+26
-5.764607523034235e+17
-1.7097585255366973e+26
SCALARS stress12 float
LOOKUP_TABLE default
1.1357230687024063e+30
1.5778181415463211e+28
1.5778181413877944e+28
1.1357230687021361e+30
5.428623408255277e+29
-6.616842903110643e+28
4.61159585012176e+28
3.5944264442789297e+27
9.690397217164886e+27
5.28300054798476e+27
4.8787406933384074e+27
4.0648614887839196e+27
3.810458100874214e+27
3.8474229337498935e+27
4.7514682641904826e+27
4.421959301931738e+27
3.6448890135441596e+27
4.4219593011391045e+27
4.751468264118425e+27
3.8474229380373203e+27
3.810458100766128e+27
4.0648614966021685e+27
4.8787406894472973e+27
5.283000537968755e+27
9.690397217489145e+27
3.594426445197664e+27
4.611595849774082e+28
-6.616842902372954e+28
5.428623408103056e+29
-1.2396246680842169e+30
6.445270177645246e+30
-1.2396246680683957e+30
-6.37836364270331e+29
3.130993184344346e+30
-6.378363642618552e+29
1.383495211749724e+29
-5.127034031512844e+29
1.3834952116795129e+29
-3.6659575106273446e+28
1.7766247445072184e+29
-3.665957510317497e+28
1.1045760508921558e+28
-4.233110660034054e+28
1.1045760508182967e+28
-2.215690809160202e+27
1.2170965794933146e+28
-2.2156908025309034e+27
1.1027466436244712e+27
-3.035580727735193e+27
1.1027466440928455e+27
1.0065021315670162e+26
9.386083678744018e+26
1.0065021157143455e+26
3.093093575824034e+26
-1.5207641075269975e+26
3.093093588794401e+26
2.280233949619925e+26
1.3417405556896486e+26
2.2802339798841145e+26
2.7879541711405656e+26
8.361494764652581e+25
2.78795419167698e+26
5.277030425466145e+26
3.0370477603258296e+26
5.2770304290690245e+26
SCALARS strain11 float
LOOKUP_TABLE default
1744716864005.375
31580670206264.5
-31580677694785.75
-1744711301448.25
2702828854420.0
5759764437462.625
9000576443760.25
11987618790428.0
14948342262365.438
17902079649090.125
20850992468695.438
23788908853612.25
26641935560204.125
29349734904307.75
31697903155480.5
14649486894616.5
-1236046.5
-14649491437923.75
-31697913101236.5
-29349742225316.5
-26641940805680.125
-23788899250910.625
-20850961400035.375
-17902047628725.406
-14948325614432.375
-11987651299995.75
-9000637940117.625
-5759784980282.625
-2702819183678.25
-728009500253.25
-24803513.0
727979605906.125
1629748722584.25
-27450829.75
-1629769991866.625
3325424350319.9375
-6408200.125
-3325427744563.6875
4597312589543.6875
12000485.75
-4597303048827.4375
6051222666452.625
6103005.375
-6051211014840.9375
7551921598403.9375
6860406.0
-7551912929049.5
9058923419725.125
4994630.5
-9058918744459.125
10566542634888.375
-1585326.5
-10566540980191.938
12081034008672.5
-2048942.0
-12081030487722.062
13642283278241.75
-559266.25
-13642283862014.625
15229383137995.125
-866923.0
-15229386011513.125
15294771639954.375
-1277612.75
-15294774814424.25
SCALARS strain22 float
LOOKUP_TABLE default
4.935708912123855e+18
3758664658321408.0
-3758664659107840.0
-4.935708912130933e+18
-1.0088506121728655e+18
2.5535293033332736e+17
-7.003410986552525e+16
2.0664098512470016e+16
-2881528213995520.0
3463261912563712.0
1615457328234496.0
1936032000507904.0
1702276996464640.0
1678955767070720.0
1768816290627584.0
427323208368128.0
-524288.0
-427323209023488.0
-1768816287285248.0
-1678955763728384.0
-1702277001248768.0
-1936031986089984.0
-1615457336164352.0
-3463261893951488.0
2881528241586176.0
-2.066409849156403e+16
7.003410987954995e+16
-2.553529303012475e+17
1.0088506121767322e+18
7.20306701683304e+18
500072448.0
-7.203067017181397e+18
1.3131051735721247e+18
-93929472.0
-1.3131051734973153e+18
-3.775436412605563e+17
51281920.0
3.775436412905718e+17
9.82055528455209e+16
-27394048.0
-9.820555285459763e+16
-2.6557521813929984e+16
-8683520.0
2.655752181645312e+16
7224362809655296.0
-9764864.0
-7224362801168384.0
-1786769190092800.0
-6881280.0
1786769196449792.0
623654332006400.0
1638400.0
-623654335479808.0
-32368142188544.0
327680.0
32368151887872.0
134573387546624.0
3276800.0
-134573387350016.0
86761480650752.0
1245184.0
-86761477636096.0
120455770537984.0
1441792.0
-120455768047616.0
SCALARS strain12 float
LOOKUP_TABLE default
2.9528800014441677e+18
4.102327237096243e+16
4.102327236650598e+16
2.9528800014430536e+18
1.4114421195724554e+18
-1.720379225098158e+17
1.1990149328348774e+17
9345510106234880.0
2.519503263780045e+16
1.3735801699106816e+16
1.2684725985476608e+16
1.056864002113536e+16
9907191209918464.0
1.0003299782361088e+16
1.2353817683165184e+16
1.1497094386286592e+16
9476711602192384.0
1.1497094383140864e+16
1.2353817684475904e+16
1.0003299793371136e+16
9907191208345600.0
1.056864004210688e+16
1.2684725977677824e+16
1.3735801573146624e+16
2.5195032551358464e+16
9345510101975040.0
1.1990149327283814e+17
-1.7203792249136742e+17
1.4114421195326587e+18
-3.223024021618721e+18
1.675770194647289e+19
-3.2230240215774986e+18
-1.6583745604606362e+18
8.140581909356642e+18
-1.658374560438616e+18
3.597087518768005e+17
-1.3330286641649582e+18
3.597087518586634e+17
-9.531489676777882e+16
4.619224321407713e+17
-9.53148967600128e+16
2.871897572507648e+16
-1.1006088027144192e+17
2.8718975722520576e+16
-5760795320975360.0
3.164450839658496e+16
-5760795304853504.0
2867141227118592.0
-7892510234771456.0
2867141229740032.0
261690567032832.0
2440381414834176.0
261690563952640.0
804204346212352.0
-395398733627392.0
804204346736640.0
592860835217408.0
348852543684608.0
592860843081728.0
724868095934464.0
217398868574208.0
724868101701632.0
1372027933818880.0
789632430243840.0
1372027934212096.0
SCALARS disp_x float
LOOKUP_TABLE default
-1074748823841.7998
0.0
0.0
1074748987601.1919
-1070036560903.1228
-1051078427496.7463
-1013489879273.7587
-960576056270.4404
-892498496808.3594
-809316389735.115
-711018563585.7925
-597617472541.4907
-469095050748.1456
-326269475214.99097
-169523192142.46906
0.0
0.0
0.0
169523228143.0266
326269571900.6747
469095148375.6638
597617624905.4468
711018558261.3267
809316186614.7517
892498131973.1095
960575649988.5962
1013489879205.9175
1051078738810.765
1070036771005.8357
533020393497.60657
138657.81611848046
-533020365303.76056
-531956255704.57556
-3931.204575558446
531956098497.73096
-517086224114.6191
-186283.8954186297
517086034326.4043
-497611525042.3575
-74063.65680746679
497611361656.0629
-471096444191.6531
-31532.383878240984
471096406473.6998
-437070044648.54285
-17288.256209015814
437070040242.204
-395481825538.1605
43875.39859927911
395481867146.4044
-346337747919.44946
41930.40653339837
346337760242.5968
-289635190899.7363
17649.782093614787
289635226772.80225
-225308528637.69232
12561.513068735334
225308587925.9925
-152665091029.95728
14369.700632429101
152665122009.68457
-70663477913.48846
5178.835560626741
70663503044.05276
SCALARS disp_y float
LOOKUP_TABLE default
-1.5245118653566226e+16
0.0
0.0
-1.524511865294696e+16
4090263360053385.0
-1091339707940011.0
296375286319485.25
-76126597524609.75
23056779407799.203
-4101601228458.8076
2648709895329.805
378268843544.6626
599859437199.037
237363102291.48895
127109418567.17146
0.0
0.0
0.0
127109447211.9222
237363123143.18103
599859421064.6167
378268978450.40283
2648709801336.613
-4101601153921.2427
23056779539241.445
-76126597256134.3
296375285828357.6
-1091339707188082.0
4090263360411154.0
3.0504189903177356e+16
-1.067436729076929e+17
3.050418990284315e+16
-8168229819391456.0
2.860722983440568e+16
-8168229818931266.0
2193302373586642.0
-7660658492525289.0
2193302373757035.5
-583759423269124.2
2056595714429847.5
-583759423918176.8
159681440398528.2
-547807466772492.1
159681440280820.94
-40157320253891.016
149403944456705.94
-40157320469499.44
12800892850497.27
-38003799031684.766
12800892778983.13
-1922150674091.626
11677011726285.459
-1922150588694.0378
1555083282873.7573
-2104921802426.0178
1555083272267.2903
230017253615.61224
1193008217464.375
230017287776.73926
276820169248.6635
-4157892568.220335
276820185988.6978
44771981975.3349
105540458745.13852
44771991890.16968
SCALARS von_mises_stress float
LOOKUP_TABLE default
6.099517993090596e+30
2.7682121760634256e+28
2.7682121760197706e+28
6.099517993115143e+30
1.5088962046154374e+30
3.199361780337066e+29
1.1441527890286414e+29
2.496572190532368e+28
1.7118175418220215e+28
1.0010119135191472e+28
8.660847536150994e+27
7.398864987338364e+27
6.896989273802972e+27
6.950809999847357e+27
8.489156954895979e+27
7.675763902153478e+27
6.31313295940809e+27
7.675763901129806e+27
8.489156955899609e+27
6.950810008555157e+27
6.896989277552373e+27
7.398864996478408e+27
8.660847532198861e+27
1.0010119130826079e+28
1.7118175374418639e+28
2.4965722729951307e+28
1.144152788642594e+29
3.199361780108095e+29
1.508896204592103e+30
8.695134799033345e+30
1.116353541619005e+31
8.695134799415708e+30
1.8920536357621593e+30
5.423039273436275e+30
1.8920536356880635e+30
5.0245707009058334e+29
8.880283434714938e+29
5.024570701222404e+29
1.3125914447472306e+29
3.077204323470578e+29
1.3125914439799312e+29
3.6482422126152374e+28
7.331962737240406e+28
3.648242329940572e+28
9.284188665747586e+27
2.1080731134007137e+28
9.284188894003787e+27
2.8286384226747204e+27
5.257780050914261e+27
2.8286384043561783e+27
7.543807398665775e+26
1.6257173815677637e+27
7.5438077100195e+26
5.36911686204772e+26
2.634040700563899e+26
5.3691168961255716e+26
4.27533184106843e+26
2.3239628130301712e+26
4.275331903284527e+26
4.950442332343619e+26
1.4482533759599443e+26
4.950442364846597e+26
9.259358364833325e+26
5.260321025897603e+26
9.259358370388072e+26
