# vtk DataFile Version 2.0
Generated Volume Mesh
ASCII
DATASET UNSTRUCTURED_GRID
POINTS 65 float
0.0 -0.01 0.0
0.06 -0.01 0.0
0.06 0.01 0.0
0.0 0.01 0.0
0.004999999999989176 -0.01 0.0
0.009999999999977303 -0.01 0.0
0.01499999999996193 -0.01 0.0
0.01999999999994689 -0.01 0.0
0.02499999999992982 -0.01 0.0
0.02999999999991614 -0.01 0.0
0.03499999999993181 -0.01 0.0
0.03999999999994545 -0.01 0.0
0.04499999999995909 -0.01 0.0
0.04999999999997273 -0.01 0.0
0.05499999999998636 -0.01 0.0
0.06 -0.005000000000010828 0.0
0.06 -2.538941279439655e-14 0.0
0.06 0.004999999999987136 0.0
0.05500000000001096 0.01 0.0
0.05000000000002507 0.01 0.0
0.04500000000003964 0.01 0.0
0.0400000000000542 0.01 0.0
0.03500000000007013 0.01 0.0
0.03000000000008537 0.01 0.0
0.02500000000006944 0.01 0.0
0.02000000000005555 0.01 0.0
0.01500000000004167 0.01 0.0
0.01000000000002778 0.01 0.0
0.005000000000013882 0.01 0.0
0.0 0.005000000000010828 0.0
0.0 2.538941279439655e-14 0.0
0.0 -0.004999999999987136 0.0
0.004999999999995354 -0.00499999999998911 0.0
0.005000000000001529 2.115755487475113e-14 0.0
0.005000000000007705 0.005000000000008855 0.0
0.00999999999998992 -0.004999999999991086 0.0
0.01000000000000254 1.69265643168437e-14 0.0
0.01000000000001516 0.005000000000006879 0.0
0.01499999999998186 -0.004999999999993059 0.0
0.0150000000000018 1.269470639719827e-14 0.0
0.01500000000002173 0.005000000000004905 0.0
0.01999999999997405 -0.004999999999995033 0.0
0.02000000000000122 8.462848477552853e-15 0.0
0.02000000000002838 0.005000000000002931 0.0
0.02499999999996472 -0.004999999999997009 0.0
0.02499999999999963 4.231857919645421e-15 0.0
0.02500000000003453 0.005000000000000957 0.0
0.02999999999995845 -0.004999999999998983 0.0
0.03000000000000076 0.0 0.0
0.03000000000004307 0.004999999999998983 0.0
0.03499999999996638 -0.005000000000000957 0.0
0.03500000000000097 -4.231857919645421e-15 0.0
0.03500000000003555 0.004999999999997009 0.0
0.03999999999997263 -0.00500000000000293 0.0
0.03999999999999983 -8.462848477552853e-15 0.0
0.04000000000002701 0.004999999999995034 0.0
0.04499999999997922 -0.005000000000004905 0.0
0.04499999999999937 -1.269470639719827e-14 0.0
0.0450000000000195 0.00499999999999306 0.0
0.04999999999998581 -0.005000000000006878 0.0
0.04999999999999891 -1.692623905619195e-14 0.0
0.05000000000001198 0.004999999999991084 0.0
0.0549999999999925 -0.005000000000008852 0.0
0.05499999999999866 -2.115766329496838e-14 0.0
0.05500000000000481 0.00499999999998911 0.0
CELLS 48 240
4 0 4 32 31
4 31 32 33 30
4 30 33 34 29
4 29 34 28 3
4 4 5 35 32
4 32 35 36 33
4 33 36 37 34
4 34 37 27 28
4 5 6 38 35
4 35 38 39 36
4 36 39 40 37
4 37 40 26 27
4 6 7 41 38
4 38 41 42 39
4 39 42 43 40
4 40 43 25 26
4 7 8 44 41
4 41 44 45 42
4 42 45 46 43
4 43 46 24 25
4 8 9 47 44
4 44 47 48 45
4 45 48 49 46
4 46 49 23 24
4 9 10 50 47
4 47 50 51 48
4 48 51 52 49
4 49 52 22 23
4 10 11 53 50
4 50 53 54 51
4 51 54 55 52
4 52 55 21 22
4 11 12 56 53
4 53 56 57 54
4 54 57 58 55
4 55 58 20 21
4 12 13 59 56
4 56 59 60 57
4 57 60 61 58
4 58 61 19 20
4 13 14 62 59
4 59 62 63 60
4 60 63 64 61
4 61 64 18 19
4 14 1 15 62
4 62 15 16 63
4 63 16 17 64
4 64 17 2 18
CELL_TYPES 48
9
9
9
9
9
9
9
9
9
9
9
9
9
9
9
9
9
9
9
9
9
9
9
9
9
9
9
9
9
9
9
9
9
9
9
9
9
9
9
9
9
9
9
9
9
9
9
9
POINT_DATA 65
SCALARS stress11 float
LOOKUP_TABLE default
2.9873434823303674e+36
2.3423442422627996e+33
-2.3423442644768115e+33
-2.987343482335326e+36
-6.106014934356737e+35
1.5456422941625937e+35
-4.236965917602894e+34
1.2531599859363215e+34
-1.7133151764169846e+33
2.132937322318341e+33
1.0206084727758045e+33
1.2206684389970767e+33
1.0850284007713774e+33
1.0764684007483521e+33
1.1357434870395662e+33
2.8989832387981333e+32
-3.097872412762487e+24
-2.8989833294675698e+32
-1.1357435088757888e+33
-1.0764684123464842e+33
-1.0850284147873612e+33
-1.2206684091894995e+33
-1.0206084333723785e+33
-2.1329372036169372e+33
1.7133150832919176e+33
-1.2531600422023737e+34
4.236965909994217e+34
-1.5456422937345584e+35
6.106014934331803e+35
4.359656455121217e+36
3.264666396937443e+26
-4.359656455300242e+36
7.947606276764534e+35
-7.4481164167820044e+25
-7.947606276644397e+35
-2.285016889604649e+35
-1.052143252383357e+25
2.2850168898112997e+35
5.944821181581063e+34
-7.461339042934039e+24
-5.944821176998479e+34
-1.6061752363221228e+34
5.765065002287263e+25
1.6061753179680614e+34
4.387767047163266e+33
-3.777893186295716e+24
-4.3877671888342607e+33
-1.0631879308581735e+33
8.878048987794933e+24
1.0631879301025949e+33
3.987583383702731e+32
2.833419889721787e+24
-3.98758348419469e+32
4.751207637253532e+30
-3.777893186295716e+24
-4.7511917701021497e+30
1.0893762220124966e+32
7.555786372591432e+22
-1.0893762563913246e+32
8.319023524694689e+31
-8.311365009850576e+23
-8.319023962930298e+31
1.036903803998447e+32
-2.115620184325601e+24
-1.0369038440441149e+32
SCALARS stress22 float
LOOKUP_TABLE default
6.970461521352219e+36
5.336698797709076e+33
-5.336698804509284e+33
-6.970461521360228e+36
-1.4247478958482664e+36
3.606263725167949e+35
-9.889925989792447e+34
2.9191500838354746e+34
-4.058707910099593e+33
4.903838465722576e+33
2.2963823256051328e+33
2.751212323178222e+33
2.4230889997999188e+33
2.3920783474880507e+33
2.5208164179698143e+33
6.166938331044336e+32
-1.2089258196146292e+24
-6.16693837335674e+32
-2.5208164185742772e+33
-2.3920783461280092e+33
-2.4230890081112838e+33
-2.751212270363275e+33
-2.2963823084534977e+33
-4.9038382077680295e+33
4.058707988906445e+33
-2.919150082656772e+34
9.889925990238239e+34
-3.606263724321323e+35
1.4247478958515154e+36
1.0172534113335888e+37
7.01932554013744e+26
-1.0172534113830603e+37
1.8544346995162074e+36
-1.2674831640022128e+26
-1.8544346994158666e+36
-5.3318416831813165e+35
6.5281994259189975e+25
5.331841683830736e+35
1.3869374268135775e+35
-4.6128075804670694e+25
-1.3869374270319397e+35
-3.7502108549191064e+34
-1.5942709246167922e+25
3.750210856279148e+34
1.02073197792202e+34
-2.1231759706981925e+25
-1.0207319756703956e+34
-2.5177193905961997e+33
-7.85801782749509e+24
2.5177194094856656e+33
8.873421020284688e+32
-1.292039469713135e+25
-8.87342008185602e+32
-3.8181912853373727e+31
2.2667359117774297e+23
3.8181925622652696e+31
1.9855535932241288e+32
6.875765599058203e+24
-1.9855535954908647e+32
1.3200835657037344e+32
-9.066943647109719e+23
-1.3200835385029035e+32
1.7957680084707916e+32
3.022314549036573e+23
-1.7957679918480616e+32
SCALARS stress12 float
LOOKUP_TABLE default
1.1914871246972503e+36
1.65480205787554e+34
1.6548020574070813e+34
1.1914871246961264e+36
5.695164944418387e+35
-6.94181260587151e+34
4.837947164171535e+34
3.770118646647233e+33
1.0165403330247241e+34
5.541599156027598e+33
5.1174860630995285e+33
4.2636414900396484e+33
3.9967309443414483e+33
4.0354928835581325e+33
4.982959368786905e+33
4.635681856003583e+33
3.820932183489594e+33
4.6356818550968886e+33
4.9829593689380205e+33
4.03549289001833e+33
3.9967309419613756e+33
4.2636415043578636e+33
5.1174860498769023e+33
5.541599123008812e+33
1.016540313007557e+34
3.7701186518040573e+33
4.837947163650186e+34
-6.941812605216046e+34
5.69516494425131e+35
-1.3004918630251256e+36
6.761733913383557e+36
-1.3004918630084604e+36
-6.691555798206342e+35
3.284724630208293e+36
-6.691555798117467e+35
1.4514136643542686e+35
-5.378788660063694e+35
1.451413664280883e+35
-3.84607638144345e+34
1.8638422675837004e+35
-3.846076381116662e+34
1.1586926988970407e+34
-4.441115313459729e+34
1.158692698638255e+34
-2.3256670378945509e+33
1.276699815879222e+34
-2.325667020629579e+33
1.1557075260097329e+33
-3.1861978169094157e+33
1.155707534283319e+33
1.0440790715245818e+32
9.83126047008406e+32
1.0440790454571189e+32
3.2331058545917696e+32
-1.611135878036026e+32
3.233105851569455e+32
2.380316698819845e+32
1.3917096260083113e+32
2.380316754732664e+32
2.9124497819792162e+32
8.612823976267072e+31
2.9124498156024656e+32
5.523396170273644e+32
3.172371008129469e+32
5.523396177073852e+32
SCALARS strain11 float
LOOKUP_TABLE default
2.776105668222124e+18
5.022138363595876e+19
-5.02213932300792e+19
-2.776096335733719e+18
4.3008920493562266e+18
9.164966938905412e+18
1.4320623335927185e+19
1.9071497292196348e+19
2.377980467040669e+19
2.8476461140034847e+19
3.3165043139295576e+19
3.7835849730411856e+19
4.237146810672572e+19
4.667599872147797e+19
5.040849197246657e+19
2.329695227153167e+19
-1895172669440.0
-2.329696025638653e+19
-5.040850600710242e+19
-4.667601054810348e+19
-4.237147573880082e+19
-3.783583326910035e+19
-3.316499244157875e+19
-2.847640890644955e+19
-2.3779776498638914e+19
-1.9071549182615355e+19
-1.4320723810600878e+19
-9.164999392644956e+18
-4.3008755709331374e+18
-1.158198030927659e+18
-39531482447872.0
1.158150802414764e+18
2.5932304560666706e+18
-43740513959936.0
-2.5932641106608783e+18
5.291299998936072e+18
-10261777088512.0
-5.291305074758648e+18
7.314368634872922e+18
19120571416576.0
-7.314354032222142e+18
9.626781695374787e+18
9805212155904.0
-9.626763870557045e+18
1.201333150526623e+19
11049182822400.0
-1.2013316240613442e+19
1.4409636677795578e+19
8051333398528.0
-1.4409628769911046e+19
1.6806710525235036e+19
-2621996793856.0
-1.6806708496977363e+19
1.9214559330934587e+19
-3341633454080.0
-1.921455333627383e+19
2.1696667273462022e+19
-766233280512.0
-2.169666825753028e+19
2.4219873943788716e+19
-1383896449024.0
-2.421987924714219e+19
2.4323315137146257e+19
-2154190340096.0
-2.432332115400406e+19
SCALARS strain22 float
LOOKUP_TABLE default
5.17805587722557e+24
3.9428813363448455e+21
-3.9428813363448455e+21
-5.178055877236067e+24
-1.0583859783289674e+24
2.6788995091685976e+23
-7.34741578653351e+22
2.1676941281659848e+22
-3.0252314472107223e+21
3.630647069947877e+21
1.6916703901636698e+21
2.0275423309562034e+21
1.781849748715862e+21
1.7569684657151064e+21
1.8510028236347115e+21
4.48131006376943e+20
-274877906944.0
-4.481310061020651e+20
-1.8510028183433118e+21
-1.7569684620729741e+21
-1.7818497540759812e+21
-2.0275423047740828e+21
-1.6916704053506741e+21
-3.630647037787162e+21
3.0252314944897223e+21
-2.167694124726575e+22
7.347415788591659e+22
-2.6788995086167802e+23
1.0583859783291049e+24
7.556739607025083e+24
511341626392576.0
-7.556739607405635e+24
1.3775789558694427e+24
-86071144611840.0
-1.3775789557826671e+24
-3.9608194710929886e+23
63668595195904.0
3.960819471628313e+23
1.0302649798254477e+23
-39960375721984.0
-1.0302649799862513e+23
-2.786283189539334e+22
-15152644620288.0
2.786283189961959e+22
7.577431727478189e+21
-16767552323584.0
-7.577431713871733e+21
-1.8764815821473537e+21
-9964324126720.0
1.8764815938983842e+21
6.519655096331094e+20
3298534883328.0
-6.519655155429844e+20
-3.6598501066156278e+19
1924145348608.0
3.659851845218389e+19
1.381996940911056e+20
3710851743744.0
-1.3819969415982508e+20
8.768340256083254e+19
2199023255552.0
-8.768339836894446e+19
1.2297563000584064e+20
1236950581248.0
-1.2297562622626942e+20
SCALARS strain12 float
LOOKUP_TABLE default
3.0978664049904945e+24
4.302485066979503e+22
4.302485065989942e+22
3.097866404988742e+24
1.4807428109833775e+24
-1.804871261020782e+23
1.2578661976179806e+23
9.802307964482873e+21
2.643004761416303e+22
1.4408157004741613e+22
1.3305463021291239e+22
1.1085467237298098e+22
1.0391499845547881e+22
1.049228085677458e+22
1.2955693541595663e+22
1.2052772010113198e+22
9.934422998574902e+21
1.205277200599003e+22
1.295569354063359e+22
1.049228087505396e+22
1.0391499839775445e+22
1.1085467268359301e+22
1.3305463046511287e+22
1.440815685802553e+22
2.643004753822801e+22
9.802307612226835e+21
1.2578661977719122e+23
-1.804871260835583e+23
1.4807428109411322e+24
-3.3812788809695485e+24
1.7580508070880033e+25
-3.3812788809269596e+24
-1.7398044132272947e+24
8.540283893869836e+24
-1.7398044132026158e+24
3.773675619599213e+23
-1.3984851982637913e+24
3.773675619538396e+23
-9.999797429639174e+22
4.845989500172083e+23
-9.999797409779245e+22
3.012601083776381e+22
-1.1546900013398291e+23
3.012601082456967e+22
-6.046734531786797e+21
3.319419322917613e+22
-6.046734511102235e+21
3.004839540898518e+21
-8.284114921175856e+21
3.004839565156493e+21
2.714604901146978e+20
2.556127786979593e+21
2.7146048145604372e+20
8.406074766127425e+20
-4.188953474740739e+20
8.406074805984722e+20
6.188823017910562e+20
3.618444946501345e+20
6.188823092127597e+20
7.572368977603424e+20
2.2393340497529248e+20
7.572369038076564e+20
1.4360829104654794e+21
8.24816407437734e+20
1.436082911564991e+21
SCALARS disp_x float
LOOKUP_TABLE default
-1.709425830298902e+18
0.0
0.0
1.7094260925177298e+18
-1.7019269581692163e+18
-1.6717582480216827e+18
-1.6119471401435676e+18
-1.527759428806361e+18
-1.419456022472193e+18
-1.28713422909231e+18
-1.1307786427246679e+18
-9.504108067426826e+17
-7.460031819677102e+17
-5.188576058097247e+17
-2.695830450257303e+17
0.0
0.0
0.0
2.6958310278546022e+17
5.188577610978225e+17
7.460033354687642e+17
9.504110490331082e+17
1.13077863943344e+18
1.2871339129853778e+18
1.4194554442647014e+18
1.5277587681204713e+18
1.6119471505277745e+18
1.6717587571572398e+18
1.701927295153583e+18
8.4778530737279e+17
221463482759.06906
-8.477852660082473e+17
-8.460937720643962e+17
-6099265640.686735
8.460935204350202e+17
-8.224310080945088e+17
-296795493895.15265
8.224307036166728e+17
-7.914451211622751e+17
-118682333856.50424
7.914448636844529e+17
-7.492610201203241e+17
-50212026561.237564
7.492609556712814e+17
-6.951309493982889e+17
-27408566447.6673
6.951309365905057e+17
-6.289760746226737e+17
70081921650.85779
6.289761471194724e+17
-5.50807120431615e+17
66954707835.40819
5.508071423987428e+17
-4.6062083380448666e+17
28306312482.354935
4.606208931468472e+17
-3.5831348639093184e+17
20052886616.026665
3.58313581166149e+17
-2.4278393079853984e+17
22884532236.267822
2.427839800739483e+17
-1.1237577554802486e+17
8241821127.815191
1.1237581519239667e+17
SCALARS disp_y float
LOOKUP_TABLE default
-1.5991145080740781e+22
0.0
0.0
-1.5991145079631675e+22
4.2933167340966107e+21
-1.1430064357976179e+21
3.1255226346954346e+20
-7.852080796475258e+19
2.526777765821518e+19
-3.468342213459274e+18
3.393742502621062e+18
8.208052157716257e+17
8.951181182369864e+17
3.932655474420984e+17
1.9760034958439827e+17
0.0
0.0
0.0
1.976003955338464e+17
3.932655849839274e+17
8.951180985633236e+17
8.208054446886487e+17
3.393742338102489e+18
-3.468342059316753e+18
2.5267777881572626e+19
-7.852080752586744e+19
3.1255226269376315e+20
-1.1430064346160214e+21
4.293316734628923e+21
3.2004482047851224e+22
-1.1198230740323138e+23
3.200448204732045e+22
-8.567076775959869e+21
3.001407428809867e+22
-8.567076775205299e+21
2.3029075238351651e+21
-8.034890028828229e+21
2.3029075240361174e+21
-6.108054241990336e+20
2.1591898481139584e+21
-6.108054252093441e+20
1.6885498338734703e+20
-5.733755127543671e+20
1.6885498318805434e+20
-4.106333307135121e+19
1.5780110254013448e+20
-4.106333343745616e+19
1.4248278765126955e+19
-3.905621533512595e+19
1.424827867881903e+19
-1.4199747544948623e+18
1.2840776942857957e+19
-1.4199746083083587e+18
2.0343659408925204e+18
-1.8123814042519844e+18
2.0343659223661025e+18
4.833034975566111e+17
1.4856972933748905e+18
4.833035494221537e+17
4.085334686289866e+17
1.0412993715730371e+17
4.085334947332924e+17
8.02254462592664e+16
1.3616880633898957e+17
8.022546147677115e+16
SCALARS von_mises_stress float
LOOKUP_TABLE default
6.399009049250158e+36
2.903407481098654e+34
2.9034074803702776e+34
6.399009049255999e+36
1.5829828394078108e+36
3.356459039984487e+35
1.2003184378075727e+35
2.6191790550852415e+34
1.795719876634531e+34
1.0500735062410453e+34
9.085003962567211e+33
7.761236943944587e+33
7.234715009827388e+33
7.291188841669832e+33
8.903430803104548e+33
8.047000225155698e+33
6.618048674079066e+33
8.047000223815987e+33
8.903430803185111e+33
7.291188851860506e+33
7.234715007798194e+33
7.761236953568204e+33
9.085003937404121e+33
1.0500734919474363e+34
1.7957198442090804e+34
2.619179049841934e+34
1.2003184378182746e+35
3.356459039261954e+35
1.5829828393922358e+36
9.122068731318601e+36
1.1711666685241854e+37
9.12206873173068e+36
1.9849555144428823e+36
5.689309948393655e+36
1.9849555143610407e+36
5.2712706719294684e+35
9.31633524240564e+35
5.271270672370042e+35
1.3770490265121433e+35
3.2282695047493556e+35
1.377049026690499e+35
3.8272824368475812e+34
7.69223736518443e+34
3.8272824319228328e+34
9.74067332794603e+33
2.2113089471166437e+34
9.740673286643808e+33
2.966386740424067e+33
5.518656501852147e+33
2.966386762791424e+33
7.907288976059584e+32
1.7028242636629078e+33
7.907288143558787e+32
5.614722136036441e+32
2.7905691986554912e+32
5.6147221333014745e+32
4.468094841507222e+32
2.4105117816290767e+32
4.4680949323418395e+32
5.175286728131346e+32
1.4917848723541971e+32
5.175286781600165e+32
9.693380696191201e+32
5.49470776653874e+32
9.693380706199616e+32
