# vtk DataFile Version 2.0
Generated Volume Mesh
ASCII
DATASET UNSTRUCTURED_GRID
POINTS 65 float
0.0 -0.009999999776482582 0.0
0.05999999865889549 -0.009999999776482582 0.0
0.05999999865889549 0.009999999776482582 0.0
0.0 0.009999999776482582 0.0
0.004999999888241291 -0.009999999776482582 0.0
0.009999999776482582 -0.009999999776482582 0.0
0.014999999664723873 -0.009999999776482582 0.0
0.019999999552965164 -0.009999999776482582 0.0
0.02500000037252903 -0.009999999776482582 0.0
0.029999999329447746 -0.009999999776482582 0.0
0.03500000014901161 -0.009999999776482582 0.0
0.03999999910593033 -0.009999999776482582 0.0
0.04500000178813934 -0.009999999776482582 0.0
0.05000000074505806 -0.009999999776482582 0.0
0.054999999701976776 -0.009999999776482582 0.0
0.05999999865889549 -0.004999999888241291 0.0
0.05999999865889549 -2.538941279439655e-14 0.0
0.05999999865889549 0.004999999888241291 0.0
0.054999999701976776 0.009999999776482582 0.0
0.05000000074505806 0.009999999776482582 0.0
0.04500000178813934 0.009999999776482582 0.0
0.03999999910593033 0.009999999776482582 0.0
0.03500000014901161 0.009999999776482582 0.0
0.029999999329447746 0.009999999776482582 0.0
0.02500000037252903 0.009999999776482582 0.0
0.019999999552965164 0.009999999776482582 0.0
0.014999999664723873 0.009999999776482582 0.0
0.009999999776482582 0.009999999776482582 0.0
0.004999999888241291 0.009999999776482582 0.0
0.0 0.004999999888241291 0.0
0.0 2.538941279439655e-14 0.0
0.0 -0.004999999888241291 0.0
0.004999999888241291 -0.004999999888241291 0.0
0.004999999888241291 2.1157554874751128e-14 0.0
0.004999999888241291 0.004999999888241291 0.0
0.009999999776482582 -0.004999999888241291 0.0
0.009999999776482582 1.6926564316843695e-14 0.0
0.009999999776482582 0.004999999888241291 0.0
0.014999999664723873 -0.004999999888241291 0.0
0.014999999664723873 1.2694706397198274e-14 0.0
0.014999999664723873 0.004999999888241291 0.0
0.019999999552965164 -0.004999999888241291 0.0
0.019999999552965164 8.462848477552853e-15 0.0
0.019999999552965164 0.004999999888241291 0.0
0.02500000037252903 -0.004999999888241291 0.0
0.02500000037252903 4.231857919645421e-15 0.0
0.02500000037252903 0.004999999888241291 0.0
0.029999999329447746 -0.004999999888241291 0.0
0.029999999329447746 0.0 0.0
0.029999999329447746 0.004999999888241291 0.0
0.03500000014901161 -0.004999999888241291 0.0
0.03500000014901161 -4.231857919645421e-15 0.0
0.03500000014901161 0.004999999888241291 0.0
0.03999999910593033 -0.004999999888241291 0.0
0.03999999910593033 -8.462848477552853e-15 0.0
0.03999999910593033 0.004999999888241291 0.0
0.04500000178813934 -0.004999999888241291 0.0
0.04500000178813934 -1.2694706397198274e-14 0.0
0.04500000178813934 0.004999999888241291 0.0
0.05000000074505806 -0.004999999888241291 0.0
0.05000000074505806 -1.692623905619195e-14 0.0
0.05000000074505806 0.004999999888241291 0.0
0.054999999701976776 -0.004999999888241291 0.0
0.054999999701976776 -2.1157663294968376e-14 0.0
0.054999999701976776 0.004999999888241291 0.0
CELLS 48 240
4 0 4 32 31
4 31 32 33 30
4 30 33 34 29
4 29 34 28 3
4 4 5 35 32
4 32 35 36 33
4 33 36 37 34
4 34 37 27 28
4 5 6 38 35
4 35 38 39 36
4 36 39 40 37
4 37 40 26 27
4 6 7 41 38
4 38 41 42 39
4 39 42 43 40
4 40 43 25 26
4 7 8 44 41
4 41 44 45 42
4 42 45 46 43
4 43 46 24 25
4 8 9 47 44
4 44 47 48 45
4 45 48 49 46
4 46 49 23 24
4 9 10 50 47
4 47 50 51 48
4 48 51 52 49
4 49 52 22 23
4 10 11 53 50
4 50 53 54 51
4 51 54 55 52
4 52 55 21 22
4 11 12 56 53
4 53 56 57 54
4 54 57 58 55
4 55 58 20 21
4 12 13 59 56
4 56 59 60 57
4 57 60 61 58
4 58 61 19 20
4 13 14 62 59
4 59 62 63 60
4 60 63 64 61
4 61 64 18 19
4 14 1 15 62
4 62 15 16 63
4 63 16 17 64
4 64 17 2 18
CELL_TYPES 48
9
9
9
9
9
9
9
9
9
9
9
9
9
9
9
9
9
9
9
9
9
9
9
9
9
9
9
9
9
9
9
9
9
9
9
9
9
9
9
9
9
9
9
9
9
9
9
9
POINT_DATA 65
SCALARS stress11 float
LOOKUP_TABLE default
-5374236695.668457
-73486726806.3446
73486645567.5907
5374156403.024414
-5876177809.978516
-11744772777.189453
-18628432609.925293
-24817246761.20874
-30942115898.32544
-37049246297.34448
-43146254095.5918
-49219582259.887695
-55062277369.12671
-60648277789.58374
-65718811115.02881
-34054030171.2334
-19751.768493652344
34053990748.063477
65718769552.223145
60648210889.479004
55062212445.126465
49219511952.27612
43146314386.160645
37049311292.20776
30942236778.001953
24817301552.299072
18628519899.604004
11744890515.882324
5876187809.206055
4830754177.684082
-61145.933654785156
-4830902065.554077
-3183425568.499878
-7444.419494628906
3183427623.888794
-6464479268.74292
-49821.78826904297
6464438807.53418
-8925016425.064453
-44.873138427734375
8924990138.477783
-11738668264.801758
67630.79837036133
11738826451.578125
-14648718277.796875
5162.2237548828125
14648782911.151367
-17572795158.921143
-1034.0638427734375
17572762227.317627
-20498762599.36328
-9146.577606201172
20498737954.83496
-23439426214.422607
-9520.708999633789
23439387332.741455
-26471756551.377197
-23602.22282409668
26471725238.46924
-29534042599.204224
-28843.0919342041
29533975216.21985
-29583158066.25818
-21415.0672454834
29583111618.58423
SCALARS stress22 float
LOOKUP_TABLE default
-4748189840.192871
-30303256102.2157
30303224236.914124
4747698766.368042
-1641683597.3499756
-1683161818.440796
-3267503769.0405273
-4359324588.198608
-5416509780.425537
-6460972967.737183
-7501233539.462402
-8533947581.544067
-9407247125.830078
-10330167861.263184
-11657248525.664612
-13978428338.128723
-6401.03963470459
13978416737.332184
11657243451.05658
10330108842.264038
9407264832.468506
8533903955.182617
7501321191.285156
6460971706.973633
5416742884.08374
4359394251.263306
3267451620.0219727
1683214609.8270264
1641499214.694336
8019860222.795471
-224506.2410888672
-8020365080.8862915
-149967395.28759766
-27271.488342285156
149837882.5881958
-232832206.70135498
-73295.44448852539
232769376.38598633
-290844434.3352661
21185.98471069336
290816428.00164795
-358663510.82141113
165559.76522827148
358919185.4366455
-440955681.4994507
-21696.550735473633
441026394.58587646
-526439729.6356201
22015.13754272461
526435617.61816406
-612615722.156189
44976.97708129883
612688022.2172852
-701784939.1309814
-9355.961715698242
701766746.4154663
-795265464.8379517
-20075.5171585083
795287440.3623657
-843047083.0865479
-6924.686058044434
842997837.166626
-662848776.7487183
-8794.5085105896
662830272.1787109
SCALARS stress12 float
LOOKUP_TABLE default
1823692283.5117188
15722631011.660156
15722608290.714844
1823745269.6796875
2280048628.7929688
2547626344.2695312
2596923858.1289062
2564371604.7539062
2570850810.8554688
2578306789.84375
2591349045.8828125
2603017152.107422
2654319084.734375
2712269476.1191406
5831096010.863281
10953458281.066406
9422973795.449219
10953453067.671875
5831082305.777344
2712301188.8632812
2654374352.6816406
2603032867.484375
2591359308.830078
2578275316.484375
2570839973.2402344
2564445764.265625
2596921242.5625
2547563767.453125
2280000671.0507812
3179763573.6328125
6875045678.816406
3179664735.0273438
3504795744.2265625
5807096630.886719
3504798444.7304688
3812871847.5
4838957552.089844
3812863644.2382812
3802036598.0859375
5013558837.597656
3802034366.8789062
3817082172.375
5047039451.2578125
3817075622.2929688
3816987066.1933594
5055185261.3828125
3816983738.482422
3818087640.533203
5055421517.697266
3818109085.5195312
3818740854.533203
5057286634.8359375
3818747554.078125
3825308753.8535156
5064046195.880859
3825305259.4023438
3831603006.8320312
5132466951.371094
3831621770.3242188
3998372378.8554688
5136512231.048828
3998378204.783203
4109641118.3789062
4451908268.595703
4109627814.029297
SCALARS strain11 float
LOOKUP_TABLE default
-0.003038761139494972
-0.05505464981061692
0.055054586139916095
0.0030388796539038143
-0.004707065147719014
-0.01003131001541413
-0.015677546876264437
-0.020883557639627126
-0.026044885728811806
-0.031195033069604472
-0.03633760893618665
-0.04146157816496099
-0.046437843932571
-0.0511611654591837
-0.05525778662668879
-0.0255375816962905
-1.546505650623642e-08
0.025537551350012344
0.055257754242627466
0.051161131057911424
0.04643778013741584
0.04146153237799344
0.036337631176799334
0.031195092762271504
0.026044904575985628
0.020883581118954497
0.015677647886870982
0.010031397028590794
0.004707146108524185
0.0012682408936420808
3.183260258166065e-08
-0.0012681784420571773
-0.002838430039468376
3.936880543786714e-09
0.0028384821768815405
-0.005791871704396101
-1.6757455673088728e-08
0.005791859043529968
-0.008008335277312595
-8.451193578284943e-09
0.008008322730632234
-0.010542309045840192
-3.0788311761176246e-09
0.010542353499084944
-0.01315836078260102
1.3305462537305246e-08
0.01315839159969312
-0.0157859324186147
-9.47805765816323e-09
0.0157859032939921
-0.018414952996081868
-2.6203612640829377e-08
0.018414903442415365
-0.021056182055436468
-5.259107940802643e-09
0.02105615428999985
-0.02377914529366698
-1.3314195239366722e-08
0.023779108041381725
-0.026547190426728373
-2.352020575524527e-08
0.026547148291438782
-0.02666216253212228
-1.6126467376753606e-08
0.026662128776439475
SCALARS strain22 float
LOOKUP_TABLE default
-0.002224900389511274
0.0010838610288624595
-0.0010838589451197395
0.0022244847138234974
0.0007977772955592936
0.0030487842203968628
0.004291660621790774
0.005711741375071801
0.007138401570550888
0.00856972073995258
0.01000091694049948
0.011429744402196086
0.012913692342459754
0.014252375272633719
0.015022239092889668
0.0005607032683222143
1.7625750722231187e-09
-0.0005606987973143344
-0.015022229519626694
-0.014252404428611355
-0.012913652266452847
-0.011429757223140899
-0.010000861288460818
-0.008569747668245312
-0.00713823652351944
-0.005711699344037471
-0.004291742557697772
-0.0030487824768149676
-0.0007979491099719595
0.0054140782382019696
-1.804998916096756e-07
-0.005414480306590409
0.0011050657402240736
-2.1993430817865423e-08
-0.0011051842491485667
0.002309269855102953
-4.724521338560217e-08
-0.002309310952056571
0.0032160879153944498
1.942944702695848e-08
-0.0032161034988212297
0.004251696810149195
1.2434778197921437e-07
-0.004251525817071632
0.005311730685827275
-2.1974566570027998e-08
-0.005311691353738066
0.0063743305111587266
2.043696076259316e-08
-0.006374321122677739
0.007437036889540274
4.4830329163324245e-08
-0.007436961976692323
0.008502752361701352
-4.645382061223974e-09
-0.008502753998591947
0.009600294302145887
-9.326991917951027e-09
-0.009600261776964533
0.01075110410363599
4.9036672777891255e-09
-0.010751122956391773
0.010934239659571455
3.846977174749161e-10
-0.01093423896322232
SCALARS strain12 float
LOOKUP_TABLE default
0.004741599730408552
0.04087883589075858
0.04087877882976443
0.004741737075036667
0.005928125757293401
0.0066238281261519205
0.006752001308498734
0.0066673656885001265
0.006684211373553239
0.00670359695020295
0.006737506857632525
0.006767843806173346
0.006901229420307686
0.007051899983487431
0.015160848451380105
0.028478988847929543
0.024499729578188578
0.02847897528066312
0.015160812564324999
0.00705198254646433
0.006901372489586777
0.0067678853142254525
0.006737533662814599
0.006703515054894638
0.006684183318874659
0.006667558183536926
0.006751994665478378
0.00662366547410187
0.005928001264706495
0.008267384602348216
0.01787511811745901
0.008267127874248104
0.009112468275631613
0.01509844971745622
0.009112475468370462
0.009913465992937631
0.012581288385256073
0.00991344483271206
0.009885294279705192
0.013035251275610449
0.009885288883509702
0.00992441326000204
0.013122301339826947
0.00992439584305771
0.009924165309719513
0.013143480704698618
0.00992415684291359
0.009927027378399345
0.013144094363930492
0.009927082928022912
0.009928725424682483
0.013148944463662104
0.00992874300382951
0.009945802133501047
0.013166519340398253
0.009945792813791599
0.009962166919276427
0.01334441291978905
0.00996221589347357
0.010395767015452861
0.0133549308255283
0.01039578253993767
0.010685066177600788
0.011574960370083431
0.01068503105530283
SCALARS disp_x float
LOOKUP_TABLE default
0.0018730746814981103
0.0
0.0
-0.0018730757292360067
0.0018648692639544606
0.0018318553920835257
0.0017663909820839763
0.0016742191510275006
0.0015556158032268286
0.0014106781454756856
0.0012393823126330972
0.0010417457669973373
0.0008177353884093463
0.0005687763914465904
0.000295534438919276
0.0
0.0
0.0
-0.00029553432250395417
-0.0005687762168236077
-0.0008177348063327372
-0.001041744602844119
-0.001239381032064557
-0.0014106773305684328
-0.0015556152211502194
-0.001674218219704926
-0.0017663904000073671
-0.0018318555084988475
-0.001864869613200426
-0.0009289528243243694
4.4410505828373914e-10
0.0009289534064009786
0.0009270975715480745
6.964116505692175e-10
-0.0009270966984331608
0.000901202205568552
4.405796560913444e-10
-0.0009012010996229947
0.0008672803523950279
4.831065547605817e-10
-0.0008672797121107578
0.0008210894884541631
3.7412259401570225e-10
-0.0008210886153392494
0.000761806033551693
4.082294502438799e-10
-0.0007618048111908138
0.0006893394747748971
5.65292257448391e-10
-0.000689338194206357
0.0006036971462890506
3.3391289733231133e-10
-0.0006036963313817978
0.0005048738676123321
2.778495766797562e-10
-0.0005048732273280621
0.0003927538054995239
3.3857630588052245e-10
-0.00039275322342291474
0.0002661283651832491
1.812849315108167e-10
-0.00026612801593728364
0.00012318302469793707
9.204727258182999e-11
-0.00012318285007495433
SCALARS disp_y float
LOOKUP_TABLE default
-0.008104830980300903
0.0
0.0
-0.008104834705591202
-0.0071460893377661705
-0.006178541108965874
-0.005232648458331823
-0.004327542148530483
-0.0034751202911138535
-0.0026886099949479103
-0.001981158973649144
-0.00136591459158808
-0.0008564449963159859
-0.00046482455218210816
-0.00020705156202893704
0.0
0.0
0.0
-0.00020705125643871725
-0.00046482463949359953
-0.0008564450545236468
-0.0013659149408340454
-0.001981157809495926
-0.0026886097621172667
-0.0034751195926219225
-0.0043275426141917706
-0.005232648458331823
-0.006178542505949736
-0.007146089803427458
-0.008114092983305454
-0.008169649168848991
-0.008114091120660305
-0.007140577770769596
-0.007129475940018892
-0.007140578236430883
-0.006159857381135225
-0.006153742782771587
-0.006159857846796513
-0.0052072894759476185
-0.005198531784117222
-0.0052072894759476185
-0.004293625708669424
-0.004282360430806875
-0.004293625708669424
-0.003432774916291237
-0.003418654901906848
-0.0034327751491218805
-0.002637788886204362
-0.0026208478957414627
-0.0026377884205430746
-0.00192185677587986
-0.001902103191241622
-0.001921856077387929
-0.0012981920735910535
-0.0012755460338667035
-0.0012981923064216971
-0.0007797645521350205
-0.0007543881074525416
-0.0007797647849656641
-0.00038067949935793877
-0.0003496656136121601
-0.000380679324734956
-0.00010721177386585623
-8.206216443795711e-05
-0.0001072116065188311
SCALARS von_mises_stress float
LOOKUP_TABLE default
5990608598.234081
69521957843.31042
69521877213.33357
5990447839.808817
6570664442.16415
11852238951.357994
17806140772.040726
23376077918.168255
28965197440.23054
34568188292.07871
40179134988.246086
45778655496.350174
51220137313.84816
56395818053.77713
61569132734.24078
35199237978.677925
16321069372.117521
35199203803.82356
61569090158.3864
56395777735.82139
51220075808.80775
45778604458.22325
40179165390.73278
34568245275.486465
28965231466.662952
23376131397.010773
17806240648.56956
11852288251.361658
6570658593.069027
8901969433.517729
11907928421.763823
8902195012.66137
6821294463.331291
10058186409.187483
6821326937.452554
9162561828.197506
8381320336.139451
9162544122.550463
10977757703.58537
8683738633.481003
10977745005.03105
13320100941.990871
8741728758.572031
13320126813.693329
15875393674.945187
8755837714.423185
15875419355.90689
18535442553.29
8756246922.357664
18535426884.42118
21254765277.866833
8759477400.118603
21254712695.856293
24028082075.977768
8771185303.146622
24028051387.84706
26914267835.145176
8889693527.970226
26914235355.651417
29933806259.99441
8896700157.913763
29933765967.56589
30110810349.49213
7710931311.86629
30110768462.309628
