# vtk DataFile Version 2.0
Generated Volume Mesh
ASCII
DATASET UNSTRUCTURED_GRID
POINTS 65 float
0.0 -0.01 0.0
0.06 -0.01 0.0
0.06 0.01 0.0
0.0 0.01 0.0
0.004999999999989176 -0.01 0.0
0.009999999999977303 -0.01 0.0
0.01499999999996193 -0.01 0.0
0.01999999999994689 -0.01 0.0
0.02499999999992982 -0.01 0.0
0.02999999999991614 -0.01 0.0
0.03499999999993181 -0.01 0.0
0.03999999999994545 -0.01 0.0
0.04499999999995909 -0.01 0.0
0.04999999999997273 -0.01 0.0
0.05499999999998636 -0.01 0.0
0.06 -0.005000000000010828 0.0
0.06 -2.538941279439655e-14 0.0
0.06 0.004999999999987136 0.0
0.05500000000001096 0.01 0.0
0.05000000000002507 0.01 0.0
0.04500000000003964 0.01 0.0
0.0400000000000542 0.01 0.0
0.03500000000007013 0.01 0.0
0.03000000000008537 0.01 0.0
0.02500000000006944 0.01 0.0
0.02000000000005555 0.01 0.0
0.01500000000004167 0.01 0.0
0.01000000000002778 0.01 0.0
0.005000000000013882 0.01 0.0
0.0 0.005000000000010828 0.0
0.0 2.538941279439655e-14 0.0
0.0 -0.004999999999987136 0.0
0.004999999999995354 -0.00499999999998911 0.0
0.005000000000001529 2.115755487475113e-14 0.0
0.005000000000007705 0.005000000000008855 0.0
0.00999999999998992 -0.004999999999991086 0.0
0.01000000000000254 1.69265643168437e-14 0.0
0.01000000000001516 0.005000000000006879 0.0
0.01499999999998186 -0.004999999999993059 0.0
0.0150000000000018 1.269470639719827e-14 0.0
0.01500000000002173 0.005000000000004905 0.0
0.01999999999997405 -0.004999999999995033 0.0
0.02000000000000122 8.462848477552853e-15 0.0
0.02000000000002838 0.005000000000002931 0.0
0.02499999999996472 -0.004999999999997009 0.0
0.02499999999999963 4.231857919645421e-15 0.0
0.02500000000003453 0.005000000000000957 0.0
0.02999999999995845 -0.004999999999998983 0.0
0.03000000000000076 0.0 0.0
0.03000000000004307 0.004999999999998983 0.0
0.03499999999996638 -0.005000000000000957 0.0
0.03500000000000097 -4.231857919645421e-15 0.0
0.03500000000003555 0.004999999999997009 0.0
0.03999999999997263 -0.00500000000000293 0.0
0.03999999999999983 -8.462848477552853e-15 0.0
0.04000000000002701 0.004999999999995034 0.0
0.04499999999997922 -0.005000000000004905 0.0
0.04499999999999937 -1.269470639719827e-14 0.0
0.0450000000000195 0.00499999999999306 0.0
0.04999999999998581 -0.005000000000006878 0.0
0.04999999999999891 -1.692623905619195e-14 0.0
0.05000000000001198 0.004999999999991084 0.0
0.0549999999999925 -0.005000000000008852 0.0
0.05499999999999866 -2.115766329496838e-14 0.0
0.05500000000000481 0.00499999999998911 0.0
CELLS 48 240
4 0 4 32 31
4 31 32 33 30
4 30 33 34 29
4 29 34 28 3
4 4 5 35 32
4 32 35 36 33
4 33 36 37 34
4 34 37 27 28
4 5 6 38 35
4 35 38 39 36
4 36 39 40 37
4 37 40 26 27
4 6 7 41 38
4 38 41 42 39
4 39 42 43 40
4 40 43 25 26
4 7 8 44 41
4 41 44 45 42
4 42 45 46 43
4 43 46 24 25
4 8 9 47 44
4 44 47 48 45
4 45 48 49 46
4 46 49 23 24
4 9 10 50 47
4 47 50 51 48
4 48 51 52 49
4 49 52 22 23
4 10 11 53 50
4 50 53 54 51
4 51 54 55 52
4 52 55 21 22
4 11 12 56 53
4 53 56 57 54
4 54 57 58 55
4 55 58 20 21
4 12 13 59 56
4 56 59 60 57
4 57 60 61 58
4 58 61 19 20
4 13 14 62 59
4 59 62 63 60
4 60 63 64 61
4 61 64 18 19
4 14 1 15 62
4 62 15 16 63
4 63 16 17 64
4 64 17 2 18
CELL_TYPES 48
9
9
9
9
9
9
9
9
9
9
9
9
9
9
9
9
9
9
9
9
9
9
9
9
9
9
9
9
9
9
9
9
9
9
9
9
9
9
9
9
9
9
9
9
9
9
9
9
POINT_DATA 65
SCALARS stress11 float
LOOKUP_TABLE default
2.78009203817946e+27
2.1479844610153063e+24
-2.1479844654485372e+24
-2.7800920381773223e+27
-5.682430910550504e+26
1.4383609971760904e+26
-3.943831966325773e+25
1.1651432335197607e+25
-1.607884903647416e+24
1.9688841922061884e+24
9.310830094438776e+23
1.1146335448110195e+24
9.858738988804622e+23
9.754896700668259e+23
1.0284582857894799e+24
2.550217724147977e+23
-1266637395197952.0
-2.5502177635544736e+23
-1.0284582949374166e+24
-9.754896739371068e+23
-9.858739039470118e+23
-1.1146335275003084e+24
-9.310829967423193e+23
-1.9688841696530058e+24
1.6078849171933992e+24
-1.1651432364207121e+25
3.94383196430619e+25
-1.4383609969310312e+26
5.6824309105974755e+26
4.057203614044015e+27
2.9945419084804915e+17
-4.0572036142179665e+27
7.39622019365372e+26
-6.685910306180301e+16
-7.396220193415258e+26
-2.1265200244504037e+26
4732298045947904.0
2.1265200244854122e+26
5.532006851046574e+25
-4310085580881920.0
-5.532006851456472e+25
-1.4952551676039672e+25
1548112371908608.0
1.495255168583852e+25
4.07700323763928e+24
-2955487255461888.0
-4.077003230919065e+24
-9.97054525463748e+23
4046202790215680.0
9.970545354561097e+23
3.622004828459633e+23
1301821767286784.0
-3.622004862588474e+23
-5.745691806464953e+21
-1864771720708096.0
5.745699687764301e+21
8.989955995633018e+22
70368744177664.0
-8.989955995633018e+22
6.461231206014395e+22
351843720888320.0
-6.461231417120628e+22
8.367010287762965e+22
-1196268651020288.0
-8.367010569237941e+22
SCALARS stress22 float
LOOKUP_TABLE default
6.486877649841636e+27
4.953322455594425e+24
-4.953322460238762e+24
-6.486877649847775e+27
-1.3259055801918852e+27
3.356068983399783e+26
-9.203946774779955e+25
2.7164418539445513e+25
-3.7794848685311135e+24
4.5608251972111374e+24
2.133813116220361e+24
2.556642003392936e+24
2.2509045828032947e+24
2.2216459989719358e+24
2.3408783163769846e+24
5.678494846173855e+23
-1407374883553280.0
-5.678494881358227e+23
-2.3408783169399346e+24
-2.221645997001611e+24
-2.2509045885735318e+24
-2.556641981578625e+24
-2.133813119035111e+24
-4.5608251740598205e+24
3.779484894778655e+24
-2.716441853522339e+25
9.203946775209204e+25
-3.356068983041254e+26
1.3259055801997313e+27
9.466809230357114e+27
6.711418975944704e+17
-9.466809230798608e+27
1.7257817421636617e+27
-1.3496725133275955e+17
-1.725781742076299e+27
-4.9619422407280356e+26
5.122844576133939e+16
4.961942240957438e+26
1.2907162206896343e+26
-2.5930882229469184e+16
-1.2907162207649289e+26
-3.490052422219489e+25
-6122080743456768.0
3.490052422845771e+25
9.498987683027704e+24
-8655355533852672.0
-9.498987674020504e+24
-2.3432791652832438e+24
-3659174697238528.0
2.3432791739385993e+24
8.25516147065419e+23
1970324836974592.0
-8.255161520615998e+23
-3.5837422885985835e+22
-703687441776640.0
3.5837432948716252e+22
1.844354819275023e+23
-492581209243648.0
-1.8443547707205895e+23
1.2248455303240764e+23
1548112371908608.0
-1.2248455373609508e+23
1.668309947229166e+23
140737488355328.0
-1.668309935970167e+23
SCALARS stress12 float
LOOKUP_TABLE default
1.1088275292511857e+27
1.5406801851037555e+25
1.5406801850122762e+25
1.1088275292511505e+27
5.30006798388802e+26
-6.460107934100432e+25
4.502423171861834e+25
3.509675327050941e+24
9.461284318417493e+24
5.158263210522029e+24
4.76357868869661e+24
3.9689751102137175e+24
3.7206038010464893e+24
3.7567015981023723e+24
4.6397887313185965e+24
4.3188238196077836e+24
3.55993441202955e+24
4.3188238185522525e+24
4.6397887308260153e+24
3.7567016009523064e+24
3.7206038004835393e+24
3.968975118869073e+24
4.763578685459648e+24
5.158263201937042e+24
9.461284317731397e+24
3.509675328000919e+24
4.502423171534619e+25
-6.460107933379152e+25
5.3000679837410375e+26
-1.2102677980564087e+27
6.292636263674737e+27
-1.210267798041064e+27
-6.227308335397259e+26
3.056846780023655e+27
-6.227308335314004e+26
1.3507372699739314e+26
-5.005610219323117e+26
1.3507372699060695e+26
-3.579086548898126e+25
1.7345584690856937e+26
-3.579086548600818e+25
1.078473062852092e+25
-4.1327901697301365e+25
1.0784730627289468e+25
-2.1626673884803792e+24
1.188346902485024e+25
-2.162667389025737e+24
1.0771838316223617e+24
-2.962962131965014e+24
1.0771838391694095e+24
9.881866542466009e+22
9.171115999840647e+23
9.88186652839226e+22
3.0253727465110365e+23
-1.4774310416769012e+23
3.025372746159193e+23
2.2317714877538366e+23
1.317383118411107e+23
2.231771512382897e+23
2.7277089113811964e+23
8.2377084099502e+22
2.727708928269695e+23
5.158000574841431e+23
2.9715580460354973e+23
5.158000572730369e+23
SCALARS strain11 float
LOOKUP_TABLE default
1263098213.9672852
22869416203.368652
-22869420584.87671
-1263095135.2661133
1956664793.6229248
4169744532.322937
6516167421.32605
8679099873.7771
10823134571.988525
12962232098.843994
15097927530.78769
17225725370.928833
19292092427.52057
21253323533.56909
22954156626.652344
10608437670.99768
-896.58203125
-10608441089.20813
-22954163293.48169
-21253328013.9104
-19292095346.278503
-17225718553.735962
-15097905397.234863
-12962208317.605042
-10823121342.260101
-8679123126.081879
-6516212835.254517
-4169759635.30249
-1956657731.7688599
-527086087.4543457
-17898.855224609375
527065127.77319336
1179853817.1761475
-19829.024536132812
-1179869121.5726318
2407448888.2180176
-4663.6973876953125
-2407451971.212219
3328398447.3217773
8676.568298339844
-3328391759.072998
4381187380.590454
4454.7342529296875
-4381178400.788208
5467919538.118011
4985.700622558594
-5467912583.31131
6559276431.978943
3619.5999755859375
-6559273185.878418
7651128901.777283
-1191.748291015625
-7651127523.181946
8747992927.018188
-1489.2440185546875
-8747989702.63855
9878739063.77301
-351.9693603515625
-9878739383.148376
11028207576.463745
-587.4097900390625
-11028209707.790771
11075682232.61499
-936.13818359375
-11075684618.658447
SCALARS strain22 float
LOOKUP_TABLE default
4818823113182976.0
3669810699136.0
-3669810700032.0
-4818823113189440.0
-984959227398864.0
249306189170656.0
-68374961578496.0
20175565453984.0
-2812254719360.0
3382487183360.0
1578648480320.0
1891837895680.0
1663833003904.0
1641257484160.0
1729101137664.0
417284672640.0
128.0
-417284673024.0
-1729101135040.0
-1641257481152.0
-1663833006528.0
-1891837882304.0
-1578648486912.0
-3382487170496.0
2812254739072.0
-20175565438784.0
68374961590528.0
-249306189147488.0
984959227404560.0
7032487140864816.0
493920.0
-7032487141198560.0
1282008853832544.0
-96608.0
-1282008853762400.0
-368602451844768.0
44800.0
368602451864352.0
95880347257504.0
-21760.0
-95880347262528.0
-25927980267840.0
-6112.0
25927980269824.0
7054046927648.0
-6976.0
-7054046921376.0
-1743532700480.0
-4544.0
1743532704448.0
609961543232.0
1152.0
-609961545600.0
-30371194816.0
320.0
30371202496.0
132775499392.0
576.0
-132775499840.0
86262178496.0
2176.0
-86262175552.0
119184906688.0
384.0
-119184904320.0
SCALARS strain12 float
LOOKUP_TABLE default
2882951543240640.0
40057683901952.0
40057683897856.0
2882951543237632.0
1378017694712320.0
-167962810192928.0
117063002759904.0
9125155016800.0
24599339220928.0
13411484239488.0
12385304369152.0
10319335095936.0
9673569694848.0
9767423957120.0
12063450442112.0
11228941663616.0
9255829249280.0
11228941661184.0
12063450442240.0
9767423964544.0
9673569694592.0
10319335120000.0
12385304366144.0
13411484116224.0
24599339143872.0
9125154673536.0
117063002728096.0
-167962810179248.0
1378017694671696.0
-3146696259915376.0
1.6360854736015664e+16
-3146696259875040.0
-1619100215082000.0
7947801701373528.0
-1619100215060592.0
351191690839328.0
-1301458564001200.0
351191690821072.0
-93056247783456.0
450985194037504.0
-93056247777152.0
28040299824160.0
-107452540117824.0
28040299840416.0
-5622935361280.0
30897018745600.0
-5622935348032.0
2800677837504.0
-7703702102720.0
2800677845952.0
256928544576.0
2384490053120.0
256928527552.0
786596901248.0
-384132045824.0
786596901376.0
580260578688.0
342519627392.0
580260580096.0
709204303360.0
214180409600.0
709204306560.0
1341080117888.0
772605075712.0
1341080118016.0
SCALARS disp_x float
LOOKUP_TABLE default
-778220800.2947533
0.0
0.0
778220919.9082301
-774809548.0575466
-761085475.8523982
-733873494.451868
-695564828.6006078
-646275531.0096071
-586047758.054682
-514872887.47387916
-432759533.58607477
-339694348.00570345
-236269651.09909448
-122762223.41694073
0.0
0.0
0.0
122762248.88800894
236269719.90746653
339694413.39032274
432759643.3776909
514872883.75029224
586047617.9632076
646275265.7944019
695564528.9343095
733873489.4969187
761085704.9478021
774809694.2143037
385958214.01474047
100.17900807465244
-385958195.0292895
-385187445.1185415
-2.997168331125469
385187336.30936164
-374422723.21164274
-134.6364479277732
374422585.890633
-360323610.30858535
-53.450962622797064
360323489.49651706
-341126635.6219306
-22.731334701761682
341126606.97723484
-316490513.2663555
-12.546224746441593
316490513.28415275
-286378335.78317535
31.650878466718513
286378369.3033561
-250794140.52365458
30.26906695662099
250794148.7026409
-209735819.30270022
12.686465989218888
209735845.42848238
-163155704.07412583
9.064851821919447
163155746.36586213
-110552106.94236553
10.361489996671434
110552129.24130401
-51170957.172377944
3.7403502950244234
51170975.17015982
SCALARS disp_y float
LOOKUP_TABLE default
-14885261544777.445
0.0
0.0
-14885261544319.672
3992365167490.5576
-1066388877230.3522
288599602686.67883
-74949840323.99982
22008051139.40231
-4393378015.95252
2299423439.066613
171752104.45239294
461789820.9072885
164520944.9977459
94157578.15820172
0.0
0.0
0.0
94157598.97602165
164520961.85531014
461789808.57550263
171752202.32930407
2299423364.783172
-4393377966.446678
22008051226.90685
-74949840126.74878
288599602348.22144
-1066388876667.7483
3992365167770.394
29780625825938.617
-104216987006566.31
29780625825675.656
-7975825672981.359
27928731440606.766
-7975825672650.184
2140470115619.6055
-7480131655309.408
2140470115750.892
-570688377045.0234
2007140020909.2808
-570688377518.2374
155278782446.17908
-535453977514.1632
155278782362.12286
-39702902119.71272
145371280371.46283
-39702902268.76436
12116193700.542099
-37482906241.11047
12116193655.388239
-2154608688.8098903
11125361685.278917
-2154608622.7192755
1330497564.5739098
-2239555524.442278
1330497560.9420643
111800621.73549356
1055657928.8580086
111800643.95692477
215216692.19353777
-54620734.726123735
215216704.1497547
28212077.220401533
91179816.45353216
28212083.80463331
SCALARS von_mises_stress float
LOOKUP_TABLE default
5.955071111806358e+27
2.7029950254490795e+25
2.702995025353917e+25
5.955071111811759e+27
1.4731635183493535e+27
3.12359288089655e+26
1.1170634295348331e+26
2.4374383853021867e+25
1.6713483357246513e+25
9.773481102181853e+24
8.456261740142709e+24
7.224084551703723e+24
6.734098947996473e+24
6.786642690621588e+24
8.289322074271407e+24
7.496625421747344e+24
6.165987273248018e+24
7.496625420114537e+24
8.289322073411634e+24
6.786642694773704e+24
6.734098948464713e+24
7.224084560324652e+24
8.456261735431686e+24
9.773481080836042e+24
1.6713483360525817e+25
2.4374383847438e+25
1.117063429534956e+26
3.1235928805679375e+26
1.4731635183387358e+27
8.489219632919935e+27
1.0899165722235032e+28
8.489219633286351e+27
1.8472461257547198e+27
5.294613933954294e+27
1.8472461256837626e+27
4.905584796650153e+26
8.66997122275363e+26
4.9055847967738826e+26
1.2815030544347135e+26
3.0043433971553113e+26
1.2815030544664396e+26
3.5618881858428364e+25
7.1582025509938e+25
3.5618881861444625e+25
9.06403384612079e+24
2.05827721212116e+25
9.064033839596044e+24
2.7621862533785804e+24
5.132000953466005e+24
2.762186267357052e+24
7.368576101827829e+23
1.5884838873831845e+24
7.368576142613848e+23
5.250693580150674e+23
2.5589856288638042e+23
5.250693584032842e+23
4.182604791455737e+23
2.281774494121564e+23
4.182604814688344e+23
4.842262731358974e+23
1.4268129503971178e+23
4.8422627613569126e+23
9.049992255941898e+23
5.146889513373578e+23
9.049992250785186e+23
