# vtk DataFile Version 2.0
Generated Volume Mesh
ASCII
DATASET UNSTRUCTURED_GRID
POINTS 65 float
0.0 -0.01 0.0
0.06 -0.01 0.0
0.06 0.01 0.0
0.0 0.01 0.0
0.004999999999989176 -0.01 0.0
0.009999999999977303 -0.01 0.0
0.01499999999996193 -0.01 0.0
0.01999999999994689 -0.01 0.0
0.02499999999992982 -0.01 0.0
0.02999999999991614 -0.01 0.0
0.03499999999993181 -0.01 0.0
0.03999999999994545 -0.01 0.0
0.04499999999995909 -0.01 0.0
0.04999999999997273 -0.01 0.0
0.05499999999998636 -0.01 0.0
0.06 -0.005000000000010828 0.0
0.06 -2.538941279439655e-14 0.0
0.06 0.004999999999987136 0.0
0.05500000000001096 0.01 0.0
0.05000000000002507 0.01 0.0
0.04500000000003964 0.01 0.0
0.0400000000000542 0.01 0.0
0.03500000000007013 0.01 0.0
0.03000000000008537 0.01 0.0
0.02500000000006944 0.01 0.0
0.02000000000005555 0.01 0.0
0.01500000000004167 0.01 0.0
0.01000000000002778 0.01 0.0
0.005000000000013882 0.01 0.0
0.0 0.005000000000010828 0.0
0.0 2.538941279439655e-14 0.0
0.0 -0.004999999999987136 0.0
0.004999999999995354 -0.00499999999998911 0.0
0.005000000000001529 2.115755487475113e-14 0.0
0.005000000000007705 0.005000000000008855 0.0
0.00999999999998992 -0.004999999999991086 0.0
0.01000000000000254 1.69265643168437e-14 0.0
0.01000000000001516 0.005000000000006879 0.0
0.01499999999998186 -0.004999999999993059 0.0
0.0150000000000018 1.269470639719827e-14 0.0
0.01500000000002173 0.005000000000004905 0.0
0.01999999999997405 -0.004999999999995033 0.0
0.02000000000000122 8.462848477552853e-15 0.0
0.02000000000002838 0.005000000000002931 0.0
0.02499999999996472 -0.004999999999997009 0.0
0.02499999999999963 4.231857919645421e-15 0.0
0.02500000000003453 0.005000000000000957 0.0
0.02999999999995845 -0.004999999999998983 0.0
0.03000000000000076 0.0 0.0
0.03000000000004307 0.004999999999998983 0.0
0.03499999999996638 -0.005000000000000957 0.0
0.03500000000000097 -4.231857919645421e-15 0.0
0.03500000000003555 0.004999999999997009 0.0
0.03999999999997263 -0.00500000000000293 0.0
0.03999999999999983 -8.462848477552853e-15 0.0
0.04000000000002701 0.004999999999995034 0.0
0.04499999999997922 -0.005000000000004905 0.0
0.04499999999999937 -1.269470639719827e-14 0.0
0.0450000000000195 0.00499999999999306 0.0
0.04999999999998581 -0.005000000000006878 0.0
0.04999999999999891 -1.692623905619195e-14 0.0
0.05000000000001198 0.004999999999991084 0.0
0.0549999999999925 -0.005000000000008852 0.0
0.05499999999999866 -2.115766329496838e-14 0.0
0.05500000000000481 0.00499999999998911 0.0
CELLS 48 240
4 0 4 32 31
4 31 32 33 30
4 30 33 34 29
4 29 34 28 3
4 4 5 35 32
4 32 35 36 33
4 33 36 37 34
4 34 37 27 28
4 5 6 38 35
4 35 38 39 36
4 36 39 40 37
4 37 40 26 27
4 6 7 41 38
4 38 41 42 39
4 39 42 43 40
4 40 43 25 26
4 7 8 44 41
4 41 44 45 42
4 42 45 46 43
4 43 46 24 25
4 8 9 47 44
4 44 47 48 45
4 45 48 49 46
4 46 49 23 24
4 9 10 50 47
4 47 50 51 48
4 48 51 52 49
4 49 52 22 23
4 10 11 53 50
4 50 53 54 51
4 51 54 55 52
4 52 55 21 22
4 11 12 56 53
4 53 56 57 54
4 54 57 58 55
4 55 58 20 21
4 12 13 59 56
4 56 59 60 57
4 57 60 61 58
4 58 61 19 20
4 13 14 62 59
4 59 62 63 60
4 60 63 64 61
4 61 64 18 19
4 14 1 15 62
4 62 15 16 63
4 63 16 17 64
4 64 17 2 18
CELL_TYPES 48
9
9
9
9
9
9
9
9
9
9
9
9
9
9
9
9
9
9
9
9
9
9
9
9
9
9
9
9
9
9
9
9
9
9
9
9
9
9
9
9
9
9
9
9
9
9
9
9
POINT_DATA 65
SCALARS stress11 float
LOOKUP_TABLE default
2.649112736620855e+21
2.0265079117101138e+18
-2.026507913589162e+18
-2.6491127366201754e+21
-5.414732375435835e+20
1.3705635187824945e+20
-3.758542171767046e+19
1.1095648960096764e+19
-1.5406768939912397e+18
1.865896266962043e+18
8.753067913851699e+17
1.0485346287946301e+18
9.242297549056901e+17
9.127942171456963e+17
9.618690974846812e+17
2.3360942356876493e+17
-201326592.0
-2.3360942497805107e+17
-9.618690991624028e+17
-9.127942167430431e+17
-9.242297553418977e+17
-1.0485346260431667e+18
-8.75306790143656e+17
-1.865896170962813e+18
1.5406769022120755e+18
-1.109564896596879e+19
3.758542171290573e+19
-1.3705635187147145e+20
5.414732375476939e+20
3.866058670623246e+21
282427654144.0
-3.8660586707932246e+21
7.047755173939244e+20
-61991813120.0
-7.047755173645391e+20
-2.0263519164749264e+20
12348030976.0
2.0263519164497605e+20
5.271132889450912e+19
-3976200192.0
-5.271132889497888e+19
-1.4251339532833128e+19
1241513984.0
1.4251339535920136e+19
3.88088011911961e+18
-973078528.0
-3.8808801165359186e+18
-9.549317267888538e+17
503316480.0
9.549317238360637e+17
3.3947793129629286e+17
167772160.0
-3.394779313298473e+17
-1.1944503799709696e+16
-771751936.0
1.1944507524251648e+16
7.835822838303949e+16
268435456.0
-7.83582287185838e+16
5.341766280124826e+16
-973078528.0
-5.341766306968371e+16
7.156431482938982e+16
-603979776.0
-7.156431529915187e+16
SCALARS stress22 float
LOOKUP_TABLE default
6.181262254336125e+21
4.711596646507479e+18
-4.711596646910132e+18
-6.181262254339229e+21
-1.2634390430303587e+21
3.197950574413952e+20
-8.770413699655742e+19
2.588342840289814e+19
-3.6029176092106424e+18
4.3441692578110505e+18
2.0312132779623055e+18
2.4338366499232154e+18
2.1422624434919834e+18
2.1141277860283023e+18
2.2273767595845878e+18
5.372391753808609e+17
134217728.0
-5.372391747097723e+17
-2.2273767583766282e+18
-2.1141277821359882e+18
-2.1422624428208947e+18
-2.433836645762466e+18
-2.0312132780294144e+18
-4.3441692513685996e+18
3.6029176174650327e+18
-2.5883428401623073e+19
8.770413699934244e+19
-3.1979505743213416e+20
1.2634390430402237e+21
9.020804378349426e+21
651123752960.0
-9.020804378757062e+21
1.644475436765752e+21
-138479140864.0
-1.6444754366873018e+21
-4.728172209222147e+20
40332427264.0
4.728172209197988e+20
1.229906282302134e+20
-13690208256.0
-1.2299062823017985e+20
-3.325636391025718e+19
-100663296.0
3.3256363911867793e+19
9.051342663529267e+18
-2617245696.0
-9.051342659771171e+18
-2.233026199712432e+18
-671088640.0
2.2330262015243715e+18
7.864546949427364e+17
939524096.0
-7.86454696620458e+17
-3.4342689629536256e+16
-738197504.0
3.434269224678195e+16
1.7552676888562893e+17
-335544320.0
-1.755267670736896e+17
1.1648134191828173e+17
134217728.0
-1.1648133950236262e+17
1.5878822269078733e+17
536870912.0
-1.587882206775214e+17
SCALARS stress12 float
LOOKUP_TABLE default
1.0565881842482429e+21
1.4685284436111524e+19
1.4685284435507544e+19
1.0565881842480752e+21
5.0503738980733184e+20
-6.155684588206581e+19
4.290373580177487e+19
3.345033368025694e+18
9.016247202481177e+18
4.915955004516336e+18
4.539868619361747e+18
3.7827041100510003e+18
3.546048364091015e+18
3.580461458804179e+18
4.4228045962089595e+18
4.1183745321363046e+18
3.3948160527842673e+18
4.1183745316665426e+18
4.422804596007633e+18
3.5804614592403866e+18
3.54604836352059e+18
3.782704111829385e+18
4.539868619596628e+18
4.915954993544036e+18
9.016247201357103e+18
3.3450333688981094e+18
4.290373579857881e+19
-6.155684587517877e+19
5.050373897932977e+20
-1.1532479271156182e+21
5.996175153978141e+21
-1.1532479271009423e+21
-5.933913588516342e+20
2.9128320749043785e+21
-5.933913588437363e+20
1.2871108504676467e+20
-4.7697685930691684e+20
1.2871108504027608e+20
-3.410361141202151e+19
1.652852634760784e+20
-3.4103611409236492e+19
1.0277686351230927e+19
-3.937943953675072e+19
1.0277686350140408e+19
-2.0597248402139382e+18
1.1325001386464117e+19
-2.0597248399119483e+18
1.0274882269290168e+18
-2.8219745521148887e+18
1.0274882269290168e+18
9.521651105189069e+16
8.752990859454054e+17
9.521651219274138e+16
2.893390997125857e+17
-1.393856606193582e+17
2.8933910035011994e+17
2.1371952612088218e+17
1.2694742804883046e+17
2.1371952612088218e+17
2.6102275577059738e+17
7.9912822733013e+16
2.6102275603903283e+17
4.9263285783599514e+17
2.843838339088384e+17
4.9263285817153946e+17
SCALARS strain11 float
LOOKUP_TABLE default
364.30500675793155
6599.6426569240575
-6599.643629674916
-364.3048919728026
564.3083981740201
1202.6037109242607
1879.4853937844455
2503.572787948331
3122.2976016657194
3739.666764954389
4356.104925178472
4970.302151703567
5566.796243134682
6132.967246027169
6624.010082809866
3061.312217162689
-0.00026712502585723996
-3061.3132613544003
-6624.011561003252
-6132.968177600502
-5566.796906269155
-4970.301025725741
-4356.099684678207
-3739.6596485692935
-3122.293948817576
-2503.579193160025
-1879.4974970309559
-1202.6079346936167
-564.3067607544654
-152.045685453224
-0.005096701148431748
152.03936471944326
340.2882554992684
-0.005617179587716237
-340.2926016996498
694.3535943122406
-0.0013280055718496442
-694.3544158886943
960.0643465100584
0.0024573835835326463
-960.0625849256758
1263.8362405410007
0.001291250518988818
-1263.8335836000479
1577.4380338378833
0.0014091169723542407
-1577.436202078461
1892.408927715791
0.0010072271397802979
-1892.408102782283
2207.549621408907
-0.00035359530011191964
-2207.5493555454887
2524.156377326508
-0.00043057670700363815
-2524.155636134339
2850.553501343733
-9.811416384764016e-05
-2850.553690763423
3182.354622036277
-0.00018033175729215145
-3182.355444630317
3196.1244770957273
-0.0002895345678552985
-3196.125251072488
SCALARS strain22 float
LOOKUP_TABLE default
4591794631.273193
3497214.7108154297
-3497214.7108154297
-4591794631.276276
-938554964.7171173
237561535.584198
-65152448.945739746
19226617.10406494
-2677791.2916870117
3225494.459777832
1507034.3638305664
1805862.785522461
1589009.1579589844
1567866.4775390625
1651783.8338012695
397779.95666503906
0.000244140625
-397779.9561767578
-1651783.83203125
-1567866.4744873047
-1589009.1588134766
-1805862.783630371
-1507034.3659667969
-3225494.4565429688
2677791.2981567383
-19226617.099975586
65152448.95056152
-237561535.57836914
938554964.7245178
6701169299.957977
0.482452392578125
-6701169300.262436
1221610156.9530334
-0.1018829345703125
-1221610156.8930054
-351235950.95022583
0.032012939453125
351235950.9491577
91364062.93676758
-0.0107421875
-91364062.9362793
-24705268.19100952
-0.00042724609375
24705268.191436768
6723178.436340332
-0.002166748046875
-6723178.434112549
-1659630.5904541016
-0.00115966796875
1659630.591796875
583277.4329223633
0.00042724609375
-583277.4340820312
-26593.499450683594
-0.00054931640625
26593.500732421875
129169.64483642578
0.0003662109375
-129169.64556884766
85165.12756347656
-0.000244140625
-85165.12603759766
116587.19396972656
0.00054931640625
-116587.19354248047
SCALARS strain12 float
LOOKUP_TABLE default
2747129218.5804443
38181737.72521973
38181737.724487305
2747129218.5815887
1313097157.0505066
-160047794.8413849
111549708.55987549
8697085.38986206
23442242.211853027
12781482.414245605
11803657.871887207
9835030.216064453
9219725.309936523
9309199.348999023
11499291.404296875
10707773.272460938
8826521.315063477
10707773.271850586
11499291.404052734
9309199.352416992
9219725.309448242
9835030.225952148
11803657.856750488
12781482.416687012
23442242.213500977
8697085.43637085
111549708.56591797
-160047794.82029724
1313097157.0153198
-2998444565.45874
15590056052.2303
-2998444565.4206543
-1542817567.2655258
7573363687.945732
-1542817567.2452927
334648798.18045044
-1240139702.7478333
334648798.1603699
-88669386.67312622
429741707.8675842
-88669386.693573
26721984.018096924
-102386543.98596191
26721984.185424805
-5355285.045776367
29445002.765441895
-5355285.032714844
2671469.156555176
-7337133.744384766
2671469.157409668
247562.8992919922
2275777.469604492
247562.89935302734
752281.6265869141
-362402.7325439453
752281.6263427734
555670.7348632812
330063.32568359375
555670.7357177734
678659.1323242188
207773.33227539062
678659.1335449219
1280845.3698730469
739397.9329833984
1280845.3702392578
SCALARS disp_x float
LOOKUP_TABLE default
-224.54023775068532
0.0
0.0
224.54027546916308
-223.55648117818166
-219.59860005393915
-211.75035134667874
-200.70051916909327
-186.48209597698786
-169.10682491405456
-148.5719328075899
-124.87967731872364
-98.02604412376377
-68.18187986233906
-35.42695746490218
0.0
0.0
0.0
35.426963329525755
68.18189823683373
98.02606103301545
124.87970524958585
148.57193824966805
169.10679408791316
186.48202050102992
200.70044371201658
211.750348747939
219.59866492530438
223.55652149353276
111.3609217992373
2.8528681766919722e-05
-111.36091514001002
-111.13840047073039
-7.275586457866658e-07
111.1383681269974
-108.03391878162468
-3.799696689417832e-05
108.0338814904048
-103.96726759559724
-1.5199378136066894e-05
103.96723237394558
-98.4297590908202
-6.232060412982231e-06
98.42975019427547
-91.32275875477742
-3.4898284932558433e-06
91.3227606566489
-82.63542590718671
8.984614518753504e-06
82.63543338193071
-72.36876368361665
8.56795400082952e-06
72.3687669515017
-60.52205506712842
3.6069741821579108e-06
60.52206115574738
-47.081452931510604
2.591747757041421e-06
47.08146555659243
-31.90213997733732
2.9569825623542502e-06
31.90214529474088
-14.766540764795405
1.0545273807015765e-06
14.766546020187555
SCALARS disp_y float
LOOKUP_TABLE default
-14186213.545012187
0.0
0.0
-14186213.544864615
3802301.8032977916
-1017853.5965259685
273558.8019774752
-72613.02501494193
20012.18674575111
-4928.3317418430215
1644.3942531212065
-213.25048671791814
203.7135242038879
28.514641131364492
32.59277541704206
0.0
0.0
0.0
32.59278203364502
28.514644884695297
203.7135238247277
-213.25046087191606
1644.3942248444869
-4928.3317347269685
20012.186771576213
-72613.02495268566
273558.8018778317
-1017853.5963430905
3802301.803396811
28375340.615353674
-99309297.93952316
28375340.615277216
-7602033.703828229
26610965.770107806
-7602033.703734256
2037926.7645826063
-7129420.771341866
2037926.7646236632
-545238.7958166425
1911143.5590514238
-545238.7959535099
146778.27040839216
-511409.0923442039
146778.27038064814
-38779.70558283213
137579.03039212403
-38779.70562828683
10817.459210185923
-36440.21655190888
10817.459197381038
-2583.4270530300955
10076.340485951503
-2583.427037141664
909.5955389208569
-2486.0122072942536
909.5955378177762
-108.62377619948518
797.7694915576801
-108.62376936718779
100.04370801591713
-148.52208000519283
100.04371052338018
-2.6943500366377213
64.24741562117072
-2.6943483444713836
SCALARS von_mises_stress float
LOOKUP_TABLE default
5.674511129174986e+21
2.5762968119049638e+19
2.576296811805059e+19
5.674511129177603e+21
1.4037597189943127e+21
2.9764259483036385e+20
1.0644470035587298e+20
2.3225839080448975e+19
1.5927394938524082e+19
9.31383095389111e+18
8.058863184460934e+18
6.884589664650111e+18
6.417703898200252e+18
6.467772316266578e+18
7.901111061431477e+18
7.148476867215248e+18
5.879993885772778e+18
7.14847686635696e+18
7.901111060794146e+18
6.467772316002369e+18
6.417703897069025e+18
6.884589666494721e+18
8.058863184892771e+18
9.313830937313534e+18
1.5927394937948508e+19
2.322583907924279e+19
1.0644470035409188e+20
2.976425948187929e+20
1.4037597189858774e+21
8.08927095840069e+21
1.0385680017772274e+22
8.089270958738042e+21
1.760216429742368e+21
5.045173147650657e+21
1.760216429678755e+21
4.674477161785702e+20
8.261481543542121e+20
4.674477161714721e+20
1.2211203177709022e+20
2.8628247408297627e+20
1.2211203177469647e+20
3.3941585046986994e+19
6.820719005123886e+19
3.394158504702014e+19
8.636449384414643e+18
1.961547779714383e+19
8.636449381297208e+18
2.633079796741289e+18
4.887803301929414e+18
2.633079798130569e+18
7.028305571529673e+17
1.5160624886760397e+18
7.028305590862316e+17
5.0205898954476314e+17
2.4142304603928083e+17
5.020589907561258e+17
4.0027965154761965e+17
2.1987939527076877e+17
4.0027965092253286e+17
4.632470461419421e+17
1.384130691498237e+17
4.632470461247277e+17
8.643106954801819e+17
4.92567249181337e+17
8.64310695763157e+17
