# vtk DataFile Version 2.0
Generated Volume Mesh
ASCII
DATASET UNSTRUCTURED_GRID
POINTS 65 float
0.0 -0.01 0.0
0.06 -0.01 0.0
0.06 0.01 0.0
0.0 0.01 0.0
0.004999999999989176 -0.01 0.0
0.009999999999977303 -0.01 0.0
0.01499999999996193 -0.01 0.0
0.01999999999994689 -0.01 0.0
0.02499999999992982 -0.01 0.0
0.02999999999991614 -0.01 0.0
0.03499999999993181 -0.01 0.0
0.03999999999994545 -0.01 0.0
0.04499999999995909 -0.01 0.0
0.04999999999997273 -0.01 0.0
0.05499999999998636 -0.01 0.0
0.06 -0.005000000000010828 0.0
0.06 -2.538941279439655e-14 0.0
0.06 0.004999999999987136 0.0
0.05500000000001096 0.01 0.0
0.05000000000002507 0.01 0.0
0.04500000000003964 0.01 0.0
0.0400000000000542 0.01 0.0
0.03500000000007013 0.01 0.0
0.03000000000008537 0.01 0.0
0.02500000000006944 0.01 0.0
0.02000000000005555 0.01 0.0
0.01500000000004167 0.01 0.0
0.01000000000002778 0.01 0.0
0.005000000000013882 0.01 0.0
0.0 0.005000000000010828 0.0
0.0 2.538941279439655e-14 0.0
0.0 -0.004999999999987136 0.0
0.004999999999995354 -0.00499999999998911 0.0
0.005000000000001529 2.115755487475113e-14 0.0
0.005000000000007705 0.005000000000008855 0.0
0.00999999999998992 -0.004999999999991086 0.0
0.01000000000000254 1.69265643168437e-14 0.0
0.01000000000001516 0.005000000000006879 0.0
0.01499999999998186 -0.004999999999993059 0.0
0.0150000000000018 1.269470639719827e-14 0.0
0.01500000000002173 0.005000000000004905 0.0
0.01999999999997405 -0.004999999999995033 0.0
0.02000000000000122 8.462848477552853e-15 0.0
0.02000000000002838 0.005000000000002931 0.0
0.02499999999996472 -0.004999999999997009 0.0
0.02499999999999963 4.231857919645421e-15 0.0
0.02500000000003453 0.005000000000000957 0.0
0.02999999999995845 -0.004999999999998983 0.0
0.03000000000000076 0.0 0.0
0.03000000000004307 0.004999999999998983 0.0
0.03499999999996638 -0.005000000000000957 0.0
0.03500000000000097 -4.231857919645421e-15 0.0
0.03500000000003555 0.004999999999997009 0.0
0.03999999999997263 -0.00500000000000293 0.0
0.03999999999999983 -8.462848477552853e-15 0.0
0.04000000000002701 0.004999999999995034 0.0
0.04499999999997922 -0.005000000000004905 0.0
0.04499999999999937 -1.269470639719827e-14 0.0
0.0450000000000195 0.00499999999999306 0.0
0.04999999999998581 -0.005000000000006878 0.0
0.04999999999999891 -1.692623905619195e-14 0.0
0.05000000000001198 0.004999999999991084 0.0
0.0549999999999925 -0.005000000000008852 0.0
0.05499999999999866 -2.115766329496838e-14 0.0
0.05500000000000481 0.00499999999998911 0.0
CELLS 48 240
4 0 4 32 31
4 31 32 33 30
4 30 33 34 29
4 29 34 28 3
4 4 5 35 32
4 32 35 36 33
4 33 36 37 34
4 34 37 27 28
4 5 6 38 35
4 35 38 39 36
4 36 39 40 37
4 37 40 26 27
4 6 7 41 38
4 38 41 42 39
4 39 42 43 40
4 40 43 25 26
4 7 8 44 41
4 41 44 45 42
4 42 45 46 43
4 43 46 24 25
4 8 9 47 44
4 44 47 48 45
4 45 48 49 46
4 46 49 23 24
4 9 10 50 47
4 47 50 51 48
4 48 51 52 49
4 49 52 22 23
4 10 11 53 50
4 50 53 54 51
4 51 54 55 52
4 52 55 21 22
4 11 12 56 53
4 53 56 57 54
4 54 57 58 55
4 55 58 20 21
4 12 13 59 56
4 56 59 60 57
4 57 60 61 58
4 58 61 19 20
4 13 14 62 59
4 59 62 63 60
4 60 63 64 61
4 61 64 18 19
4 14 1 15 62
4 62 15 16 63
4 63 16 17 64
4 64 17 2 18
CELL_TYPES 48
9
9
9
9
9
9
9
9
9
9
9
9
9
9
9
9
9
9
9
9
9
9
9
9
9
9
9
9
9
9
9
9
9
9
9
9
9
9
9
9
9
9
9
9
9
9
9
9
POINT_DATA 65
SCALARS stress11 float
LOOKUP_TABLE default
2.9165978330859854e+33
2.275745197026884e+30
-2.2757452136289537e+30
-2.916597833081392e+33
-5.961422856429311e+32
1.5090211621890788e+32
-4.136909882773701e+31
1.223106686373781e+31
-1.6774335037078293e+30
2.0768084852644072e+30
9.89898563419775e+29
1.1843019180974452e+30
1.0509903674770903e+30
1.0417884940136488e+30
1.0988935967806586e+30
2.778747693793502e+29
-2.3611832414348226e+21
-2.778747780124264e+29
-1.0988936094720185e+30
-1.0417884999535004e+30
-1.0509903754460838e+30
-1.1843018788427738e+30
-9.89898535454511e+29
-2.076808353222613e+30
1.6774335155137455e+30
-1.2231066918211046e+31
4.136909879152605e+31
-1.509021161749493e+32
5.961422856480224e+32
4.256412541094617e+33
3.175606992289099e+23
-4.2564125412711706e+33
7.759388584916045e+32
-7.186851491117241e+22
-7.759388584755927e+32
-2.2309137276857268e+32
-4.353431601395454e+21
2.2309137278000966e+32
5.803902645201655e+31
-9.407839477591871e+20
-5.803902645919233e+31
-1.5683164888333902e+31
3.086140283531608e+22
1.5683164906393264e+31
4.2816353113165015e+30
3.9173505714929604e+23
-4.281635342934221e+30
-1.0406747941238655e+30
-6.448981728168859e+22
1.0406748094715565e+30
3.862073653293646e+29
-1.0514644122014444e+22
-3.8620734588649636e+29
1.0860976207975119e+27
-5.386449269523189e+21
-1.0860820517455137e+27
1.0234654072461155e+29
-8.854437155380585e+20
-1.0234654223724457e+29
7.674571082001081e+28
-5.5340232221128655e+20
-7.674571495208148e+28
9.675344914640677e+28
-1.9184613836657934e+21
-9.67534537211993e+28
SCALARS stress22 float
LOOKUP_TABLE default
6.805388767627274e+33
5.205727512924219e+30
-5.205727518532029e+30
-6.805388767635464e+33
-1.3910077297611792e+33
3.520858811072191e+32
-9.655765869445319e+31
2.849953492305248e+31
-3.9634122618929284e+30
4.786727546673853e+30
2.2408630517593642e+30
2.6847657324712815e+30
2.364280868284528e+30
2.3338651125178692e+30
2.45935384051783e+30
5.999720954153474e+29
-1.770887431076117e+21
-5.999720991046962e+29
-2.459353843026587e+30
-2.333865113108165e+30
-2.3642808783195568e+30
-2.684765687977735e+30
-2.2408630389204303e+30
-4.78672750159001e+30
3.9634123140603206e+30
-2.849953491692816e+31
9.655765869747845e+31
-3.520858810393351e+32
1.3910077297659385e+33
9.931632638203688e+33
6.91383967882634e+23
-9.931632638680333e+33
1.8105186888100286e+33
-1.2986507827891524e+23
-1.8105186887145483e+33
-5.2055757588357514e+32
6.072668149065184e+22
5.205575759347095e+32
1.354091948877393e+32
-3.840612116146329e+22
-1.3540919490500544e+32
-3.661404870941701e+31
-1.2469998993827657e+22
3.6614048719747185e+31
9.965526707431917e+30
-1.6971004547812787e+22
-9.965526691051208e+30
-2.458175532308881e+30
-6.345679961356086e+21
2.4581755469187022e+30
8.662354923039564e+29
1.2543785970122495e+21
-8.662355236634213e+29
-3.738402632701043e+28
-1.0330176681277349e+21
3.7384051340795393e+28
1.9373273934553776e+29
9.592306918328967e+20
-1.937327407474903e+29
1.2875445958568799e+29
2.508757194024499e+21
-1.287544576672266e+29
1.752236903607016e+29
-4.4272185776902924e+20
-1.752236909509974e+29
SCALARS stress12 float
LOOKUP_TABLE default
1.1632710140016919e+33
1.6158516241300215e+31
1.6158516240709919e+31
1.1632710140071152e+33
5.560297323742726e+32
-6.777380059063885e+31
4.723415896654153e+31
3.681224433068881e+30
9.925058973024581e+30
5.410755180126179e+30
4.996687577392241e+30
4.163065123668479e+30
3.9024831568639646e+30
3.9403358657050813e+30
4.8658370679943764e+30
4.5275591693998653e+30
3.7318722460815726e+30
4.5275591685144216e+30
4.865837069543903e+30
3.940335873157566e+30
3.902483157933876e+30
4.163065133961762e+30
4.996687581598099e+30
5.410755138141389e+30
9.925059040096942e+30
3.681224688371819e+30
4.7234159004836975e+31
-6.777380057482076e+31
5.560297323634997e+32
-1.2696936260228163e+33
6.601605932639693e+33
-1.2696936260072057e+33
-6.533083125979302e+32
3.2069377678979507e+33
-6.533083125884901e+32
1.417047530437494e+32
-5.251402259095152e+32
1.4170475304077487e+32
-3.754936998637521e+31
1.819710957069935e+32
-3.754936990797655e+31
1.1313108588909408e+31
-4.335865867993223e+31
1.131310818918691e+31
-2.2700134164995e+30
1.246541902180213e+31
-2.2700133409416362e+30
1.1289163919622789e+30
-3.109978586918097e+30
1.1289164066089937e+30
1.025131423830328e+29
9.60609154815104e+29
1.025131461092751e+29
3.1623268082372706e+29
-1.5653216219899156e+29
3.1623268890340097e+29
2.3297416508670305e+29
1.3665140576166927e+29
2.3297416973528255e+29
2.849524897849534e+29
8.486537044015208e+28
2.8495249148205387e+29
5.398808013989899e+29
3.103975051705584e+29
5.398808016941378e+29
SCALARS strain11 float
LOOKUP_TABLE default
2248784811462272.0
4.069327057701427e+16
-4.069327991524506e+16
-2248777753066496.0
3483822747028480.0
7423955550784896.0
1.1600685398803648e+16
1.5449925743497088e+16
1.926496478170995e+16
2.3070781481015424e+16
2.687022053114029e+16
3.065537407632941e+16
3.433106298198592e+16
3.781956222583616e+16
4.084460584347648e+16
1.887679997187507e+16
-1741953536.0
-1.887680566239616e+16
-4.08446176046615e+16
-3.781957006609139e+16
-3.4331067751869184e+16
-3.0655359322180544e+16
-2.6870179955229184e+16
-2.3070740509970176e+16
-1.926494197162733e+16
-1.5449968522208e+16
-1.1600766534133696e+16
-7423981469917312.0
-3483809910494464.0
-938269107681024.0
-31979964928.0
938231021468928.0
2100624414475520.0
-35404677248.0
-2100651585345024.0
4286198213528960.0
-8317005824.0
-4286202479891968.0
5925267730597760.0
15469239424.0
-5925255681692544.0
7798833848207232.0
7908123008.0
-7798819056289152.0
9732581016470208.0
8910769408.0
-9732568843592384.0
1.1674341134312e+16
6566675456.0
-1.1674334755216384e+16
1.3616810352555136e+16
-2060658560.0
-1.3616808418153728e+16
1.5568072915584768e+16
-2662307200.0
-1.5568067890318592e+16
1.7579545614074752e+16
-640968960.0
-1.7579546443493504e+16
1.962432381687155e+16
-1151361536.0
-1.962432805313651e+16
1.970836030078771e+16
-1838822144.0
-1.970836455705216e+16
SCALARS strain22 float
LOOKUP_TABLE default
5.055430558987477e+21
3.849671297810301e+18
-3.8496712986156073e+18
-5.055430558996939e+21
-1.0333215424216134e+21
2.6154633287737488e+20
-7.173351285185944e+19
2.1164461003865326e+19
-2.95250622408976e+18
3.545966827727225e+18
1.6531249076864287e+18
1.981259031221633e+18
1.74160930765013e+18
1.7175196977646797e+18
1.8094434417052221e+18
4.3760343366343066e+17
-671088640.0
-4.376034347371725e+17
-1.8094434385511055e+18
-1.7175196938723656e+18
-1.7416093132201656e+18
-1.9812590118271713e+18
-1.653124949897904e+18
-3.5459668056484086e+18
2.952506261469397e+18
-2.116446097695467e+19
7.173351286887154e+19
-2.615463328328817e+20
1.0333215424240461e+21
7.377784574099948e+21
505531072512.0
-7.377784574464852e+21
1.3449558229675336e+21
-90244644864.0
-1.344955822886852e+21
-3.867017372612627e+20
57143197696.0
3.867017373033735e+20
1.0058715372080176e+20
-33218887680.0
-1.0058715373318334e+20
-2.7202350568582414e+19
-12280922112.0
2.7202350571602313e+19
7.398791380635484e+18
-13321109504.0
-7.398791369528967e+18
-1.831076566856106e+18
-8321499136.0
1.8310765729630126e+18
6.376533961610363e+17
67108864.0
-6.376534213268603e+17
-3.444304294969344e+16
-8455716864.0
3.444304784864051e+16
1.3638164224671744e+17
4898947072.0
-1.3638164030056038e+17
8.723572774561382e+16
1342177280.0
-8.723572418884403e+16
1.2171971072622592e+17
1006632960.0
-1.21719707236565e+17
SCALARS strain12 float
LOOKUP_TABLE default
3.0245045860574974e+21
4.201214115893687e+19
4.201214115168911e+19
3.0245045860396465e+21
1.445677232029327e+21
-1.762118888766277e+20
1.2280880873331281e+20
9.57118270265308e+18
2.580515234213842e+19
1.406796278900405e+19
1.2991387218126832e+19
1.0823968925495067e+19
1.0146455869924049e+19
1.0244872933327503e+19
1.265117601666066e+19
1.1771653558007497e+19
9.702867611800306e+18
1.1771653554652054e+19
1.2651176016526442e+19
1.0244872947420365e+19
1.0146455867239694e+19
1.0823968950593782e+19
1.299138722181782e+19
1.4067962690018476e+19
2.580515234744002e+19
9.571182723087729e+18
1.2280880848386916e+20
-1.7621188910951222e+20
1.445677231962738e+21
-3.301203373483027e+21
1.7164175884934753e+22
-3.301203373424256e+21
-1.698601643238834e+21
8.338038584376287e+21
-1.698601643255561e+21
3.6843238013257803e+20
-1.365364615247179e+21
3.6843237948383665e+20
-9.762836154363884e+19
4.731248365295737e+20
-9.762836219298421e+19
2.9414081034199237e+19
-1.1273250512279332e+20
2.941408117536273e+19
-5.902034720174113e+18
3.2410092703942967e+19
-5.902034917339955e+18
2.9351825139679887e+18
-8.085943307273765e+18
2.9351825673195356e+18
2.665341386710057e+17
2.4975838167810703e+18
2.665341297455268e+17
8.222049448776172e+17
-4.0698356249604915e+17
8.222049553466e+17
6.057328062276567e+17
3.552936438393733e+17
6.057328188441231e+17
7.408764497197793e+17
2.206499566864302e+17
7.408764564306657e+17
1.4036900456211415e+18
8.070334936692818e+17
1.4036900466948833e+18
SCALARS disp_x float
LOOKUP_TABLE default
-1384988600119845.5
0.0
0.0
1384988816599711.2
-1378914527463155.2
-1354477763665671.5
-1306028603725971.5
-1237829854887769.5
-1150091274679129.0
-1042890428486820.8
-916213878769718.8
-770078374971914.6
-604461117585790.2
-420416665870325.9
-218438134101654.94
0.0
0.0
0.0
218438181147683.84
420416789138372.75
604461244654191.2
770078571369200.5
916213877641009.4
1042890174919591.2
1150090804723636.5
1237829322264949.5
1306028616210948.0
1354478174488540.0
1378914801770243.0
686882473633902.0
179046006.28165108
-686882442220608.4
-685511570918152.0
-5100259.5738858385
685511366918652.5
-666344481108290.8
-240354570.67056608
666344235106217.1
-641243836167732.5
-95887090.96121937
641243625561126.0
-607070417672953.2
-40689846.69624155
607070365320875.1
-563217869715343.2
-22252404.958266914
563217859638121.1
-509621711365005.6
56622612.478977844
509621767531828.0
-446290133063675.1
54111539.85655107
446290148403760.5
-373220124204154.25
22874451.54194549
373220170895203.0
-290327378822943.9
16187256.776894916
290327455916623.44
-196719513544616.56
18510119.68715333
196719554876658.03
-91054509605706.67
6680006.5723030595
91054541980127.17
SCALARS disp_y float
LOOKUP_TABLE default
-1.5613676369154134e+19
0.0
0.0
-1.5613676368280953e+19
4.1905609552249114e+18
-1.1168743406257585e+18
3.043576940082669e+17
-7.731692683668075e+16
2.414295868225023e+16
-3793460432044345.0
3013306042088814.0
594504755365328.0
744228405018159.0
313571699621599.4
161572613155141.12
0.0
0.0
0.0
161572650076389.7
313571728347205.0
744228386823306.0
594504938986734.2
3013305918013805.5
-3793460325448233.0
2.414295886854844e+16
-7.731692649220765e+16
3.043576933776943e+17
-1.1168743396475149e+18
4.1905609556726917e+18
3.124533295527678e+19
-1.0933161794778707e+20
3.1245332954855133e+19
-8.365276178656137e+18
2.9302210654797935e+19
-8.365276178046628e+18
2.2474374758170527e+18
-7.845542883304648e+18
2.247437476000687e+18
-5.971294949149308e+17
2.1072690050931205e+18
-5.971294957311368e+17
1.642057415985298e+17
-5.6044579072072346e+17
1.6420574143974022e+17
-4.06108962917813e+16
1.5354624022534765e+17
-4.061089657982912e+16
1.351130916877925e+16
-3.852827671392987e+16
1.3511309087802708e+16
-1677423364579512.2
1.2248604634422438e+16
-1677423253116314.0
1789591152542316.5
-1962626459030901.2
1789591137475253.5
353785865732680.5
1336286631341369.0
353785908522340.0
341226315704867.3
48730105777328.46
341226337393508.75
62100726239002.63
120529555998256.2
62100738918536.016
SCALARS von_mises_stress float
LOOKUP_TABLE default
6.247469521461429e+33
2.835003786800165e+31
2.835003786760539e+31
6.247469521471826e+33
1.5454956458925175e+33
3.27696926967606e+32
1.1718992185805654e+32
2.557141001599437e+31
1.753266797307319e+31
1.0252492017200413e+31
8.870388915095076e+30
7.577882193368267e+30
7.063829890853068e+30
7.118960318232692e+30
8.693821448543597e+30
7.859188246399085e+30
6.463792337569467e+30
7.859188245060949e+30
8.693821451505576e+30
7.11896033065343e+30
7.063829895090579e+30
7.57788219886484e+30
8.870388920087055e+30
1.0252491938322174e+31
1.7532668096072522e+31
2.5571410116592277e+31
1.1718992190845595e+32
3.276969269038578e+32
1.5454956458839282e+33
8.906043710723319e+33
1.1434316886880073e+34
8.906043711120213e+33
1.9379480085655895e+33
5.554579150710778e+33
1.9379480084870236e+33
5.146443017368143e+32
9.095695523734784e+32
5.146443017741697e+32
1.3444339465674375e+32
3.1518318327349155e+32
1.3444339460420211e+32
3.7366901644427545e+31
7.509939978167994e+31
3.7366901288056756e+31
9.50969269653369e+30
2.1590739083396827e+31
9.509692626616137e+30
2.896692306560074e+30
5.386640922993407e+30
2.8966923324601367e+30
7.723343595930215e+29
1.6638238623555575e+30
7.723343895892174e+29
5.490434163136772e+29
2.7112165794726584e+29
5.490434314417054e+29
4.370471345164513e+29
2.366871777049216e+29
4.3704714242669174e+29
5.061422989380093e+29
1.4699113340549737e+29
5.061423015627512e+29
9.473779152631942e+29
5.376242494980304e+29
9.473779158909608e+29
