# vtk DataFile Version 2.0
Generated Volume Mesh
ASCII
DATASET UNSTRUCTURED_GRID
POINTS 65 float
0.0 -0.01 0.0
0.06 -0.01 0.0
0.06 0.01 0.0
0.0 0.01 0.0
0.004999999999989176 -0.01 0.0
0.009999999999977303 -0.01 0.0
0.01499999999996193 -0.01 0.0
0.01999999999994689 -0.01 0.0
0.02499999999992982 -0.01 0.0
0.02999999999991614 -0.01 0.0
0.03499999999993181 -0.01 0.0
0.03999999999994545 -0.01 0.0
0.04499999999995909 -0.01 0.0
0.04999999999997273 -0.01 0.0
0.05499999999998636 -0.01 0.0
0.06 -0.005000000000010828 0.0
0.06 -2.538941279439655e-14 0.0
0.06 0.004999999999987136 0.0
0.05500000000001096 0.01 0.0
0.05000000000002507 0.01 0.0
0.04500000000003964 0.01 0.0
0.0400000000000542 0.01 0.0
0.03500000000007013 0.01 0.0
0.03000000000008537 0.01 0.0
0.02500000000006944 0.01 0.0
0.02000000000005555 0.01 0.0
0.01500000000004167 0.01 0.0
0.01000000000002778 0.01 0.0
0.005000000000013882 0.01 0.0
0.0 0.005000000000010828 0.0
0.0 2.538941279439655e-14 0.0
0.0 -0.004999999999987136 0.0
0.004999999999995354 -0.00499999999998911 0.0
0.005000000000001529 2.115755487475113e-14 0.0
0.005000000000007705 0.005000000000008855 0.0
0.00999999999998992 -0.004999999999991086 0.0
0.01000000000000254 1.69265643168437e-14 0.0
0.01000000000001516 0.005000000000006879 0.0
0.01499999999998186 -0.004999999999993059 0.0
0.0150000000000018 1.269470639719827e-14 0.0
0.01500000000002173 0.005000000000004905 0.0
0.01999999999997405 -0.004999999999995033 0.0
0.02000000000000122 8.462848477552853e-15 0.0
0.02000000000002838 0.005000000000002931 0.0
0.02499999999996472 -0.004999999999997009 0.0
0.02499999999999963 4.231857919645421e-15 0.0
0.02500000000003453 0.005000000000000957 0.0
0.02999999999995845 -0.004999999999998983 0.0
0.03000000000000076 0.0 0.0
0.03000000000004307 0.004999999999998983 0.0
0.03499999999996638 -0.005000000000000957 0.0
0.03500000000000097 -4.231857919645421e-15 0.0
0.03500000000003555 0.004999999999997009 0.0
0.03999999999997263 -0.00500000000000293 0.0
0.03999999999999983 -8.462848477552853e-15 0.0
0.04000000000002701 0.004999999999995034 0.0
0.04499999999997922 -0.005000000000004905 0.0
0.04499999999999937 -1.269470639719827e-14 0.0
0.0450000000000195 0.00499999999999306 0.0
0.04999999999998581 -0.005000000000006878 0.0
0.04999999999999891 -1.692623905619195e-14 0.0
0.05000000000001198 0.004999999999991084 0.0
0.0549999999999925 -0.005000000000008852 0.0
0.05499999999999866 -2.115766329496838e-14 0.0
0.05500000000000481 0.00499999999998911 0.0
CELLS 48 240
4 0 4 32 31
4 31 32 33 30
4 30 33 34 29
4 29 34 28 3
4 4 5 35 32
4 32 35 36 33
4 33 36 37 34
4 34 37 27 28
4 5 6 38 35
4 35 38 39 36
4 36 39 40 37
4 37 40 26 27
4 6 7 41 38
4 38 41 42 39
4 39 42 43 40
4 40 43 25 26
4 7 8 44 41
4 41 44 45 42
4 42 45 46 43
4 43 46 24 25
4 8 9 47 44
4 44 47 48 45
4 45 48 49 46
4 46 49 23 24
4 9 10 50 47
4 47 50 51 48
4 48 51 52 49
4 49 52 22 23
4 10 11 53 50
4 50 53 54 51
4 51 54 55 52
4 52 55 21 22
4 11 12 56 53
4 53 56 57 54
4 54 57 58 55
4 55 58 20 21
4 12 13 59 56
4 56 59 60 57
4 57 60 61 58
4 58 61 19 20
4 13 14 62 59
4 59 62 63 60
4 60 63 64 61
4 61 64 18 19
4 14 1 15 62
4 62 15 16 63
4 63 16 17 64
4 64 17 2 18
CELL_TYPES 48
9
9
9
9
9
9
9
9
9
9
9
9
9
9
9
9
9
9
9
9
9
9
9
9
9
9
9
9
9
9
9
9
9
9
9
9
9
9
9
9
9
9
9
9
9
9
9
9
POINT_DATA 65
SCALARS stress11 float
LOOKUP_TABLE default
2.714253081536739e+24
2.0867287185542475e+21
-2.086728724395403e+21
-2.7142530815357854e+24
-5.547867588115787e+23
1.404281265198684e+23
-3.850697982099141e+22
1.1371993829318242e+22
-1.574183467571703e+21
1.917017613985288e+21
9.029320417828342e+20
1.0812776950024802e+21
9.547419712779096e+20
9.438146563503167e+20
9.948127976845476e+20
2.4416858332666108e+20
-1236950581248.0
-2.4416858690007387e+20
-9.948128017389967e+20
-9.438146579995841e+20
-9.547419765005898e+20
-1.0812776853817535e+21
-9.029320350826853e+20
-1.917017599141881e+21
1.5741834756118817e+21
-1.1371993848387897e+22
3.850697980765983e+22
-1.4042812650440652e+23
5.547867588153583e+23
3.9611212634355054e+24
291061343715328.0
-3.9611212636077765e+24
7.221058901460273e+23
-64587718197248.0
-7.221058901189002e+23
-2.0761691969666382e+23
8160437862400.0
2.0761691969656074e+23
5.400871695133935e+22
-4827543240704.0
-5.400871695510174e+22
-1.460010688136713e+22
1494648619008.0
1.4600106887465983e+22
3.9783797122213777e+21
-1889785610240.0
-3.97837970799513e+21
-9.759274348517377e+20
2164663517184.0
9.759274409334114e+20
3.507242257741481e+20
584115552256.0
-3.507242281449701e+20
-8.923730138756022e+18
-1786706395136.0
8.923734674241487e+18
8.402806333810881e+19
103079215104.0
-8.402806670536317e+19
5.89070584213542e+19
-1099511627776.0
-5.8907059830103474e+19
7.750677016049248e+19
-893353197568.0
-7.75067721533573e+19
SCALARS stress22 float
LOOKUP_TABLE default
6.333254840623058e+24
4.831734437054643e+21
-4.831734440490617e+21
-6.333254840629105e+24
-1.2945057420962326e+24
3.276588478940112e+23
-8.98602472742521e+22
2.6520495854779103e+22
-3.6907450389282905e+21
4.451902124245031e+21
2.0822194093691524e+21
2.4948889953830856e+21
2.1962686736725055e+21
2.1675726447686273e+21
2.283793852318213e+21
5.52425714955336e+20
-1099511627776.0
-5.5242571729179823e+20
-2.2837938532802856e+21
-2.167572642569604e+21
-2.1962686771084793e+21
-2.4948889780657775e+21
-2.0822194571291887e+21
-4.451902112425281e+21
3.690745056864074e+21
-2.6520495854160628e+22
8.986024727607316e+22
-3.276588478719523e+23
1.294505742105338e+24
9.242618166138573e+24
661837280444416.0
-9.242618166562915e+24
1.6849118290806392e+24
-137164075565056.0
-1.6849118289974543e+24
-4.8444334874225815e+23
44770739093504.0
4.8444334875174144e+23
1.2601491121435711e+23
-20787641712640.0
-1.260149112201639e+23
-3.407405970819746e+22
-2783138807808.0
3.40740597111524e+22
9.27397005137349e+21
-5291399708672.0
-9.273970044501542e+21
-2.2878602066826646e+21
-2405181685760.0
2.2878602120427838e+21
8.05879597081471e+20
1511828488192.0
-8.0587959852458e+20
-3.50879282202432e+19
-962072674304.0
3.508793550450773e+19
1.7995524911354872e+20
206158430208.0
-1.799552518623278e+20
1.1946469442119637e+20
-274877906944.0
-1.1946469277192893e+20
1.6278638878972183e+20
412316860416.0
-1.6278638933947764e+20
SCALARS stress12 float
LOOKUP_TABLE default
1.0825685788939271e+24
1.5044161041100934e+22
1.5044161037321363e+22
1.0825685788402486e+24
5.174555277162102e+23
-6.30708354064456e+22
4.395833718958109e+22
3.4269226180131254e+21
9.237586183000074e+21
5.0364699549054e+21
4.651134069971901e+21
3.875349854537946e+21
3.6328676861343296e+21
3.6681187866217787e+21
4.530733527259515e+21
4.2180936102724103e+21
3.476959809205705e+21
4.2180936094477766e+21
4.530733525197931e+21
3.668118786587419e+21
3.6328676828701545e+21
3.8753498553969394e+21
4.651134071552449e+21
5.036469949717079e+21
9.237586173121649e+21
3.4269226072585273e+21
4.395833721652772e+22
-6.307083685824763e+22
5.174555276057866e+23
-1.1816058165079579e+24
6.143615087109155e+24
-1.1816058164810112e+24
-6.079828518241668e+23
2.9844553296434087e+24
-6.07982851822466e+23
1.3187544952453122e+23
-4.887060180199261e+23
1.318754495982887e+23
-3.494272818433101e+22
1.6934877397153424e+23
-3.4942728194054815e+22
1.0529866654205134e+22
-4.034846184127648e+22
1.0529866653706918e+22
-2.1109115184281782e+21
1.1602759297337456e+22
-2.1109115181361204e+21
1.0522135322539548e+21
-2.89207881598711e+21
1.0522135327865307e+21
9.701801706815226e+19
8.961070536323813e+20
9.701801651839644e+19
2.9591302748973407e+20
-1.4352880357827674e+20
2.9591302810820936e+20
2.1843315688121513e+20
1.293435413801017e+20
2.18433158736641e+20
2.6687597079520975e+20
8.115183162955609e+19
2.6687597158548374e+20
5.04165453884614e+20
2.907474088189032e+20
5.041654541594919e+20
SCALARS strain11 float
LOOKUP_TABLE default
803153.0775547624
14545781.792161942
-14545783.994430304
-803152.446739018
1244123.7979712486
2651327.668805361
4143460.928403169
5519063.697766721
6882748.938269228
8243370.323012218
9601885.638950408
10955420.096975893
12269909.26662159
13517547.921859682
14599582.733998775
6747281.131859064
-0.5988378524780273
-6747283.032426238
-14599586.012979984
-13517549.97608316
-12269911.130877674
-10955415.64091292
-9601871.593979478
-8243355.324613348
-6882740.2095890045
-5519077.808726877
-4143489.144212991
-2651337.073210299
-1244120.0128695369
-335177.6532960534
-11.32339757680893
335164.5734165907
750213.6511378884
-12.5493323802948
-750223.2096838951
1530792.477854371
-2.974060535430908
-1530794.7043517828
2116487.129119724
5.492503643035889
-2116482.9188827276
2786052.986345917
2.830200433731079
-2786047.1751599014
3477246.841203332
3.1620253920555115
-3477242.5384729207
4171420.745924145
2.298295259475708
-4171418.4809015095
4865939.586907744
-0.7491945028305054
-4865938.867449284
5563668.220208466
-0.9152629971504211
-5563666.499276727
6282961.353019178
-0.204115629196167
-6282961.79296279
7014164.118952751
-0.39690881967544556
-7014165.665543675
7044437.833966911
-0.6394835710525513
-7044439.145801783
SCALARS strain22 float
LOOKUP_TABLE default
4704703273402.3125
3583054349.125
-3583054350.375
-4704703273407.9375
-961633363825.5
243402555816.75
-66755107208.4375
19698574659.3125
-2744646532.6875
3303594118.5625
1542676311.6875
1848650792.1875
1626255226.5
1604403489.1875
1690275517.125
407481676.5
-0.25
-407481677.5
-1690275515.8125
-1604403486.5
-1626255228.875
-1848650782.1875
-1542676316.5625
-3303594110.375
2744646546.3125
-19698574651.125
66755107215.5
-243402555802.125
961633363832.5312
6865945429644.406
488.9375
-6865945429963.344
1251648496437.6562
-99.59375
-1251648496372.3281
-359872892862.8125
37.4375
359872892871.1875
93610170166.875
-17.0625
-93610170170.6875
-25313351504.46875
-3.0625
25313351504.8125
6887744806.75
-3.96875
-6887744802.5625
-1701341051.0625
-3.125
1701341053.5
596568022.5625
0.875
-596568024.6875
-28449766.5
0.1875
28449772.625
130988337.75
0.375
-130988339.375
85739126.625
-0.1875
-85739124.5625
117907981.0
0.4375
-117907980.3125
SCALARS strain12 float
LOOKUP_TABLE default
2814678229359.1094
39114816874.375
39114816870.625
2814678229358.7188
1345384329541.2188
-163984176609.23438
114291678115.21875
8909998494.5625
24017723561.5
13094821584.875
12092948217.0625
10075909286.125
9445455641.75
9537108469.125
11779906666.875
10967042845.75
9040095052.375
10967042844.125
11779906666.25
9537108473.75
9445455638.125
10075909301.25
12092948199.4375
13094821483.3125
24017723563.5625
8909998496.46875
114291678106.34375
-163984176591.1875
1345384329503.4688
-3072175268919.6562
15973399065273.5
-3072175268880.453
-1580755302466.1953
7759583659567.6875
-1580755302445.1406
342876158840.25
-1270635590525.4219
342876158822.9844
-90851095033.40625
440306821539.84375
-90851095025.78125
27377653533.28125
-104906013364.65625
27377653531.03125
-5488369509.375
30167170377.25
-5488369497.875
2735755068.375
-7519405211.25
2735755071.625
252246828.875
2329878600.125
252246824.1875
769373851.875
-373174973.625
769373852.0
567926184.75
336293203.375
567926191.25
693877496.25
210994744.625
693877499.125
1310830119.875
755943228.0
1310830120.75
SCALARS disp_x float
LOOKUP_TABLE default
-494933.9712975668
0.0
0.0
494934.05170110636
-492765.03329245734
-484038.9386911504
-466736.2351579594
-442376.41781018884
-411032.7283787999
-372731.51612098364
-327466.97729563975
-275244.32779640047
-216054.90599920234
-150275.3504582998
-78081.59143985124
0.0
0.0
0.0
78081.60695594313
150275.3929439239
216054.94765976584
275244.3966482077
327466.9732983092
372731.43071661924
411032.5598494613
442376.22990579356
466736.2294494667
484039.08086495637
492765.12172280764
245462.59294407547
0.06368873887141988
-245462.58134873587
-244972.2528299226
-0.0016900518774296061
244972.1859747575
-238127.73160021173
-0.08503248763067885
238127.6462820036
-229162.4914073656
-0.03370469247447242
229162.41261555132
-216955.136450665
-0.014158788331391878
216955.1190694418
-201288.43799262593
-0.007774759226696667
201288.4378223368
-182138.70170265445
0.020079512513190935
182138.72407976806
-159508.3241370534
0.019259175143454085
159508.33345930843
-133395.83653996908
0.00810810529810604
133395.8533572772
-103770.82118039767
0.00580786912787885
103770.8497237695
-70314.13743092077
0.006608338910883325
70314.15067323617
-32546.208698254104
0.002376483895402172
32546.220286945067
SCALARS disp_y float
LOOKUP_TABLE default
-14533895020.2832
0.0
0.0
-14533895019.991966
3896807769.606468
-1042008169.3523695
281025255.71083665
-73786643.12373978
20995613.566821475
-4669382.8795857
1964931.917998228
-25379.938752381262
329804.9796364893
94930.11247363512
62665.546181134036
0.0
0.0
0.0
62665.56010764869
94930.12387254389
329804.9736172257
-25379.8789045682
1964931.8625995368
-4669382.855072968
20995613.64002025
-73786642.99653906
281025255.4675958
-1042008169.0004445
3896807769.79659
29074214587.121826
-101750077926.16803
29074214586.940315
-7787951888.360708
27266315954.512672
-7787951888.167965
2088908711.8092327
-7303857338.279475
2088908711.8791938
-557909498.9174
1958872069.1472073
-557909499.2310762
150994509.2092572
-523378740.8989136
150994509.16576
-39247912.774305865
141445344.61589622
-39247912.86722154
11456397.039800435
-36965702.45380111
11456397.006703505
-2375234.173668029
10593033.46021019
-2375234.1288298084
1115499.6027527358
-2366805.654357293
1115499.5977906114
-1054.8900231759271
924037.6689412151
-1054.8724593601783
156320.5691545204
-102742.32616040345
156320.57518031087
12394.720724577754
77426.57683829879
12394.724688583941
SCALARS von_mises_stress float
LOOKUP_TABLE default
5.814042860489912e+24
2.6393141527612186e+22
2.639314152156943e+22
5.814042860465178e+24
1.4382765688991854e+24
3.049617222050946e+23
1.0906150114519683e+23
2.3797046554477084e+22
1.63183558661315e+22
9.542436957521147e+21
8.256510505573789e+21
7.053437049834674e+21
6.575062076558198e+21
6.626360746545359e+21
8.094199058329633e+21
7.321669794416886e+21
6.022271045419271e+21
7.321669793113334e+21
8.094199055006366e+21
6.626360745890737e+21
6.575062071931968e+21
7.05343704667919e+21
8.256510517790169e+21
9.54243694545946e+21
1.6318355852413234e+22
2.3797046547776272e+22
1.0906150117974429e+23
3.0496172308842504e+23
1.4382765687861985e+24
8.288179401882249e+24
1.0641053473019751e+25
8.288179402228808e+24
1.8034992310894801e+24
5.169228263862106e+24
1.8034992310285082e+24
4.789414475835551e+23
8.464636531751832e+23
4.7894144765202623e+23
1.2511506081427584e+23
2.933206807181951e+23
1.2511506082674762e+23
3.477576782170891e+22
6.9885585916344956e+22
3.477576782310398e+22
8.849095640807166e+21
2.009656861098064e+22
8.849095635255557e+21
2.6972973682903765e+21
5.009227448783316e+21
2.697297372111636e+21
7.197537055764264e+20
1.552102945912133e+21
7.197537064463114e+20
5.13508753555607e+20
2.4859918014714898e+20
5.1350875498311156e+20
4.092217590947661e+20
2.2402958530122364e+20
4.092217629435249e+20
4.7368015830843595e+20
1.4055909550966619e+20
4.736801593283231e+20
8.845552980152032e+20
5.035892842433398e+20
8.845552985535467e+20
