# vtk DataFile Version 2.0
Generated Volume Mesh
ASCII
DATASET UNSTRUCTURED_GRID
POINTS 65 float
0.0 -0.01 0.0
0.06 -0.01 0.0
0.06 0.01 0.0
0.0 0.01 0.0
0.004999999999989176 -0.01 0.0
0.009999999999977303 -0.01 0.0
0.01499999999996193 -0.01 0.0
0.01999999999994689 -0.01 0.0
0.02499999999992982 -0.01 0.0
0.02999999999991614 -0.01 0.0
0.03499999999993181 -0.01 0.0
0.03999999999994545 -0.01 0.0
0.04499999999995909 -0.01 0.0
0.04999999999997273 -0.01 0.0
0.05499999999998636 -0.01 0.0
0.06 -0.005000000000010828 0.0
0.06 -2.538941279439655e-14 0.0
0.06 0.004999999999987136 0.0
0.05500000000001096 0.01 0.0
0.05000000000002507 0.01 0.0
0.04500000000003964 0.01 0.0
0.0400000000000542 0.01 0.0
0.03500000000007013 0.01 0.0
0.03000000000008537 0.01 0.0
0.02500000000006944 0.01 0.0
0.02000000000005555 0.01 0.0
0.01500000000004167 0.01 0.0
0.01000000000002778 0.01 0.0
0.005000000000013882 0.01 0.0
0.0 0.005000000000010828 0.0
0.0 2.538941279439655e-14 0.0
0.0 -0.004999999999987136 0.0
0.004999999999995354 -0.00499999999998911 0.0
0.005000000000001529 2.115755487475113e-14 0.0
0.005000000000007705 0.005000000000008855 0.0
0.00999999999998992 -0.004999999999991086 0.0
0.01000000000000254 1.69265643168437e-14 0.0
0.01000000000001516 0.005000000000006879 0.0
0.01499999999998186 -0.004999999999993059 0.0
0.0150000000000018 1.269470639719827e-14 0.0
0.01500000000002173 0.005000000000004905 0.0
0.01999999999997405 -0.004999999999995033 0.0
0.02000000000000122 8.462848477552853e-15 0.0
0.02000000000002838 0.005000000000002931 0.0
0.02499999999996472 -0.004999999999997009 0.0
0.02499999999999963 4.231857919645421e-15 0.0
0.02500000000003453 0.005000000000000957 0.0
0.02999999999995845 -0.004999999999998983 0.0
0.03000000000000076 0.0 0.0
0.03000000000004307 0.004999999999998983 0.0
0.03499999999996638 -0.005000000000000957 0.0
0.03500000000000097 -4.231857919645421e-15 0.0
0.03500000000003555 0.004999999999997009 0.0
0.03999999999997263 -0.00500000000000293 0.0
0.03999999999999983 -8.462848477552853e-15 0.0
0.04000000000002701 0.004999999999995034 0.0
0.04499999999997922 -0.005000000000004905 0.0
0.04499999999999937 -1.269470639719827e-14 0.0
0.0450000000000195 0.00499999999999306 0.0
0.04999999999998581 -0.005000000000006878 0.0
0.04999999999999891 -1.692623905619195e-14 0.0
0.05000000000001198 0.004999999999991084 0.0
0.0549999999999925 -0.005000000000008852 0.0
0.05499999999999866 -2.115766329496838e-14 0.0
0.05500000000000481 0.00499999999998911 0.0
CELLS 48 240
4 0 4 32 31
4 31 32 33 30
4 30 33 34 29
4 29 34 28 3
4 4 5 35 32
4 32 35 36 33
4 33 36 37 34
4 34 37 27 28
4 5 6 38 35
4 35 38 39 36
4 36 39 40 37
4 37 40 26 27
4 6 7 41 38
4 38 41 42 39
4 39 42 43 40
4 40 43 25 26
4 7 8 44 41
4 41 44 45 42
4 42 45 46 43
4 43 46 24 25
4 8 9 47 44
4 44 47 48 45
4 45 48 49 46
4 46 49 23 24
4 9 10 50 47
4 47 50 51 48
4 48 51 52 49
4 49 52 22 23
4 10 11 53 50
4 50 53 54 51
4 51 54 55 52
4 52 55 21 22
4 11 12 56 53
4 53 56 57 54
4 54 57 58 55
4 55 58 20 21
4 12 13 59 56
4 56 59 60 57
4 57 60 61 58
4 58 61 19 20
4 13 14 62 59
4 59 62 63 60
4 60 63 64 61
4 61 64 18 19
4 14 1 15 62
4 62 15 16 63
4 63 16 17 64
4 64 17 2 18
CELL_TYPES 48
9
9
9
9
9
9
9
9
9
9
9
9
9
9
9
9
9
9
9
9
9
9
9
9
9
9
9
9
9
9
9
9
9
9
9
9
9
9
9
9
9
9
9
9
9
9
9
9
POINT_DATA 65
SCALARS stress11 float
LOOKUP_TABLE default
-5374540397.669922
-73503947891.70703
73503947891.70703
5374540397.666016
-5876607507.714844
-11746027053.980469
-18630827710.85742
-24820993017.58008
-30947411514.536133
-37056183789.416016
-43154861200.73926
-49229778727.231445
-55074218673.46777
-60661920210.6416
-65734084456.55078
-34061866448.819336
-0.1630859375
34061866448.64746
65734084456.62305
60661920210.78613
55074218673.69824
49229778727.55762
43154861201.15332
37056183789.9209
30947411514.95215
24820993017.910156
18630827711.097656
11746027054.15625
5876607507.78125
4831030743.333984
0.1328125
-4831030743.373047
-3183720341.6152344
-0.001953125
3183720341.6621094
-6465166665.169922
0.013671875
6465166665.2109375
-8926248384.595703
0.013671875
8926248384.680664
-11740602922.083008
0.01171875
11740602922.199219
-14651316155.385742
0.0068359375
14651316155.527344
-17576080882.006836
0.0
17576080882.1709
-20502831501.686523
-0.0087890625
20502831501.811523
-23444317247.807617
-0.02197265625
23444317247.89209
-26477522896.820312
-0.03857421875
26477522896.867188
-29540663584.686523
-0.05322265625
29540663584.689453
-29589917607.42285
-0.0849609375
29589917607.342773
SCALARS stress22 float
LOOKUP_TABLE default
-4747849810.078125
-30310347959.617188
30310347959.720703
4747849810.25
-1641459787.9179688
-1683288173.2070312
-3267826085.84375
-4359982441.808594
-5417530399.712891
-6462211928.667969
-7502815245.9921875
-8535649382.884766
-9409280559.566406
-10332466870.091797
-11659989631.09375
-13981636837.769531
-0.037109375
13981636837.753906
11659989631.173828
10332466870.046875
9409280558.9375
8535649375.943359
7502815094.082031
6462211983.863281
5417530401.769531
4359982442.197266
3267826086.0742188
1683288173.359375
1641459788.015625
8019975287.3203125
0.3046875
-8019975287.386719
-149750695.23046875
-0.03125
149750695.25390625
-232821219.859375
-0.0234375
232821219.83984375
-290914576.203125
-0.01953125
290914576.13671875
-358879280.734375
0.009765625
358879280.08984375
-441131707.3535156
0.23046875
441131701.6816406
-526572445.21875
-5.681640625
526572361.62890625
-612797838.3886719
0.701171875
612797863.9726562
-701904358.9570312
-0.12109375
701904360.375
-795448113.6992188
0.0556640625
795448113.8417969
-843208313.7558594
0.10546875
843208313.8515625
-662987761.9609375
0.095703125
662987762.1054688
SCALARS stress12 float
LOOKUP_TABLE default
1823850930.2988281
15726527210.300781
15726527209.898438
1823850929.1425781
2280236227.6621094
2547949714.642578
2597425484.8789062
2565005436.3710938
2571497371.852539
2578960467.5214844
2592052288.495117
2603741000.123047
2655109062.307617
2713072703.7216797
5832629504.246094
10956255642.109375
9425432092.986328
10956255642.048828
5832629504.012695
2713072703.307617
2655109061.7685547
2603740999.3935547
2592052287.4003906
2578960465.1621094
2571497361.1054688
2565005270.5253906
2597425488.2871094
2547949713.314453
2280236226.560547
3179911908.2128906
6875316412.265625
3179911908.265625
3505091083.623047
5807455184.4140625
3505091083.59375
3813378940.4140625
4839630577.347656
3813378940.4472656
3802727278.935547
5014508570.587891
3802727277.453125
3817925575.2666016
5048172646.905273
3817925584.3339844
3817947629.213867
5056447396.416992
3817947628.439453
3819092138.125
5056753810.685547
3819092137.6777344
3819776863.3164062
5058656911.545898
3819776863.0527344
3826376061.123047
5065461198.850586
3826376060.930664
3832719040.126953
5133946123.760742
3832719039.979492
3999537066.057617
5138004033.1796875
3999537065.966797
4110819334.2265625
4453227424.098633
4110819334.180664
SCALARS strain11 float
LOOKUP_TABLE default
-0.0030391704299299604
-0.055067557236857745
0.05506755723685863
0.0030391704299292943
-0.004707543892975119
-0.010032402600707035
-0.015679601644240204
-0.020886710690736
-0.02604930787764098
-0.031200863726422168
-0.03634482467876299
-0.0414701941569674
-0.04644792068125758
-0.051172684606808794
-0.055270619501408325
-0.025543460849661415
-1.247890679678676e-13
0.025543460849525523
0.05527061950144718
0.05117268460692315
0.046447920681438326
0.04147019415722375
0.03634482467908806
0.03120086372681863
0.026049307877968775
0.020886710690992905
0.015679601644429608
0.010032402600845147
0.00470754389303174
0.0012684474376334354
5.551115123125783e-15
-0.0012684474376272181
-0.0028387827639653196
1.199040866595169e-14
0.0028387827640037333
-0.005792501429984442
1.9317880628477724e-14
0.005792501430027297
-0.008009429537861212
1.9539925233402755e-14
0.008009429537937263
-0.010543985995537186
1.84297022087776e-14
0.010543985995636773
-0.013160656636080237
1.1546319456101628e-14
0.0131606566361967
-0.01578887026160647
4.440892098500626e-16
0.015788870261736032
-0.01841858598209689
-1.5987211554602254e-14
0.018418585982188262
-0.02106058541798561
-3.552713678800501e-14
0.02106058541803668
-0.023784322060086627
-6.017408793468348e-14
0.023784322060096397
-0.02655315306149242
-8.970602038971265e-14
0.02655315306145689
-0.026668260857219073
-1.127986593019159e-13
0.026668260857088955
SCALARS strain22 float
LOOKUP_TABLE default
-0.00222447258207481
0.001084124055243052
-0.001084124055243052
0.0022244725820712574
0.0007981485984984715
0.0030491585108336494
0.004292301116045394
0.005712603081784451
0.007139537802439477
0.008571298793931703
0.010002834184810183
0.011432173071655782
0.012916500345587778
0.014255603941192518
0.015025702260473395
0.0005608384724133941
1.0658141036401503e-14
-0.000560838472402736
-0.015025702260437868
-0.01425560394120673
-0.01291650034561087
-0.01143217307168598
-0.010002834184849263
-0.008571298793977888
-0.0071395378024803335
-0.005712603081818202
-0.00429230111606671
-0.003049158510851413
-0.0007981485985162351
0.005414075694059051
2.1316282072803006e-13
-0.005414075694140763
0.0011053778486100896
-3.197442310920451e-14
-0.0011053778486100896
0.0023095477087622385
-2.842170943040401e-14
-0.0023095477087871075
0.0032165046208501025
-2.842170943040401e-14
-0.003216504620882077
0.004252255138933236
-1.9539925233402755e-14
-0.004252255138963434
0.005312583407823368
-1.4210854715202004e-14
-0.00531258340785179
0.006375490512903426
0.0
-0.006375490512922077
0.007438458360875089
1.9539925233402755e-14
-0.0074384583608742005
0.008504550553457335
4.3520742565306136e-14
-0.008504550553428913
0.009602376475061014
7.37188088351104e-14
-0.00960237647500417
0.010753539422192482
1.199040866595169e-13
-0.010753539422102776
0.010936749172490323
1.2079226507921703e-13
-0.010936749172328675
SCALARS strain12 float
LOOKUP_TABLE default
0.0047420121544874405
0.04088897100316302
0.04088897100275091
0.0047420121535566295
0.0059286142491643545
0.00662466927623484
0.0067533067169556205
0.006669014054221378
0.00668589311887402
0.006705296908862124
0.006739335615485231
0.006769726209682858
0.0069032837598967944
0.007053989160848317
0.01516483694238957
0.028486264744088885
0.024506122985496148
0.028486264744014278
0.015164836942147986
0.007053989160194618
0.006903283758981971
0.006769726208464277
0.006739335613856312
0.00670529690697208
0.006685893121552766
0.006669013903181309
0.0067533067071643416
0.006624669274252426
0.005928614248389863
0.008267770655770335
0.0178758224713107
0.008267770655926654
0.009113236491323562
0.015099383990516912
0.00911323649121698
0.009914785467049825
0.012583039099610005
0.009914785466698106
0.009887090933244025
0.013037722903206372
0.009887090932512166
0.009926606476941657
0.013125248432810821
0.009926606485024081
0.009926663720637663
0.013146763613065104
0.009926663718982098
0.009929639455714678
0.013147560557310811
0.009929639455261707
0.009931419894092741
0.013152508049980582
0.00993141989360069
0.00994857713995323
0.013170199982070585
0.009948577139518022
0.009965069836454177
0.013348259205026025
0.009965069836114893
0.01039879618181061
0.013358810298612411
0.010398796181599224
0.010688129571775562
0.011578392113861469
0.010688129571679639
SCALARS disp_x float
LOOKUP_TABLE default
0.001873451219505876
0.0
0.0
-0.0018734512195058798
0.0018652446752763837
0.0018322281218441058
0.0017667561643121227
0.001674571830536932
0.0015559498537300756
0.0014109864939246088
0.0012396574529551163
0.001041980959186774
0.0008179230654502076
0.0005689090578994546
0.0002956042303865346
0.0
0.0
0.0
-0.0002956042303865352
-0.0005689090578994557
-0.000817923065450209
-0.0010419809591867763
-0.001239657452955118
-0.0014109864939246103
-0.0015559498537300782
-0.0016745718305369351
-0.0017667561643121272
-0.0018322281218441112
-0.0018652446752763883
-0.0009291403202586512
-1.8057218195307334e-18
0.000929140320258647
0.0009272832915269422
-1.4158326908194558e-18
-0.0009272832915269455
0.0009013856273330555
-1.2152118890157324e-18
-0.0009013856273330581
0.0008674598425035669
-1.291511834453363e-18
-0.0008674598425035706
0.0008212619533433503
-1.7838585280631913e-18
-0.0008212619533433537
0.0007619686470275471
-1.5540472761295644e-18
-0.0007619686470275503
0.0006894888721954888
-1.509039731088011e-18
-0.0006894888721954915
0.0006038303793252951
-1.3563432106160782e-18
-0.0006038303793252973
0.0005049869657078581
-9.293085598790327e-19
-0.00050498696570786
0.00039284282031001454
-8.084022522733705e-19
-0.0003928428203100161
0.0002661893356570916
-5.113889047436328e-19
-0.0002661893356570925
0.00012321129739330404
-2.279441781794157e-19
-0.00012321129739330448
SCALARS disp_y float
LOOKUP_TABLE default
-0.008106575916155545
0.0
0.0
-0.008106575916155545
-0.0071476435974451
-0.006179903616242608
-0.005233818025346055
-0.0043285227685878926
-0.0034759177104109113
-0.0026892348532635505
-0.001981625481104525
-0.0013662419460525258
-0.0008566534570261598
-0.00046493960870580076
-0.00020710298027993968
0.0
0.0
0.0
-0.0002071029802799401
-0.0004649396087058014
-0.0008566534570261602
-0.0013662419460525252
-0.0019816254811045255
-0.0026892348532635505
-0.0034759177104109105
-0.004328522768587891
-0.005233818025346051
-0.006179903616242606
-0.007147643597445099
-0.008115834120099828
-0.008171390401416085
-0.008115834120099828
-0.00714213050676527
-0.007131027135730061
-0.007142130506765271
-0.006161217305533815
-0.006155101638640197
-0.006161217305533816
-0.005208455636111571
-0.005199696694915775
-0.005208455636111567
-0.00429460129749278
-0.004283334164805702
-0.004294601297492779
-0.0034335656122841036
-0.0034194431125004017
-0.0034335656122841023
-0.00263840434036097
-0.002621460506605528
-0.002638404340360969
-0.001922311902422103
-0.0019025546384215945
-0.0019223119024221044
-0.0012985050356226506
-0.0012758540332429556
-0.0012985050356226502
-0.0007799563464716275
-0.0007545741824714639
-0.0007799563464716278
-0.0003807754667716638
-0.00034975462252417584
-0.00038077546677166415
-0.00010724011431909046
-8.208495179608838e-05
-0.00010724011431909065
SCALARS von_mises_stress float
LOOKUP_TABLE default
5990788624.777726
69538394332.81181
69538394332.52925
5990788623.778852
6571234502.254474
11853556658.22736
17808536749.91487
23379687897.672527
28970177227.79352
34574689274.23985
40187156362.62236
45788193839.61579
51231281073.60049
56408540531.53853
61583481349.84533
35207596922.003075
16325327268.342583
35207596921.81575
61583481349.82173
56408540531.6369
51231281073.9658
45788193842.249214
40187156416.01951
34574689254.94375
28970177224.62328
23379687843.273125
17808536751.55718
11853556657.478767
6571234501.139559
8902226334.48655
11908397344.156233
8902226334.58847
6821929834.236183
10058807442.08444
6821929834.207433
9163674730.633041
8382486049.83004
9163674730.709305
10979433957.273846
8685383619.247812
10979433955.826715
13322415669.64955
8743691509.819395
13322415677.812603
15878371278.439037
8758023796.393599
15878371280.468313
18539072579.338306
8758554521.4749
18539072616.4648
21259106655.943573
8761850788.856956
21259106644.320736
24033236855.641636
8773636160.17797
24033236854.98072
26920246405.469303
8892255529.6749
26920246405.38583
29940637307.576557
8899284034.961025
29940637307.498493
30117794247.44418
7713216156.197908
30117794247.279778
