# vtk DataFile Version 2.0
Generated Volume Mesh
ASCII
DATASET UNSTRUCTURED_GRID
POINTS 65 float
0.0 -0.009999999776482582 0.0
0.05999999865889549 -0.009999999776482582 0.0
0.05999999865889549 0.009999999776482582 0.0
0.0 0.009999999776482582 0.0
0.004999999888241291 -0.009999999776482582 0.0
0.009999999776482582 -0.009999999776482582 0.0
0.014999999664723873 -0.009999999776482582 0.0
0.019999999552965164 -0.009999999776482582 0.0
0.02500000037252903 -0.009999999776482582 0.0
0.029999999329447746 -0.009999999776482582 0.0
0.03500000014901161 -0.009999999776482582 0.0
0.03999999910593033 -0.009999999776482582 0.0
0.04500000178813934 -0.009999999776482582 0.0
0.05000000074505806 -0.009999999776482582 0.0
0.054999999701976776 -0.009999999776482582 0.0
0.05999999865889549 -0.004999999888241291 0.0
0.05999999865889549 -2.538941279439655e-14 0.0
0.05999999865889549 0.004999999888241291 0.0
0.054999999701976776 0.009999999776482582 0.0
0.05000000074505806 0.009999999776482582 0.0
0.04500000178813934 0.009999999776482582 0.0
0.03999999910593033 0.009999999776482582 0.0
0.03500000014901161 0.009999999776482582 0.0
0.029999999329447746 0.009999999776482582 0.0
0.02500000037252903 0.009999999776482582 0.0
0.019999999552965164 0.009999999776482582 0.0
0.014999999664723873 0.009999999776482582 0.0
0.009999999776482582 0.009999999776482582 0.0
0.004999999888241291 0.009999999776482582 0.0
0.0 0.004999999888241291 0.0
0.0 2.538941279439655e-14 0.0
0.0 -0.004999999888241291 0.0
0.004999999888241291 -0.004999999888241291 0.0
0.004999999888241291 2.1157554874751128e-14 0.0
0.004999999888241291 0.004999999888241291 0.0
0.009999999776482582 -0.004999999888241291 0.0
0.009999999776482582 1.6926564316843695e-14 0.0
0.009999999776482582 0.004999999888241291 0.0
0.014999999664723873 -0.004999999888241291 0.0
0.014999999664723873 1.2694706397198274e-14 0.0
0.014999999664723873 0.004999999888241291 0.0
0.019999999552965164 -0.004999999888241291 0.0
0.019999999552965164 8.462848477552853e-15 0.0
0.019999999552965164 0.004999999888241291 0.0
0.02500000037252903 -0.004999999888241291 0.0
0.02500000037252903 4.231857919645421e-15 0.0
0.02500000037252903 0.004999999888241291 0.0
0.029999999329447746 -0.004999999888241291 0.0
0.029999999329447746 0.0 0.0
0.029999999329447746 0.004999999888241291 0.0
0.03500000014901161 -0.004999999888241291 0.0
0.03500000014901161 -4.231857919645421e-15 0.0
0.03500000014901161 0.004999999888241291 0.0
0.03999999910593033 -0.004999999888241291 0.0
0.03999999910593033 -8.462848477552853e-15 0.0
0.03999999910593033 0.004999999888241291 0.0
0.04500000178813934 -0.004999999888241291 0.0
0.04500000178813934 -1.2694706397198274e-14 0.0
0.04500000178813934 0.004999999888241291 0.0
0.05000000074505806 -0.004999999888241291 0.0
0.05000000074505806 -1.692623905619195e-14 0.0
0.05000000074505806 0.004999999888241291 0.0
0.054999999701976776 -0.004999999888241291 0.0
0.054999999701976776 -2.1157663294968376e-14 0.0
0.054999999701976776 0.004999999888241291 0.0
CELLS 48 240
4 0 4 32 31
4 31 32 33 30
4 30 33 34 29
4 29 34 28 3
4 4 5 35 32
4 32 35 36 33
4 33 36 37 34
4 34 37 27 28
4 5 6 38 35
4 35 38 39 36
4 36 39 40 37
4 37 40 26 27
4 6 7 41 38
4 38 41 42 39
4 39 42 43 40
4 40 43 25 26
4 7 8 44 41
4 41 44 45 42
4 42 45 46 43
4 43 46 24 25
4 8 9 47 44
4 44 47 48 45
4 45 48 49 46
4 46 49 23 24
4 9 10 50 47
4 47 50 51 48
4 48 51 52 49
4 49 52 22 23
4 10 11 53 50
4 50 53 54 51
4 51 54 55 52
4 52 55 21 22
4 11 12 56 53
4 53 56 57 54
4 54 57 58 55
4 55 58 20 21
4 12 13 59 56
4 56 59 60 57
4 57 60 61 58
4 58 61 19 20
4 13 14 62 59
4 59 62 63 60
4 60 63 64 61
4 61 64 18 19
4 14 1 15 62
4 62 15 16 63
4 63 16 17 64
4 64 17 2 18
CELL_TYPES 48
9
9
9
9
9
9
9
9
9
9
9
9
9
9
9
9
9
9
9
9
9
9
9
9
9
9
9
9
9
9
9
9
9
9
9
9
9
9
9
9
9
9
9
9
9
9
9
9
POINT_DATA 65
SCALARS stress11 float
LOOKUP_TABLE default
-5373962369.838867
-73474375190.5149
73474329109.13892
5373955094.296631
-5875856888.141846
-11744241622.305176
-18627423219.242188
-24815383623.167236
-30939348581.67993
-37045315294.36621
-43140968260.8042
-49212740903.42334
-55054059035.45361
-60638723592.70752
-65707969865.74463
-34048444806.076538
4415.613380432129
34048455410.755615
65707943764.51611
60638741490.562744
55054113485.43945
49212769856.94849
43140967135.88867
37045301072.798096
30939341119.93799
24815489691.523926
18627400488.007324
11744283122.369629
5875850602.771484
4830720785.893066
-4594.020080566406
-4830729857.24646
-3183223778.69458
-6471.191101074219
3183211125.713379
-6464100261.0217285
22099.373046875
6464144112.797119
-8924436483.82373
-13554.559173583984
8924409932.848389
-11737731097.965332
64352.80191040039
11737858911.254883
-14647353919.067383
-3180.796630859375
14647348117.655762
-17570817021.136475
-6699.213562011719
17570803945.849854
-20496159154.48999
-5542.696380615234
20496148697.27417
-23436162026.495605
456.37005615234375
23436165514.87671
-26467807668.971436
6029.178695678711
26467823712.449585
-29529391185.289795
-6227.029052734375
29529381098.70117
-29578370535.737183
-5212.805587768555
29578356966.62451
SCALARS stress22 float
LOOKUP_TABLE default
-4747796424.6553955
-30298153085.75885
30298139900.10901
4747780266.6015625
-1641358610.3112793
-1682982437.126709
-3267310219.130371
-4358936430.3845215
-5416171206.513794
-6460365264.997437
-7500436517.687256
-8532713860.3845215
-9405832920.505005
-10328516975.553467
-11655310007.118591
-13976131745.33554
4047.3105812072754
13976141733.13321
11655292130.26538
10328523413.289307
9405890043.801636
8532725483.020264
7500418779.308472
6460340731.605469
5416161270.066528
4359188351.9123535
3267262372.0334473
1683082773.0997314
1641345607.1437988
8020010768.06311
-10602.388366699219
-8020031694.902832
-149723007.50335693
-15204.113098144531
149693171.26031494
-232717013.6060791
51136.01254272461
232819175.32263184
-290871423.02471924
-32001.420852661133
290808621.1229248
-358628814.79107666
150164.55477905273
358927945.35302734
-441008850.0415039
-8517.469772338867
440993036.03881836
-526422275.5800781
-16840.6650390625
526389695.7030029
-612603825.8110352
-11808.313400268555
612581535.2453003
-701652726.8226929
6067.77490234375
701666455.0552368
-795137309.3869019
20838.23281097412
795180737.625
-842905729.703125
-11536.720458984375
842884086.8478394
-662763121.359375
-17270.878387451172
662729133.6835938
SCALARS stress12 float
LOOKUP_TABLE default
1823533482.125
15719734183.339844
15719727765.851562
1823546473.4609375
2279914413.03125
2547410891.2890625
2596673963.3359375
2564063650.1367188
2570434286.060547
2577792312.5820312
2590779859.2539062
2602409937.4140625
2653730678.5839844
2711661051.9804688
5829939414.458984
10951343017.449219
9421101376.019531
10951346750.582031
5829928176.642578
2711685266.28125
2653774169.4277344
2602444968.8867188
2590790540.5429688
2577780043.0117188
2570427147.671875
2564082943.90625
2596669998.2070312
2547409956.0195312
2279914981.2304688
3179590708.0859375
6874903576.5546875
3179582248.6640625
3504638475.2617188
5806851423.84375
3504641864.3125
3812579202.1132812
4838571577.175781
3812586160.7734375
3801611262.3789062
5013034670.261719
3801612531.4453125
3816534722.736328
5046344481.371094
3816548588.8964844
3816355344.171875
5054343110.921875
3816359004.751953
3817339796.5820312
5054435761.998047
3817342481.9121094
3817897047.1191406
5056171331.634766
3817898585.6992188
3824424637.7109375
5062882256.546875
3824430542.7070312
3830728080.310547
5131293456.019531
3830738481.326172
3997464401.0878906
5135334691.625
3997465464.6523438
4108706432.873047
4450855061.7890625
4108699901.1210938
SCALARS strain11 float
LOOKUP_TABLE default
-0.0030386653118540385
-0.05504540385666279
0.05504536243260616
0.0030386648353121215
-0.004706900005903014
-0.01003089702371196
-0.015676703971196915
-0.020882013182718984
-0.026042500627311505
-0.0311916954067053
-0.03633310908896048
-0.041455834531953784
-0.04643091952284539
-0.05115311693061275
-0.05524868212952028
-0.025533393903079737
2.1775821076874813e-09
0.025533397398730284
0.055248666676371294
0.051153130040999306
0.04643094541443804
0.04145585705546795
0.03633311748412571
0.031191689861499228
0.026042495972509627
0.02088201279934143
0.01567670296913226
0.010030895661475192
0.004706899424651745
0.0012681517208460447
-4.900657657458396e-11
-0.0012681518201157482
-0.0028383416467122613
1.1489781348572592e-11
0.002838341773579778
-0.00579157160274002
1.2855752573592838e-10
0.005791571869369516
-0.008007797569625774
1.1502288010944994e-10
0.00800779770716531
-0.010541469833881156
5.775657729856221e-12
0.010541469836919615
-0.013157099250548199
4.710080103720315e-10
0.013157099639515502
-0.015784139440813805
6.410109804066977e-10
0.015784140103110578
-0.01841258911296595
-5.8642858624669e-10
0.018412588422291876
-0.021053262248826976
-1.9935310208163415e-09
0.02105326043971223
-0.02377560105019827
-2.6240551398437617e-09
0.023775599349713517
-0.026543013420767037
-1.3257038869451954e-09
0.02654301205715659
-0.02665784000448368
1.6673030352187812e-09
0.026657840788031573
SCALARS strain22 float
LOOKUP_TABLE default
-0.0022246492816668604
0.001083688397210479
-0.0010836799211816142
0.0022246374420607593
0.0007979478640894253
0.003048740140491916
0.004291442439279402
0.005711367249600412
0.0071376298234881765
0.008568741313838862
0.009999580200260236
0.011428198966742504
0.012911774315583789
0.014250150785567496
0.015019774827620277
0.0005606141004262932
2.0794642141032382e-09
-0.0005606077871518379
-0.015019783237692166
-0.014250152451149686
-0.012911743782660945
-0.011428200127900998
-0.009999596881200695
-0.008568756484974738
-0.007137636157865905
-0.005711179851355152
-0.004291477397612536
-0.0030486651638432
-0.0007979572383480689
0.0054142287193713785
-7.852896451165936e-09
-0.005414244234179832
0.001105209329510061
-1.1305901676667007e-08
-0.0011052314898292483
0.0023092266271680546
3.788035221607977e-08
-0.0023091508367212785
0.0032158374060546474
-2.3849175041952553e-08
-0.003215884153820606
0.004251362845056747
1.1157352468402909e-07
-0.004251140829677658
0.00531115025969247
-6.4652233939740955e-09
-0.00531116178341038
0.006373574562703325
-1.2751013011083612e-08
-0.006373598837385065
0.007436032430160071
-8.445020053919616e-09
-0.007436048626166953
0.008501599171803096
5.2926936574757e-09
-0.008501587768231676
0.009598870240747775
1.665130581465432e-08
-0.009598836560755414
0.010749418351329067
-8.082602402040978e-09
-0.01074943345731667
0.010932449997452378
-1.3488009323586042e-08
-0.010932476274870595
SCALARS strain12 float
LOOKUP_TABLE default
0.0047411869346234425
0.04087130798863825
0.04087129259343669
0.0047412209947594874
0.005927777756298269
0.006623268234278612
0.006751352391482612
0.006666565784414047
0.006683128783720349
0.0067022599536272764
0.006736027521789367
0.006766265482788469
0.006899699184572228
0.007050318187289406
0.015157842440878255
0.028473491679186225
0.024494863024330016
0.028473501174197224
0.015157813146799981
0.007050381248625115
0.006899812676280703
0.006766357193967565
0.006736055475968783
0.006702228131153731
0.006683110650897106
0.00666661601138685
0.00675134222105811
0.006623266112185888
0.005927778896435143
0.008266935226302508
0.017874749194177753
0.008266913438504275
0.009112059747423018
0.015097814347200256
0.009112068369105941
0.009912705949140843
0.012580286407256835
0.009912724579784538
0.009884189073694927
0.013033890125626613
0.009884192306529371
0.009922990563715928
0.013120495057478365
0.009923026895080511
0.009922523556745944
0.013141292246892533
0.009922533580279946
0.009925083335957652
0.013141533339410927
0.009925089975528323
0.009926532403845556
0.013146046073401862
0.009926536075155923
0.0099435038766309
0.013163494120433938
0.009943519443805116
0.009959892954750416
0.013341362908793286
0.00995992003482371
0.010393407134891675
0.013351870077720207
0.010393410455982632
0.010682636539826262
0.011572223224462164
0.010682619323524989
SCALARS disp_x float
LOOKUP_TABLE default
0.001872831793250272
0.0
0.0
-0.0018728317932502712
0.001864626176644467
0.0018316134381740456
0.0017661512908884445
0.0016739851067223165
0.0015553914235806872
0.0014104680082388473
0.0012391915189499394
0.0010415811052202806
0.0008176029956868733
0.0005686823200511738
0.0002954842294124196
0.0
0.0
0.0
-0.0002954842294124196
-0.0005686823200511736
-0.000817602995686873
-0.0010415811052202804
-0.0012391915189499392
-0.0014104680082388471
-0.0015553914235806865
-0.0016739851067223148
-0.001766151290888443
-0.0018316134381740447
-0.001864626176644466
-0.000928832037361092
9.817791636823176e-19
0.0009288320373610927
0.0009269761359802262
8.4843338973114e-19
-0.0009269761359802247
0.0009010816111561638
1.1699592081340172e-18
-0.0009010816111561618
0.0008671620422692266
3.5742846214493133e-19
-0.0008671620422692257
0.000820974356005225
-1.5124157245313974e-19
-0.0008209743560052252
0.0007616960974130213
-1.0948844679435522e-19
-0.000761696097413021
0.0006892369844679742
-5.42992348726391e-20
-0.0006892369844679738
0.0006036052726705093
9.580276775081311e-20
-0.0006036052726705091
0.0005047952128870471
-1.3620979128012785e-19
-0.0005047952128870471
0.0003926911460094505
-1.659791702334687e-19
-0.00039269114600945076
0.00026608526119838264
-1.1031731320484874e-19
-0.0002660852611983826
0.00012316284288820445
-1.7192826158448796e-20
-0.00012316284288820445
SCALARS disp_y float
LOOKUP_TABLE default
-0.008103656759523523
0.0
0.0
-0.008103656759523523
-0.007145037016178442
-0.006177612510831084
-0.005231843177292666
-0.00432686068014091
-0.003474559490670914
-0.0026881659102938648
-0.001980824064551962
-0.0013656799072625015
-0.0008562942056689352
-0.0004647406722204051
-0.00020701333039421023
0.0
0.0
0.0
-0.0002070133303942102
-0.00046474067222040537
-0.0008562942056689352
-0.0013656799072625007
-0.001980824064551962
-0.002688165910293863
-0.0034745594906709144
-0.004326860680140909
-0.005231843177292659
-0.006177612510831082
-0.007145037016178443
-0.0081129158764689
-0.008168472954578381
-0.0081129158764689
-0.007139524891962805
-0.007128422074423885
-0.007139524891962804
-0.006158928775150782
-0.0061528143080451896
-0.006158928775150781
-0.0052064856599535045
-0.0051977286563988055
-0.005206485659953499
-0.004292946992609383
-0.004281682713697839
-0.004292946992609383
-0.0034322186077999895
-0.003418100048474806
-0.003432218607799989
-0.002637350451740164
-0.0026204117902794864
-0.002637350451740164
-0.0019215296880002732
-0.0019017789238072657
-0.0019215296880002726
-0.0012979665118778207
-0.001275323433084527
-0.0012979665118778197
-0.0007796252409079002
-0.0007542524077371388
-0.0007796252409079002
-0.0003806087100950311
-0.0003495998004582728
-0.0003806087100950312
-0.00010719000459324272
-8.204443094107411e-05
-0.00010719000459324277
SCALARS von_mises_stress float
LOOKUP_TABLE default
5990190831.51396
69510101071.90549
69510059272.93362
5990193493.34885
6570341935.812882
11851674798.366034
17805133771.81145
23374305950.46527
28962506616.61465
34564439472.93241
40174121241.430984
45772267248.669
51212466137.33755
56386915972.11527
61558926056.62293
35193167569.848076
16317826246.523443
35193178343.853874
61558903630.446396
56386934791.40878
51212506219.74752
45772297573.547874
40174128417.38052
34564431376.16992
28962500891.8176
23374328271.353153
17805126589.940968
11851676907.758549
6570340257.3995695
8901875899.133741
11907682291.73327
8901880846.44853
6821011749.980677
10057761698.109735
6821017514.965318
9161971611.052279
8380651807.8448515
9161977236.266357
10976841702.854761
8682830749.042164
10976845652.30199
13318831376.381992
8740525035.203587
13318830463.026543
15873674976.740654
8754379067.0056
15873679201.141745
18533140885.724827
8754539543.386047
18533144853.088337
21251842546.19615
8757545638.17058
21251843547.197433
24024583898.94931
8769169301.080109
24024583775.91391
26910127789.421688
8887660974.39093
26910127700.045273
29928984375.220722
8894660599.771175
29928985058.917305
30105816896.04199
7709107104.15904
30105816987.649414
