# vtk DataFile Version 2.0
Generated Volume Mesh
ASCII
DATASET UNSTRUCTURED_GRID
POINTS 65 float
0.0 -0.01 0.0
0.06 -0.01 0.0
0.06 0.01 0.0
0.0 0.01 0.0
0.004999999999989176 -0.01 0.0
0.009999999999977303 -0.01 0.0
0.01499999999996193 -0.01 0.0
0.01999999999994689 -0.01 0.0
0.02499999999992982 -0.01 0.0
0.02999999999991614 -0.01 0.0
0.03499999999993181 -0.01 0.0
0.03999999999994545 -0.01 0.0
0.04499999999995909 -0.01 0.0
0.04999999999997273 -0.01 0.0
0.05499999999998636 -0.01 0.0
0.06 -0.005000000000010828 0.0
0.06 -2.538941279439655e-14 0.0
0.06 0.004999999999987136 0.0
0.05500000000001096 0.01 0.0
0.05000000000002507 0.01 0.0
0.04500000000003964 0.01 0.0
0.0400000000000542 0.01 0.0
0.03500000000007013 0.01 0.0
0.03000000000008537 0.01 0.0
0.02500000000006944 0.01 0.0
0.02000000000005555 0.01 0.0
0.01500000000004167 0.01 0.0
0.01000000000002778 0.01 0.0
0.005000000000013882 0.01 0.0
0.0 0.005000000000010828 0.0
0.0 2.538941279439655e-14 0.0
0.0 -0.004999999999987136 0.0
0.004999999999995354 -0.00499999999998911 0.0
0.005000000000001529 2.115755487475113e-14 0.0
0.005000000000007705 0.005000000000008855 0.0
0.00999999999998992 -0.004999999999991086 0.0
0.01000000000000254 1.69265643168437e-14 0.0
0.01000000000001516 0.005000000000006879 0.0
0.01499999999998186 -0.004999999999993059 0.0
0.0150000000000018 1.269470639719827e-14 0.0
0.01500000000002173 0.005000000000004905 0.0
0.01999999999997405 -0.004999999999995033 0.0
0.02000000000000122 8.462848477552853e-15 0.0
0.02000000000002838 0.005000000000002931 0.0
0.02499999999996472 -0.004999999999997009 0.0
0.02499999999999963 4.231857919645421e-15 0.0
0.02500000000003453 0.005000000000000957 0.0
0.02999999999995845 -0.004999999999998983 0.0
0.03000000000000076 0.0 0.0
0.03000000000004307 0.004999999999998983 0.0
0.03499999999996638 -0.005000000000000957 0.0
0.03500000000000097 -4.231857919645421e-15 0.0
0.03500000000003555 0.004999999999997009 0.0
0.03999999999997263 -0.00500000000000293 0.0
0.03999999999999983 -8.462848477552853e-15 0.0
0.04000000000002701 0.004999999999995034 0.0
0.04499999999997922 -0.005000000000004905 0.0
0.04499999999999937 -1.269470639719827e-14 0.0
0.0450000000000195 0.00499999999999306 0.0
0.04999999999998581 -0.005000000000006878 0.0
0.04999999999999891 -1.692623905619195e-14 0.0
0.05000000000001198 0.004999999999991084 0.0
0.0549999999999925 -0.005000000000008852 0.0
0.05499999999999866 -2.115766329496838e-14 0.0
0.05500000000000481 0.00499999999998911 0.0
CELLS 48 240
4 0 4 32 31
4 31 32 33 30
4 30 33 34 29
4 29 34 28 3
4 4 5 35 32
4 32 35 36 33
4 33 36 37 34
4 34 37 27 28
4 5 6 38 35
4 35 38 39 36
4 36 39 40 37
4 37 40 26 27
4 6 7 41 38
4 38 41 42 39
4 39 42 43 40
4 40 43 25 26
4 7 8 44 41
4 41 44 45 42
4 42 45 46 43
4 43 46 24 25
4 8 9 47 44
4 44 47 48 45
4 45 48 49 46
4 46 49 23 24
4 9 10 50 47
4 47 50 51 48
4 48 51 52 49
4 49 52 22 23
4 10 11 53 50
4 50 53 54 51
4 51 54 55 52
4 52 55 21 22
4 11 12 56 53
4 53 56 57 54
4 54 57 58 55
4 55 58 20 21
4 12 13 59 56
4 56 59 60 57
4 57 60 61 58
4 58 61 19 20
4 13 14 62 59
4 59 62 63 60
4 60 63 64 61
4 61 64 18 19
4 14 1 15 62
4 62 15 16 63
4 63 16 17 64
4 64 17 2 18
CELL_TYPES 48
9
9
9
9
9
9
9
9
9
9
9
9
9
9
9
9
9
9
9
9
9
9
9
9
9
9
9
9
9
9
9
9
9
9
9
9
9
9
9
9
9
9
9
9
9
9
9
9
POINT_DATA 65
SCALARS stress11 float
LOOKUP_TABLE default
1.724855749745754e+18
1313738454827008.0
-1313738453975040.0
-1.724855749745328e+18
-3.525574880090849e+17
8.923744326477414e+16
-2.44735870144512e+16
7222518935355392.0
-1005560006410240.0
1212006798884864.0
566551099752448.0
678866907529216.0
597475078340608.0
589593327042560.0
621150599839744.0
149446841761792.0
196608.0
-149446841303040.0
-621150599151616.0
-589593326223360.0
-597475077783552.0
-678866906939392.0
-566551099424768.0
-1212006798639104.0
1005560006639616.0
-7222518935912448.0
2.447358701513933e+16
-8.923744326602752e+16
3.5255748801152614e+17
2.5172184368087327e+18
183173120.0
-2.517218436920287e+18
4.5888411233326694e+17
-39854080.0
-4.588841123122217e+17
-1.3193771406453146e+17
10117120.0
1.31937714060288e+17
3.4320018699902976e+16
-2547712.0
-3.4320018699116544e+16
-9280063258673152.0
720896.0
9280063258542080.0
2525724989865984.0
32768.0
-2525724989669376.0
-623134386323456.0
81920.0
623134386405376.0
219436486344704.0
49152.0
-219436486115328.0
-9606647250944.0
98304.0
9606647545856.0
48953429721088.0
0.0
-48953429458944.0
32475449065472.0
-65536.0
-32475448344576.0
44287038652416.0
262144.0
-44287038128128.0
SCALARS stress22 float
LOOKUP_TABLE default
4.0246630748308767e+18
3065388740968448.0
-3065388741033984.0
-4.024663074830172e+18
-8.226341983406653e+17
2.0822070018688614e+17
-5.710503598194688e+16
1.6852542230265856e+16
-2346307907551232.0
2828015132147712.0
1321951905120256.0
1584022220374016.0
1394108014788608.0
1375717300436992.0
1449350927089664.0
348709193777152.0
524288.0
-348709195022336.0
-1449350927024128.0
-1375717298536448.0
-1394108014788608.0
-1584022219653120.0
-1321951904989184.0
-2828015132934144.0
2346307907059712.0
-1.6852542231904256e+16
5.710503598296269e+16
-2.082207001903104e+17
8.226341983459738e+17
5.87351000531347e+18
427261952.0
-5.873510005573894e+18
1.0707295271698104e+18
-93011968.0
-1.070729527120937e+18
-3.0785465735535e+17
23592960.0
3.0785465734496256e+17
8.008004821961933e+16
-5832704.0
-8.00800482179154e+16
-2.1653481651470336e+16
1343488.0
2.165348165074944e+16
5893358976827392.0
-294912.0
-5893358977220608.0
-1453980205121536.0
-98304.0
1453980204826624.0
512018426429440.0
-327680.0
-512018427215872.0
-22415536553984.0
-720896.0
22415536226304.0
114224646520832.0
-131072.0
-114224647241728.0
75776027525120.0
-655360.0
-75776027721728.0
103336399142912.0
-65536.0
-103336399863808.0
SCALARS stress12 float
LOOKUP_TABLE default
6.87952150338388e+17
9562919305576448.0
9562919305674752.0
6.87952150338388e+17
3.2883357040993894e+17
-4.007989430962995e+16
2.7935129180585984e+16
2178175328813056.0
5870742996353024.0
3201014249177088.0
2956142730100736.0
2463148476481536.0
2309064252030976.0
2331475376537600.0
2880174349221888.0
2682357579186176.0
2211124098727936.0
2682357578924032.0
2880174348992512.0
2331475376439296.0
2309064252063744.0
2463148476710912.0
2956142730018816.0
3201014249324544.0
5870742996008960.0
2178175329353728.0
2.793512917851341e+16
-4.007989430509158e+16
3.288335704007762e+17
-7.508876366452982e+17
3.904152419741987e+18
-7.508876366357217e+17
-3.863610076928082e+17
1.896565918616531e+18
-3.863610076876616e+17
8.380499410967347e+16
-3.105626259888906e+17
8.380499410538496e+16
-2.22048059738112e+16
1.0761879091376128e+17
-2.2204805971943424e+16
6692171905998848.0
-2.563983899225293e+16
6692171905277952.0
-1340803589472256.0
7374182605504512.0
-1340803589193728.0
669302783655936.0
-1837012837187584.0
669302783475712.0
62294186983424.0
570308059840512.0
62294187114496.0
188689283579904.0
-90359767826432.0
188689283694592.0
139453335863296.0
83056942252032.0
139453335830528.0
170265817645056.0
52432691625984.0
170265817743360.0
321077469413376.0
185511772520448.0
321077469347840.0
SCALARS strain11 float
LOOKUP_TABLE default
-4.558715175359627e-07
-8.259962714986821e-06
8.259963470597564e-06
4.5586849125551034e-07
-7.061277476697861e-07
-1.5048502339110991e-06
-2.3519146827305363e-06
-3.1329686327291302e-06
-3.9073479479311164e-06
-4.680063598592012e-06
-5.451636349628955e-06
-6.2204201752292366e-06
-6.967057808788873e-06
-7.675751175591737e-06
-8.2904232228225e-06
-3.831441026157635e-06
2.3706064238362967e-13
3.8314420436175146e-06
8.290424318567631e-06
7.675752214506758e-06
6.9670590936517685e-06
6.2204196408550966e-06
5.451630996025815e-06
4.680056627951639e-06
3.907345989264625e-06
3.1329750975576264e-06
2.3519239509313535e-06
1.5048539726680973e-06
7.061257372677958e-07
1.9026860404591653e-07
4.300706383901509e-12
-1.902643964101034e-07
-4.2581416254862804e-07
4.796019782487768e-12
4.2581760710083444e-07
-8.688690819424853e-07
1.1829131966491213e-12
8.688706937674167e-07
-1.2014032596956056e-06
-2.098467423048908e-12
1.2014015386309086e-06
-1.5815802958935694e-06
-1.141496321294469e-12
1.5815771997653436e-06
-1.974073365997324e-06
-1.2205147103486885e-12
1.974071588073433e-06
-2.368295917558173e-06
-8.777877513396759e-13
2.3682949320311917e-06
-2.7627428015931683e-06
2.7911071891206785e-13
2.762742269497967e-06
-3.15903205079049e-06
3.653907146468349e-13
3.1590315938230453e-06
-3.567581301757762e-06
8.046289871367629e-14
3.5675814941014885e-06
-3.98289467106361e-06
1.4356457645955945e-13
3.982895051539344e-06
-4.000158270593885e-06
2.5310997872271535e-13
4.000158934098347e-06
SCALARS strain22 float
LOOKUP_TABLE default
2989749.646896772
2277.145563483238
-2277.145563006401
-2989749.646896094
-611099.6707531214
154678.2356146425
-42420.8836350441
12519.03131622076
-1742.9719063937664
2100.8109526634216
982.021181344986
1176.7020169198513
1035.6229150295258
1021.9612547159195
1076.660515487194
259.0410771369934
2.384185791015625e-07
-259.0410770177841
-1076.6605148911476
-1021.9612525701523
-1035.6229143738747
-1176.7020163536072
-982.0211809277534
-2100.810952603817
1742.9719069898129
-12519.031317174435
42420.88363599777
-154678.2356170416
611099.6707572043
4363179.207699597
0.00031751394271850586
-4363179.20789291
795399.1399739683
-6.908178329467773e-05
-795399.1399374455
-228692.0216857791
1.7523765563964844e-05
228692.0216782391
59488.03493010998
-4.246830940246582e-06
-59488.03492863476
-16085.444063454866
1.2516975402832031e-06
16085.444063276052
4377.923070937395
0.0
-4377.92307087779
-1080.09952840209
-2.9802322387695312e-08
1080.0995282530785
380.35653802752495
5.960464477539063e-08
-380.35653787851334
-16.651552468538284
-1.4901161193847656e-07
16.651552617549896
84.85258382558823
2.980232238769531e-07
-84.852583527565
56.29075467586517
-1.1920928955078125e-07
-56.29075366258621
76.76417189836502
2.384185791015625e-07
-76.76417183876038
SCALARS strain12 float
LOOKUP_TABLE default
1788675.605615884
24863.589785456657
24863.589785337448
1788675.6056157053
854967.2922637314
-104207.72532570362
72631.33354873955
5663.254368901253
15263.931351363659
8322.636897593737
7685.970970869064
6404.185931146145
6003.566956877708
6061.835881054401
7488.453186273575
6974.129587650299
5748.922559022903
6974.12958753109
7488.453186511993
6061.835880339146
6003.56695663929
6404.185930907726
7685.970970988274
8322.636897653341
15263.931350499392
5663.254370510578
72631.33354327083
-104207.7253139168
854967.2922401428
-1952307.8802145422
10150796.737113029
-1952307.8801896572
-1004538.6456810161
4931071.672895379
-1004538.6456676126
217892.9813933596
-807462.8221462592
217892.98138237745
-57732.49282345176
279808.8469530791
-57732.49281860888
17399.647405415773
-66663.57817575336
17399.64740368724
-3486.0890898108482
19172.875017225742
-3486.089089244604
1740.1872528791428
-4776.233727842569
1740.1872527897358
161.9648723602295
1482.8010921478271
161.96487259864807
490.59213149547577
-234.93536299467087
490.59213149547577
362.5786683559418
215.9480562210083
362.5786677002907
442.69111835956573
136.3249973654747
442.6911188364029
834.8014061450958
482.3306008577347
834.8014063835144
SCALARS disp_x float
LOOKUP_TABLE default
2.810129601200453e-07
0.0
0.0
-2.8101297894489077e-07
2.797819883849605e-07
2.7482951826757843e-07
2.6500879732799603e-07
2.511813285331731e-07
2.3338823132553984e-07
2.1164400506575785e-07
1.8594503180658722e-07
1.5629405988913394e-07
1.2268598415726828e-07
8.53346006897171e-08
4.433970579450374e-08
0.0
0.0
0.0
-4.433971149623005e-08
-8.533461531290589e-08
-1.2268599850163285e-07
-1.562940868273437e-07
-1.859450422305359e-07
-2.1164397144636017e-07
-2.3338815981948333e-07
-2.51181269941124e-07
-2.650087996432825e-07
-2.748295648581677e-07
-2.797820294369029e-07
-1.3936872642603501e-07
-2.458487642091279e-14
1.3936872759317254e-07
1.3909018304078145e-07
5.908901422957734e-16
-1.390901567156051e-07
1.3520555161798718e-07
3.2428878319213916e-14
-1.352055158634021e-07
1.301167251735533e-07
1.2846217975965467e-14
-1.3011668389592603e-07
1.231871101099704e-07
5.450098736110751e-15
-1.231870998802423e-07
1.1429321936680728e-07
2.8099117998691016e-15
-1.1429321972554689e-07
1.0342139952131422e-07
-7.803483459642881e-15
-1.0342140559284565e-07
9.057282723005549e-08
-7.375024307024876e-15
-9.057283115747389e-08
7.574656635421996e-08
-3.138408342304728e-15
-7.574657318420565e-08
5.892525227036106e-08
-2.2386241034755797e-15
-5.8925260615895923e-08
3.992759512186043e-08
-2.526043540314778e-15
-3.992759941839601e-08
1.8481318999950592e-08
-8.960734832789076e-16
-1.8481323907141375e-08
SCALARS disp_y float
LOOKUP_TABLE default
-9237.376294546842
0.0
0.0
-9237.376294546842
2475.147750853614
-663.2139048907277
177.70764599596504
-47.6166256248856
12.758837009532275
-3.4187213739198286
0.9160449346729698
-0.2454598621016559
0.06579318790506787
-0.017713656628956163
0.005060994293474341
0.0
0.0
0.0
0.005060994293468034
-0.01771365662896435
0.06579318790507425
-0.24545986210169368
0.9160449346729904
-3.4187213739198445
12.758837009532233
-47.616625624885664
177.70764599596512
-663.2139048907278
2475.147750853614
18474.75107320232
-64661.62195660562
18474.75107320232
-4950.295099718659
17326.0310207777
-4950.295099718659
1326.4276984292167
-4642.496460076499
1326.427698429217
-355.4152652509404
1243.953293948364
-355.4152652509405
95.23324151178703
-333.31631310962706
95.23324151178711
-25.517673488105277
89.31184549355581
-25.517673488105277
6.837440985657299
-23.93104270960415
6.837440985657323
-1.8320906021969692
6.412315138277115
-1.8320906021969874
0.4909190793838476
-1.718217470090045
0.4909190793838403
-0.13158673902050716
0.4605530154507299
-0.13158673902051912
0.03542711376423505
-0.12399513748994716
0.03542711376423499
-0.01012206597352748
0.03542715856683515
-0.010122065973529236
SCALARS von_mises_stress float
LOOKUP_TABLE default
3.694713989119088e+18
1.6776283102279944e+16
1.677628310246858e+16
3.6947139891185183e+18
9.139980914636298e+17
1.9379703849874858e+17
6.930722080558344e+16
1.5122450109576798e+16
1.0370816183727096e+16
6064530746149412.0
5247468266183070.0
4482850394353348.5
4178863720056801.0
4211464939422330.5
5145133023114572.0
4655850676351912.0
3829779280836727.5
4655850675974558.0
5145133022728707.0
4211464938790385.0
4178863720124394.0
4482850394546190.0
5247468266024574.0
6064530746679235.0
1.0370816183051708e+16
1.5122450111200676e+16
6.9307220803694424e+16
1.9379703849872733e+17
9.139980914573372e+17
5.2669818203191e+18
6.762190351486095e+18
5.266981820534301e+18
1.1460890301704513e+18
3.284948530947372e+18
1.146089030130775e+18
3.043587386712213e+17
5.379102471447692e+17
3.0435873865973005e+17
7.950779382573499e+16
1.864012137117664e+17
7.950779382287824e+16
2.209983386086184e+16
4.440950383246767e+16
2.209983385966114e+16
5623097501269795.0
1.2772458937024456e+16
5623097501409077.0
1714709446550017.5
3181799568165149.5
1714709446137532.0
457822469194060.06
987802535609798.5
457822469956944.6
327399363181244.7
156507708835507.8
327399363360468.75
261139270502535.78
143858843901833.62
261139270705986.28
302170724247459.75
90816085873795.5
302170724465287.06
563325407000316.6
321315815407575.8
563325406999029.8
