# vtk DataFile Version 2.0
Generated Volume Mesh
ASCII
DATASET UNSTRUCTURED_GRID
POINTS 2205 float
0.0 0.0 0.0
20.0 0.0 0.0
20.0 20.0 0.0
0.0 20.0 0.0
0.0 0.0 0.1
20.0 0.0 0.1
20.0 20.0 0.1
0.0 20.0 0.1
0.999999999999102 0.0 0.0
1.999999999998378 0.0 0.0
2.999999999996569 0.0 0.0
3.999999999993648 0.0 0.0
4.999999999990727 0.0 0.0
5.999999999987806 0.0 0.0
6.999999999984885 0.0 0.0
7.999999999982034 0.0 0.0
8.999999999983277 0.0 0.0
9.999999999984798 0.0 0.0
10.99999999998632 0.0 0.0
11.99999999998784 0.0 0.0
12.99999999998936 0.0 0.0
13.99999999999088 0.0 0.0
14.9999999999924 0.0 0.0
15.99999999999392 0.0 0.0
16.99999999999544 0.0 0.0
17.99999999999696 0.0 0.0
18.99999999999848 0.0 0.0
20.0 0.999999999999102 0.0
20.0 1.999999999998378 0.0
20.0 2.999999999996569 0.0
20.0 3.999999999993648 0.0
20.0 4.999999999990727 0.0
20.0 5.999999999987806 0.0
20.0 6.999999999984885 0.0
20.0 7.999999999982034 0.0
20.0 8.999999999983277 0.0
20.0 9.999999999984798 0.0
20.0 10.99999999998632 0.0
20.0 11.99999999998784 0.0
20.0 12.99999999998936 0.0
20.0 13.99999999999088 0.0
20.0 14.9999999999924 0.0
20.0 15.99999999999392 0.0
20.0 16.99999999999544 0.0
20.0 17.99999999999696 0.0
20.0 18.99999999999848 0.0
19.0 20.0 0.0
18.0 20.0 0.0
17.0 20.0 0.0
15.99999999999999 20.0 0.0
14.99999999999999 20.0 0.0
13.99999999999999 20.0 0.0
12.99999999999999 20.0 0.0
11.99999999999999 20.0 0.0
10.99999999999999 20.0 0.0
9.999999999999993 20.0 0.0
8.999999999999995 20.0 0.0
7.999999999999993 20.0 0.0
6.999999999999995 20.0 0.0
5.999999999999996 20.0 0.0
4.999999999999996 20.0 0.0
3.999999999999996 20.0 0.0
3.0 20.0 0.0
1.999999999999996 20.0 0.0
1.0 20.0 0.0
0.0 19.0 0.0
0.0 18.0 0.0
0.0 17.0 0.0
0.0 15.99999999999999 0.0
0.0 14.99999999999999 0.0
0.0 13.99999999999999 0.0
0.0 12.99999999999999 0.0
0.0 11.99999999999999 0.0
0.0 10.99999999999999 0.0
0.0 9.999999999999993 0.0
0.0 8.999999999999995 0.0
0.0 7.999999999999993 0.0
0.0 6.999999999999995 0.0
0.0 5.999999999999996 0.0
0.0 4.999999999999996 0.0
0.0 3.999999999999996 0.0
0.0 3.0 0.0
0.0 1.999999999999996 0.0
0.0 1.0 0.0
0.999999999999102 0.0 0.1
1.999999999998378 0.0 0.1
2.999999999996569 0.0 0.1
3.999999999993648 0.0 0.1
4.999999999990727 0.0 0.1
5.999999999987806 0.0 0.1
6.999999999984885 0.0 0.1
7.999999999982034 0.0 0.1
8.999999999983277 0.0 0.1
9.999999999984798 0.0 0.1
10.99999999998632 0.0 0.1
11.99999999998784 0.0 0.1
12.99999999998936 0.0 0.1
13.99999999999088 0.0 0.1
14.9999999999924 0.0 0.1
15.99999999999392 0.0 0.1
16.99999999999544 0.0 0.1
17.99999999999696 0.0 0.1
18.99999999999848 0.0 0.1
20.0 0.999999999999102 0.1
20.0 1.999999999998378 0.1
20.0 2.999999999996569 0.1
20.0 3.999999999993648 0.1
20.0 4.999999999990727 0.1
20.0 5.999999999987806 0.1
20.0 6.999999999984885 0.1
20.0 7.999999999982034 0.1
20.0 8.999999999983277 0.1
20.0 9.999999999984798 0.1
20.0 10.99999999998632 0.1
20.0 11.99999999998784 0.1
20.0 12.99999999998936 0.1
20.0 13.99999999999088 0.1
20.0 14.9999999999924 0.1
20.0 15.99999999999392 0.1
20.0 16.99999999999544 0.1
20.0 17.99999999999696 0.1
20.0 18.99999999999848 0.1
19.0 20.0 0.1
18.0 20.0 0.1
17.0 20.0 0.1
15.99999999999999 20.0 0.1
14.99999999999999 20.0 0.1
13.99999999999999 20.0 0.1
12.99999999999999 20.0 0.1
11.99999999999999 20.0 0.1
10.99999999999999 20.0 0.1
9.999999999999993 20.0 0.1
8.999999999999995 20.0 0.1
7.999999999999993 20.0 0.1
6.999999999999995 20.0 0.1
5.999999999999996 20.0 0.1
4.999999999999996 20.0 0.1
3.999999999999996 20.0 0.1
3.0 20.0 0.1
1.999999999999996 20.0 0.1
1.0 20.0 0.1
0.0 19.0 0.1
0.0 18.0 0.1
0.0 17.0 0.1
0.0 15.99999999999999 0.1
0.0 14.99999999999999 0.1
0.0 13.99999999999999 0.1
0.0 12.99999999999999 0.1
0.0 11.99999999999999 0.1
0.0 10.99999999999999 0.1
0.0 9.999999999999993 0.1
0.0 8.999999999999995 0.1
0.0 7.999999999999993 0.1
0.0 6.999999999999995 0.1
0.0 5.999999999999996 0.1
0.0 4.999999999999996 0.1
0.0 3.999999999999996 0.1
0.0 3.0 0.1
0.0 1.999999999999996 0.1
0.0 1.0 0.1
0.0 0.0 0.02499999999994167
0.0 0.0 0.04999999999986855
0.0 0.0 0.0749999999999336
20.0 0.0 0.02499999999994167
20.0 0.0 0.04999999999986855
20.0 0.0 0.0749999999999336
20.0 20.0 0.02499999999994167
20.0 20.0 0.04999999999986855
20.0 20.0 0.0749999999999336
0.0 20.0 0.02499999999994167
0.0 20.0 0.04999999999986855
0.0 20.0 0.0749999999999336
0.999999999999147 0.999999999999955 0.0
0.9999999999991918 1.999999999999916 0.0
0.9999999999992367 2.999999999999829 0.0
0.9999999999992815 3.999999999999678 0.0
0.9999999999993263 4.999999999999535 0.0
0.9999999999993713 5.999999999999385 0.0
0.9999999999994164 6.999999999999237 0.0
0.9999999999994611 7.999999999999095 0.0
0.9999999999995062 8.999999999999158 0.0
0.999999999999551 9.999999999999236 0.0
0.999999999999596 10.99999999999931 0.0
0.9999999999996407 11.99999999999939 0.0
0.9999999999996858 12.99999999999946 0.0
0.9999999999997308 13.99999999999953 0.0
0.9999999999997753 14.99999999999961 0.0
0.9999999999998204 15.99999999999969 0.0
0.9999999999998653 16.99999999999977 0.0
0.9999999999999102 17.99999999999985 0.0
0.999999999999955 18.99999999999992 0.0
1.999999999998458 0.9999999999999103 0.0
1.999999999998539 1.999999999999834 0.0
1.999999999998621 2.999999999999657 0.0
1.999999999998701 3.999999999999361 0.0
1.999999999998782 4.999999999999068 0.0
1.999999999998863 5.999999999998779 0.0
1.999999999998944 6.999999999998483 0.0
1.999999999999025 7.999999999998196 0.0
1.999999999999106 8.99999999999832 0.0
1.999999999999187 9.999999999998472 0.0
1.999999999999268 10.99999999999863 0.0
1.999999999999349 11.99999999999878 0.0
1.99999999999943 12.99999999999893 0.0
1.999999999999511 13.99999999999907 0.0
1.999999999999592 14.99999999999923 0.0
1.999999999999672 15.99999999999939 0.0
1.999999999999754 16.99999999999954 0.0
1.999999999999834 17.99999999999969 0.0
1.999999999999915 18.99999999999985 0.0
2.999999999996741 0.9999999999998653 0.0
2.999999999996913 1.999999999999754 0.0
2.999999999997084 2.999999999999486 0.0
2.999999999997256 3.999999999999044 0.0
2.999999999997427 4.999999999998607 0.0
2.999999999997598 5.999999999998168 0.0
2.99999999999777 6.999999999997728 0.0
2.999999999997941 7.999999999997296 0.0
2.999999999998114 8.999999999997488 0.0
2.999999999998284 9.999999999997716 0.0
2.999999999998456 10.99999999999794 0.0
2.999999999998628 11.99999999999817 0.0
2.999999999998799 12.9999999999984 0.0
2.999999999998971 13.99999999999862 0.0
2.999999999999142 14.99999999999885 0.0
2.999999999999313 15.99999999999908 0.0
2.999999999999485 16.99999999999931 0.0
2.999999999999657 17.99999999999953 0.0
2.999999999999828 18.99999999999977 0.0
3.999999999993964 0.9999999999998204 0.0
3.999999999994283 1.999999999999672 0.0
3.9999999999946 2.999999999999314 0.0
3.999999999994917 3.999999999998726 0.0
3.999999999995235 4.999999999998141 0.0
3.999999999995553 5.999999999997558 0.0
3.999999999995869 6.999999999996973 0.0
3.999999999996187 7.999999999996401 0.0
3.999999999996505 8.999999999996648 0.0
3.999999999996822 9.999999999996955 0.0
3.99999999999714 10.99999999999726 0.0
3.999999999997456 11.99999999999756 0.0
3.999999999997774 12.99999999999786 0.0
3.999999999998092 13.99999999999817 0.0
3.999999999998409 14.99999999999847 0.0
3.999999999998727 15.99999999999878 0.0
3.999999999999044 16.99999999999908 0.0
3.999999999999361 17.99999999999939 0.0
3.999999999999678 18.99999999999969 0.0
4.999999999991191 0.9999999999997755 0.0
4.999999999991652 1.999999999999592 0.0
4.999999999992117 2.999999999999143 0.0
4.999999999992581 3.99999999999841 0.0
4.999999999993044 4.99999999999768 0.0
4.999999999993507 5.999999999996948 0.0
4.999999999993971 6.999999999996218 0.0
4.999999999994435 7.999999999995502 0.0
4.999999999994898 8.999999999995817 0.0
4.999999999995362 9.999999999996195 0.0
4.999999999995826 10.99999999999658 0.0
4.999999999996289 11.99999999999696 0.0
4.999999999996753 12.99999999999733 0.0
4.999999999997216 13.99999999999771 0.0
4.99999999999768 14.99999999999809 0.0
4.999999999998142 15.99999999999848 0.0
4.999999999998607 16.99999999999886 0.0
4.999999999999069 17.99999999999923 0.0
4.999999999999532 18.99999999999962 0.0
5.999999999988415 0.9999999999997308 0.0
5.999999999989027 1.999999999999511 0.0
5.999999999989636 2.999999999998971 0.0
5.999999999990243 3.999999999998092 0.0
5.999999999990854 4.999999999997215 0.0
5.999999999991464 5.99999999999634 0.0
5.999999999992072 6.999999999995461 0.0
5.999999999992681 7.999999999994603 0.0
5.999999999993292 8.99999999999498 0.0
5.999999999993901 9.999999999995435 0.0
5.99999999999451 10.99999999999589 0.0
5.999999999995119 11.99999999999634 0.0
5.999999999995731 12.9999999999968 0.0
5.999999999996339 13.99999999999726 0.0
5.999999999996948 14.99999999999771 0.0
5.999999999997558 15.99999999999817 0.0
5.999999999998169 16.99999999999863 0.0
5.999999999998778 17.99999999999908 0.0
5.999999999999385 18.99999999999955 0.0
6.999999999985641 0.9999999999996855 0.0
6.999999999986395 1.99999999999943 0.0
6.999999999987152 2.9999999999988 0.0
6.999999999987908 3.999999999997774 0.0
6.999999999988663 4.999999999996753 0.0
6.999999999989418 5.999999999995731 0.0
6.999999999990174 6.999999999994707 0.0
6.99999999999093 7.999999999993706 0.0
6.999999999991685 8.999999999994142 0.0
6.99999999999244 9.999999999994674 0.0
6.999999999993195 10.99999999999521 0.0
6.999999999993952 11.99999999999574 0.0
6.999999999994706 12.99999999999627 0.0
6.999999999995461 13.9999999999968 0.0
6.999999999996219 14.99999999999733 0.0
6.999999999996972 15.99999999999787 0.0
6.999999999997728 16.9999999999984 0.0
6.999999999998485 17.99999999999894 0.0
6.999999999999239 18.99999999999947 0.0
7.999999999982932 0.999999999999641 0.0
7.999999999983829 1.999999999999349 0.0
7.999999999984725 2.999999999998627 0.0
7.999999999985626 3.999999999997457 0.0
7.999999999986523 4.999999999996289 0.0
7.99999999998742 5.999999999995119 0.0
7.999999999988319 6.999999999993952 0.0
7.999999999989218 7.99999999999281 0.0
7.999999999990116 8.99999999999331 0.0
7.999999999991013 9.999999999993914 0.0
7.99999999999191 10.99999999999453 0.0
7.99999999999281 11.99999999999513 0.0
7.999999999993705 12.99999999999574 0.0
7.999999999994604 13.99999999999634 0.0
7.999999999995502 14.99999999999696 0.0
7.999999999996402 15.99999999999757 0.0
7.999999999997299 16.99999999999818 0.0
7.999999999998197 17.99999999999878 0.0
7.999999999999095 18.9999999999994 0.0
8.999999999984112 0.9999999999995959 0.0
8.99999999998495 1.999999999999268 0.0
8.999999999985786 2.999999999998457 0.0
8.999999999986622 3.99999999999714 0.0
8.999999999987454 4.999999999995826 0.0
8.999999999988294 5.999999999994511 0.0
8.999999999989129 6.999999999993195 0.0
8.999999999989964 7.99999999999191 0.0
8.999999999990802 8.999999999992472 0.0
8.999999999991637 9.999999999993154 0.0
8.999999999992472 10.99999999999384 0.0
8.99999999999331 11.99999999999452 0.0
8.999999999994142 12.99999999999521 0.0
8.99999999999498 13.99999999999589 0.0
8.999999999995815 14.99999999999658 0.0
8.99999999999665 15.99999999999726 0.0
8.999999999997488 16.99999999999795 0.0
8.999999999998323 17.99999999999862 0.0
8.999999999999158 18.99999999999932 0.0
9.999999999985562 0.9999999999995508 0.0
9.999999999986315 1.999999999999187 0.0
9.999999999987079 2.999999999998284 0.0
9.999999999987839 3.999999999996822 0.0
9.9999999999886 4.999999999995362 0.0
9.999999999989356 5.999999999993901 0.0
9.999999999990116 6.99999999999244 0.0
9.999999999990877 7.999999999991012 0.0
9.999999999991637 8.999999999991637 0.0
9.999999999992394 9.999999999992394 0.0
9.999999999993154 10.99999999999316 0.0
9.999999999993914 11.99999999999391 0.0
9.999999999994674 12.99999999999467 0.0
9.999999999995435 13.99999999999543 0.0
9.999999999996195 14.9999999999962 0.0
9.999999999996955 15.99999999999696 0.0
9.999999999997716 16.99999999999772 0.0
9.999999999998476 17.99999999999848 0.0
9.999999999999233 18.99999999999924 0.0
10.999999999987 0.9999999999995061 0.0
10.99999999998769 1.999999999999106 0.0
10.99999999998837 2.999999999998113 0.0
10.99999999998906 3.999999999996505 0.0
10.99999999998974 4.999999999994898 0.0
10.99999999999042 5.999999999993292 0.0
10.99999999999111 6.999999999991685 0.0
10.99999999999179 7.999999999990116 0.0
10.99999999999247 8.999999999990802 0.0
10.99999999999315 9.999999999991637 0.0
10.99999999999384 10.99999999999247 0.0
10.99999999999452 11.99999999999331 0.0
10.99999999999521 12.99999999999414 0.0
10.99999999999589 13.99999999999498 0.0
10.99999999999658 14.99999999999581 0.0
10.99999999999726 15.99999999999665 0.0
10.99999999999794 16.99999999999748 0.0
10.99999999999863 17.99999999999832 0.0
10.99999999999931 18.99999999999916 0.0
11.99999999998845 0.9999999999994611 0.0
11.99999999998906 1.999999999999025 0.0
11.99999999998966 2.999999999997942 0.0
11.99999999999027 3.999999999996188 0.0
11.99999999999088 4.999999999994435 0.0
11.99999999999148 5.999999999992681 0.0
11.99999999999209 6.999999999990928 0.0
11.9999999999927 7.999999999989218 0.0
11.99999999999331 8.999999999989964 0.0
11.99999999999391 9.999999999990877 0.0
11.99999999999453 10.99999999999179 0.0
11.99999999999513 11.9999999999927 0.0
11.99999999999574 12.99999999999361 0.0
11.99999999999634 13.99999999999452 0.0
11.99999999999696 14.99999999999544 0.0
11.99999999999756 15.99999999999635 0.0
11.99999999999817 16.99999999999726 0.0
11.99999999999878 17.99999999999817 0.0
11.99999999999939 18.99999999999908 0.0
12.99999999998989 0.9999999999994165 0.0
12.99999999999042 1.999999999998944 0.0
12.99999999999096 2.99999999999777 0.0
12.99999999999148 3.99999999999587 0.0
12.99999999999202 4.999999999993971 0.0
12.99999999999255 5.999999999992071 0.0
12.99999999999308 6.999999999990173 0.0
12.99999999999361 7.999999999988319 0.0
12.99999999999415 8.999999999989129 0.0
12.99999999999467 9.999999999990116 0.0
12.99999999999521 10.99999999999111 0.0
12.99999999999574 11.99999999999209 0.0
12.99999999999627 12.99999999999308 0.0
12.9999999999968 13.99999999999407 0.0
12.99999999999733 14.99999999999506 0.0
12.99999999999787 15.99999999999605 0.0
12.9999999999984 16.99999999999703 0.0
12.99999999999893 17.99999999999802 0.0
12.99999999999946 18.99999999999901 0.0
13.99999999999133 0.9999999999993715 0.0
13.99999999999178 1.999999999998863 0.0
13.99999999999225 2.999999999997599 0.0
13.9999999999927 3.999999999995553 0.0
13.99999999999315 4.999999999993509 0.0
13.99999999999361 5.999999999991465 0.0
13.99999999999406 6.999999999989418 0.0
13.99999999999452 7.999999999987421 0.0
13.99999999999498 8.999999999988294 0.0
13.99999999999543 9.999999999989356 0.0
13.99999999999589 10.99999999999042 0.0
13.99999999999635 11.99999999999148 0.0
13.9999999999968 12.99999999999255 0.0
13.99999999999726 13.99999999999361 0.0
13.99999999999771 14.99999999999467 0.0
13.99999999999817 15.99999999999574 0.0
13.99999999999862 16.9999999999968 0.0
13.99999999999908 17.99999999999787 0.0
13.99999999999953 18.99999999999893 0.0
14.99999999999278 0.9999999999993265 0.0
14.99999999999316 1.999999999998782 0.0
14.99999999999354 2.999999999997427 0.0
14.99999999999392 3.999999999995236 0.0
14.9999999999943 4.999999999993044 0.0
14.99999999999468 5.999999999990852 0.0
14.99999999999505 6.999999999988662 0.0
14.99999999999543 7.999999999986523 0.0
14.99999999999581 8.999999999987455 0.0
14.9999999999962 9.9999999999886 0.0
14.99999999999658 10.99999999998974 0.0
14.99999999999696 11.99999999999088 0.0
14.99999999999733 12.99999999999202 0.0
14.99999999999772 13.99999999999315 0.0
14.99999999999809 14.9999999999943 0.0
14.99999999999847 15.99999999999544 0.0
14.99999999999886 16.99999999999658 0.0
14.99999999999923 17.99999999999771 0.0
14.99999999999961 18.99999999999886 0.0
15.99999999999423 0.9999999999992817 0.0
15.99999999999453 1.999999999998701 0.0
15.99999999999483 2.999999999997256 0.0
15.99999999999513 3.999999999994917 0.0
15.99999999999544 4.999999999992582 0.0
15.99999999999574 5.999999999990245 0.0
15.99999999999605 6.999999999987907 0.0
15.99999999999635 7.999999999985627 0.0
15.99999999999665 8.99999999998662 0.0
15.99999999999696 9.999999999987839 0.0
15.99999999999726 10.99999999998905 0.0
15.99999999999757 11.99999999999027 0.0
15.99999999999787 12.99999999999149 0.0
15.99999999999817 13.9999999999927 0.0
15.99999999999848 14.99999999999392 0.0
15.99999999999878 15.99999999999514 0.0
15.99999999999908 16.99999999999634 0.0
15.99999999999939 17.99999999999757 0.0
15.99999999999969 18.99999999999878 0.0
16.99999999999567 0.9999999999992367 0.0
16.99999999999589 1.99999999999862 0.0
16.99999999999612 2.999999999997084 0.0
16.99999999999635 3.999999999994599 0.0
16.99999999999658 4.999999999992117 0.0
16.99999999999681 5.999999999989635 0.0
16.99999999999703 6.999999999987152 0.0
16.99999999999726 7.999999999984728 0.0
16.99999999999748 8.999999999985786 0.0
16.99999999999771 9.999999999987079 0.0
16.99999999999795 10.99999999998837 0.0
16.99999999999817 11.99999999998966 0.0
16.9999999999984 12.99999999999095 0.0
16.99999999999862 13.99999999999224 0.0
16.99999999999885 14.99999999999354 0.0
16.99999999999908 15.99999999999483 0.0
16.99999999999931 16.99999999999611 0.0
16.99999999999954 17.99999999999741 0.0
16.99999999999977 18.99999999999871 0.0
17.9999999999971 0.9999999999991919 0.0
17.99999999999726 1.999999999998539 0.0
17.99999999999742 2.999999999996913 0.0
17.99999999999756 3.999999999994282 0.0
17.99999999999771 4.999999999991655 0.0
17.99999999999787 5.999999999989024 0.0
17.99999999999802 6.999999999986395 0.0
17.99999999999817 7.999999999983828 0.0
17.99999999999832 8.999999999984947 0.0
17.99999999999847 9.999999999986318 0.0
17.99999999999863 10.99999999998769 0.0
17.99999999999878 11.99999999998906 0.0
17.99999999999893 12.99999999999042 0.0
17.99999999999909 13.99999999999179 0.0
17.99999999999923 14.99999999999316 0.0
17.99999999999939 15.99999999999453 0.0
17.99999999999954 16.99999999999589 0.0
17.99999999999969 17.99999999999726 0.0
17.99999999999984 18.99999999999863 0.0
18.99999999999856 0.9999999999991468 0.0
18.99999999999863 1.999999999998458 0.0
18.99999999999871 2.999999999996741 0.0
18.99999999999878 3.999999999993965 0.0
18.99999999999886 4.99999999999119 0.0
18.99999999999893 5.999999999988415 0.0
18.99999999999901 6.999999999985643 0.0
18.99999999999909 7.999999999982932 0.0
18.99999999999917 8.999999999984116 0.0
18.99999999999924 9.999999999985558 0.0
18.99999999999932 10.999999999987 0.0
18.9999999999994 11.99999999998845 0.0
18.99999999999947 12.99999999998989 0.0
18.99999999999954 13.99999999999133 0.0
18.99999999999962 14.99999999999278 0.0
18.99999999999969 15.99999999999423 0.0
18.99999999999977 16.99999999999566 0.0
18.99999999999985 17.99999999999711 0.0
18.99999999999992 18.99999999999856 0.0
0.999999999999147 0.999999999999955 0.1
0.9999999999991918 1.999999999999916 0.1
0.9999999999992367 2.999999999999829 0.1
0.9999999999992815 3.999999999999678 0.1
0.9999999999993263 4.999999999999535 0.1
0.9999999999993713 5.999999999999385 0.1
0.9999999999994164 6.999999999999237 0.1
0.9999999999994611 7.999999999999095 0.1
0.9999999999995062 8.999999999999158 0.1
0.999999999999551 9.999999999999236 0.1
0.999999999999596 10.99999999999931 0.1
0.9999999999996407 11.99999999999939 0.1
0.9999999999996858 12.99999999999946 0.1
0.9999999999997308 13.99999999999953 0.1
0.9999999999997753 14.99999999999961 0.1
0.9999999999998204 15.99999999999969 0.1
0.9999999999998653 16.99999999999977 0.1
0.9999999999999102 17.99999999999985 0.1
0.999999999999955 18.99999999999992 0.1
1.999999999998458 0.9999999999999103 0.1
1.999999999998539 1.999999999999834 0.1
1.999999999998621 2.999999999999657 0.1
1.999999999998701 3.999999999999361 0.1
1.999999999998782 4.999999999999068 0.1
1.999999999998863 5.999999999998779 0.1
1.999999999998944 6.999999999998483 0.1
1.999999999999025 7.999999999998196 0.1
1.999999999999106 8.99999999999832 0.1
1.999999999999187 9.999999999998472 0.1
1.999999999999268 10.99999999999863 0.1
1.999999999999349 11.99999999999878 0.1
1.99999999999943 12.99999999999893 0.1
1.999999999999511 13.99999999999907 0.1
1.999999999999592 14.99999999999923 0.1
1.999999999999672 15.99999999999939 0.1
1.999999999999754 16.99999999999954 0.1
1.999999999999834 17.99999999999969 0.1
1.999999999999915 18.99999999999985 0.1
2.999999999996741 0.9999999999998653 0.1
2.999999999996913 1.999999999999754 0.1
2.999999999997084 2.999999999999486 0.1
2.999999999997256 3.999999999999044 0.1
2.999999999997427 4.999999999998607 0.1
2.999999999997598 5.999999999998168 0.1
2.99999999999777 6.999999999997728 0.1
2.999999999997941 7.999999999997296 0.1
2.999999999998114 8.999999999997488 0.1
2.999999999998284 9.999999999997716 0.1
2.999999999998456 10.99999999999794 0.1
2.999999999998628 11.99999999999817 0.1
2.999999999998799 12.9999999999984 0.1
2.999999999998971 13.99999999999862 0.1
2.999999999999142 14.99999999999885 0.1
2.999999999999313 15.99999999999908 0.1
2.999999999999485 16.99999999999931 0.1
2.999999999999657 17.99999999999953 0.1
2.999999999999828 18.99999999999977 0.1
3.999999999993964 0.9999999999998204 0.1
3.999999999994283 1.999999999999672 0.1
3.9999999999946 2.999999999999314 0.1
3.999999999994917 3.999999999998726 0.1
3.999999999995235 4.999999999998141 0.1
3.999999999995553 5.999999999997558 0.1
3.999999999995869 6.999999999996973 0.1
3.999999999996187 7.999999999996401 0.1
3.999999999996505 8.999999999996648 0.1
3.999999999996822 9.999999999996955 0.1
3.99999999999714 10.99999999999726 0.1
3.999999999997456 11.99999999999756 0.1
3.999999999997774 12.99999999999786 0.1
3.999999999998092 13.99999999999817 0.1
3.999999999998409 14.99999999999847 0.1
3.999999999998727 15.99999999999878 0.1
3.999999999999044 16.99999999999908 0.1
3.999999999999361 17.99999999999939 0.1
3.999999999999678 18.99999999999969 0.1
4.999999999991191 0.9999999999997755 0.1
4.999999999991652 1.999999999999592 0.1
4.999999999992117 2.999999999999143 0.1
4.999999999992581 3.99999999999841 0.1
4.999999999993044 4.99999999999768 0.1
4.999999999993507 5.999999999996948 0.1
4.999999999993971 6.999999999996218 0.1
4.999999999994435 7.999999999995502 0.1
4.999999999994898 8.999999999995817 0.1
4.999999999995362 9.999999999996195 0.1
4.999999999995826 10.99999999999658 0.1
4.999999999996289 11.99999999999696 0.1
4.999999999996753 12.99999999999733 0.1
4.999999999997216 13.99999999999771 0.1
4.99999999999768 14.99999999999809 0.1
4.999999999998142 15.99999999999848 0.1
4.999999999998607 16.99999999999886 0.1
4.999999999999069 17.99999999999923 0.1
4.999999999999532 18.99999999999962 0.1
5.999999999988415 0.9999999999997308 0.1
5.999999999989027 1.999999999999511 0.1
5.999999999989636 2.999999999998971 0.1
5.999999999990243 3.999999999998092 0.1
5.999999999990854 4.999999999997215 0.1
5.999999999991464 5.99999999999634 0.1
5.999999999992072 6.999999999995461 0.1
5.999999999992681 7.999999999994603 0.1
5.999999999993292 8.99999999999498 0.1
5.999999999993901 9.999999999995435 0.1
5.99999999999451 10.99999999999589 0.1
5.999999999995119 11.99999999999634 0.1
5.999999999995731 12.9999999999968 0.1
5.999999999996339 13.99999999999726 0.1
5.999999999996948 14.99999999999771 0.1
5.999999999997558 15.99999999999817 0.1
5.999999999998169 16.99999999999863 0.1
5.999999999998778 17.99999999999908 0.1
5.999999999999385 18.99999999999955 0.1
6.999999999985641 0.9999999999996855 0.1
6.999999999986395 1.99999999999943 0.1
6.999999999987152 2.9999999999988 0.1
6.999999999987908 3.999999999997774 0.1
6.999999999988663 4.999999999996753 0.1
6.999999999989418 5.999999999995731 0.1
6.999999999990174 6.999999999994707 0.1
6.99999999999093 7.999999999993706 0.1
6.999999999991685 8.999999999994142 0.1
6.99999999999244 9.999999999994674 0.1
6.999999999993195 10.99999999999521 0.1
6.999999999993952 11.99999999999574 0.1
6.999999999994706 12.99999999999627 0.1
6.999999999995461 13.9999999999968 0.1
6.999999999996219 14.99999999999733 0.1
6.999999999996972 15.99999999999787 0.1
6.999999999997728 16.9999999999984 0.1
6.999999999998485 17.99999999999894 0.1
6.999999999999239 18.99999999999947 0.1
7.999999999982932 0.999999999999641 0.1
7.999999999983829 1.999999999999349 0.1
7.999999999984725 2.999999999998627 0.1
7.999999999985626 3.999999999997457 0.1
7.999999999986523 4.999999999996289 0.1
7.99999999998742 5.999999999995119 0.1
7.999999999988319 6.999999999993952 0.1
7.999999999989218 7.99999999999281 0.1
7.999999999990116 8.99999999999331 0.1
7.999999999991013 9.999999999993914 0.1
7.99999999999191 10.99999999999453 0.1
7.99999999999281 11.99999999999513 0.1
7.999999999993705 12.99999999999574 0.1
7.999999999994604 13.99999999999634 0.1
7.999999999995502 14.99999999999696 0.1
7.999999999996402 15.99999999999757 0.1
7.999999999997299 16.99999999999818 0.1
7.999999999998197 17.99999999999878 0.1
7.999999999999095 18.9999999999994 0.1
8.999999999984112 0.9999999999995959 0.1
8.99999999998495 1.999999999999268 0.1
8.999999999985786 2.999999999998457 0.1
8.999999999986622 3.99999999999714 0.1
8.999999999987454 4.999999999995826 0.1
8.999999999988294 5.999999999994511 0.1
8.999999999989129 6.999999999993195 0.1
8.999999999989964 7.99999999999191 0.1
8.999999999990802 8.999999999992472 0.1
8.999999999991637 9.999999999993154 0.1
8.999999999992472 10.99999999999384 0.1
8.99999999999331 11.99999999999452 0.1
8.999999999994142 12.99999999999521 0.1
8.99999999999498 13.99999999999589 0.1
8.999999999995815 14.99999999999658 0.1
8.99999999999665 15.99999999999726 0.1
8.999999999997488 16.99999999999795 0.1
8.999999999998323 17.99999999999862 0.1
8.999999999999158 18.99999999999932 0.1
9.999999999985562 0.9999999999995508 0.1
9.999999999986315 1.999999999999187 0.1
9.999999999987079 2.999999999998284 0.1
9.999999999987839 3.999999999996822 0.1
9.9999999999886 4.999999999995362 0.1
9.999999999989356 5.999999999993901 0.1
9.999999999990116 6.99999999999244 0.1
9.999999999990877 7.999999999991012 0.1
9.999999999991637 8.999999999991637 0.1
9.999999999992394 9.999999999992394 0.1
9.999999999993154 10.99999999999316 0.1
9.999999999993914 11.99999999999391 0.1
9.999999999994674 12.99999999999467 0.1
9.999999999995435 13.99999999999543 0.1
9.999999999996195 14.9999999999962 0.1
9.999999999996955 15.99999999999696 0.1
9.999999999997716 16.99999999999772 0.1
9.999999999998476 17.99999999999848 0.1
9.999999999999233 18.99999999999924 0.1
10.999999999987 0.9999999999995061 0.1
10.99999999998769 1.999999999999106 0.1
10.99999999998837 2.999999999998113 0.1
10.99999999998906 3.999999999996505 0.1
10.99999999998974 4.999999999994898 0.1
10.99999999999042 5.999999999993292 0.1
10.99999999999111 6.999999999991685 0.1
10.99999999999179 7.999999999990116 0.1
10.99999999999247 8.999999999990802 0.1
10.99999999999315 9.999999999991637 0.1
10.99999999999384 10.99999999999247 0.1
10.99999999999452 11.99999999999331 0.1
10.99999999999521 12.99999999999414 0.1
10.99999999999589 13.99999999999498 0.1
10.99999999999658 14.99999999999581 0.1
10.99999999999726 15.99999999999665 0.1
10.99999999999794 16.99999999999748 0.1
10.99999999999863 17.99999999999832 0.1
10.99999999999931 18.99999999999916 0.1
11.99999999998845 0.9999999999994611 0.1
11.99999999998906 1.999999999999025 0.1
11.99999999998966 2.999999999997942 0.1
11.99999999999027 3.999999999996188 0.1
11.99999999999088 4.999999999994435 0.1
11.99999999999148 5.999999999992681 0.1
11.99999999999209 6.999999999990928 0.1
11.9999999999927 7.999999999989218 0.1
11.99999999999331 8.999999999989964 0.1
11.99999999999391 9.999999999990877 0.1
11.99999999999453 10.99999999999179 0.1
11.99999999999513 11.9999999999927 0.1
11.99999999999574 12.99999999999361 0.1
11.99999999999634 13.99999999999452 0.1
11.99999999999696 14.99999999999544 0.1
11.99999999999756 15.99999999999635 0.1
11.99999999999817 16.99999999999726 0.1
11.99999999999878 17.99999999999817 0.1
11.99999999999939 18.99999999999908 0.1
12.99999999998989 0.9999999999994165 0.1
12.99999999999042 1.999999999998944 0.1
12.99999999999096 2.99999999999777 0.1
12.99999999999148 3.99999999999587 0.1
12.99999999999202 4.999999999993971 0.1
12.99999999999255 5.999999999992071 0.1
12.99999999999308 6.999999999990173 0.1
12.99999999999361 7.999999999988319 0.1
12.99999999999415 8.999999999989129 0.1
12.99999999999467 9.999999999990116 0.1
12.99999999999521 10.99999999999111 0.1
12.99999999999574 11.99999999999209 0.1
12.99999999999627 12.99999999999308 0.1
12.9999999999968 13.99999999999407 0.1
12.99999999999733 14.99999999999506 0.1
12.99999999999787 15.99999999999605 0.1
12.9999999999984 16.99999999999703 0.1
12.99999999999893 17.99999999999802 0.1
12.99999999999946 18.99999999999901 0.1
13.99999999999133 0.9999999999993715 0.1
13.99999999999178 1.999999999998863 0.1
13.99999999999225 2.999999999997599 0.1
13.9999999999927 3.999999999995553 0.1
13.99999999999315 4.999999999993509 0.1
13.99999999999361 5.999999999991465 0.1
13.99999999999406 6.999999999989418 0.1
13.99999999999452 7.999999999987421 0.1
13.99999999999498 8.999999999988294 0.1
13.99999999999543 9.999999999989356 0.1
13.99999999999589 10.99999999999042 0.1
13.99999999999635 11.99999999999148 0.1
13.9999999999968 12.99999999999255 0.1
13.99999999999726 13.99999999999361 0.1
13.99999999999771 14.99999999999467 0.1
13.99999999999817 15.99999999999574 0.1
13.99999999999862 16.9999999999968 0.1
13.99999999999908 17.99999999999787 0.1
13.99999999999953 18.99999999999893 0.1
14.99999999999278 0.9999999999993265 0.1
14.99999999999316 1.999999999998782 0.1
14.99999999999354 2.999999999997427 0.1
14.99999999999392 3.999999999995236 0.1
14.9999999999943 4.999999999993044 0.1
14.99999999999468 5.999999999990852 0.1
14.99999999999505 6.999999999988662 0.1
14.99999999999543 7.999999999986523 0.1
14.99999999999581 8.999999999987455 0.1
14.9999999999962 9.9999999999886 0.1
14.99999999999658 10.99999999998974 0.1
14.99999999999696 11.99999999999088 0.1
14.99999999999733 12.99999999999202 0.1
14.99999999999772 13.99999999999315 0.1
14.99999999999809 14.9999999999943 0.1
14.99999999999847 15.99999999999544 0.1
14.99999999999886 16.99999999999658 0.1
14.99999999999923 17.99999999999771 0.1
14.99999999999961 18.99999999999886 0.1
15.99999999999423 0.9999999999992817 0.1
15.99999999999453 1.999999999998701 0.1
15.99999999999483 2.999999999997256 0.1
15.99999999999513 3.999999999994917 0.1
15.99999999999544 4.999999999992582 0.1
15.99999999999574 5.999999999990245 0.1
15.99999999999605 6.999999999987907 0.1
15.99999999999635 7.999999999985627 0.1
15.99999999999665 8.99999999998662 0.1
15.99999999999696 9.999999999987839 0.1
15.99999999999726 10.99999999998905 0.1
15.99999999999757 11.99999999999027 0.1
15.99999999999787 12.99999999999149 0.1
15.99999999999817 13.9999999999927 0.1
15.99999999999848 14.99999999999392 0.1
15.99999999999878 15.99999999999514 0.1
15.99999999999908 16.99999999999634 0.1
15.99999999999939 17.99999999999757 0.1
15.99999999999969 18.99999999999878 0.1
16.99999999999567 0.9999999999992367 0.1
16.99999999999589 1.99999999999862 0.1
16.99999999999612 2.999999999997084 0.1
16.99999999999635 3.999999999994599 0.1
16.99999999999658 4.999999999992117 0.1
16.99999999999681 5.999999999989635 0.1
16.99999999999703 6.999999999987152 0.1
16.99999999999726 7.999999999984728 0.1
16.99999999999748 8.999999999985786 0.1
16.99999999999771 9.999999999987079 0.1
16.99999999999795 10.99999999998837 0.1
16.99999999999817 11.99999999998966 0.1
16.9999999999984 12.99999999999095 0.1
16.99999999999862 13.99999999999224 0.1
16.99999999999885 14.99999999999354 0.1
16.99999999999908 15.99999999999483 0.1
16.99999999999931 16.99999999999611 0.1
16.99999999999954 17.99999999999741 0.1
16.99999999999977 18.99999999999871 0.1
17.9999999999971 0.9999999999991919 0.1
17.99999999999726 1.999999999998539 0.1
17.99999999999742 2.999999999996913 0.1
17.99999999999756 3.999999999994282 0.1
17.99999999999771 4.999999999991655 0.1
17.99999999999787 5.999999999989024 0.1
17.99999999999802 6.999999999986395 0.1
17.99999999999817 7.999999999983828 0.1
17.99999999999832 8.999999999984947 0.1
17.99999999999847 9.999999999986318 0.1
17.99999999999863 10.99999999998769 0.1
17.99999999999878 11.99999999998906 0.1
17.99999999999893 12.99999999999042 0.1
17.99999999999909 13.99999999999179 0.1
17.99999999999923 14.99999999999316 0.1
17.99999999999939 15.99999999999453 0.1
17.99999999999954 16.99999999999589 0.1
17.99999999999969 17.99999999999726 0.1
17.99999999999984 18.99999999999863 0.1
18.99999999999856 0.9999999999991468 0.1
18.99999999999863 1.999999999998458 0.1
18.99999999999871 2.999999999996741 0.1
18.99999999999878 3.999999999993965 0.1
18.99999999999886 4.99999999999119 0.1
18.99999999999893 5.999999999988415 0.1
18.99999999999901 6.999999999985643 0.1
18.99999999999909 7.999999999982932 0.1
18.99999999999917 8.999999999984116 0.1
18.99999999999924 9.999999999985558 0.1
18.99999999999932 10.999999999987 0.1
18.9999999999994 11.99999999998845 0.1
18.99999999999947 12.99999999998989 0.1
18.99999999999954 13.99999999999133 0.1
18.99999999999962 14.99999999999278 0.1
18.99999999999969 15.99999999999423 0.1
18.99999999999977 16.99999999999566 0.1
18.99999999999985 17.99999999999711 0.1
18.99999999999992 18.99999999999856 0.1
0.9999999999991023 0.0 0.02499999999994167
0.999999999999102 0.0 0.04999999999986855
0.9999999999991022 0.0 0.0749999999999336
1.999999999998378 0.0 0.02499999999994166
1.999999999998378 0.0 0.04999999999986855
1.999999999998378 0.0 0.07499999999993363
2.999999999996569 0.0 0.02499999999994166
2.999999999996569 0.0 0.04999999999986856
2.999999999996569 0.0 0.07499999999993359
3.999999999993649 0.0 0.02499999999994167
3.999999999993648 0.0 0.04999999999986855
3.999999999993649 0.0 0.0749999999999336
4.999999999990727 0.0 0.02499999999994167
4.999999999990727 0.0 0.04999999999986855
4.999999999990727 0.0 0.07499999999993362
5.999999999987808 0.0 0.02499999999994167
5.999999999987806 0.0 0.04999999999986855
5.999999999987805 0.0 0.0749999999999336
6.999999999984885 0.0 0.02499999999994167
6.999999999984885 0.0 0.04999999999986855
6.999999999984885 0.0 0.0749999999999336
7.999999999982036 0.0 0.02499999999994167
7.999999999982034 0.0 0.04999999999986855
7.999999999982035 0.0 0.07499999999993359
8.999999999983277 0.0 0.02499999999994167
8.999999999983277 0.0 0.04999999999986855
8.999999999983277 0.0 0.07499999999993362
9.999999999984798 0.0 0.02499999999994167
9.999999999984798 0.0 0.04999999999986855
9.999999999984798 0.0 0.07499999999993359
10.99999999998632 0.0 0.02499999999994167
10.99999999998632 0.0 0.04999999999986855
10.99999999998632 0.0 0.07499999999993362
11.99999999998784 0.0 0.02499999999994167
11.99999999998784 0.0 0.04999999999986855
11.99999999998784 0.0 0.07499999999993362
12.99999999998936 0.0 0.02499999999994167
12.99999999998936 0.0 0.04999999999986855
12.99999999998935 0.0 0.0749999999999336
13.99999999999087 0.0 0.02499999999994167
13.99999999999088 0.0 0.04999999999986855
13.99999999999088 0.0 0.0749999999999336
14.9999999999924 0.0 0.02499999999994167
14.9999999999924 0.0 0.04999999999986855
14.9999999999924 0.0 0.07499999999993362
15.99999999999392 0.0 0.02499999999994167
15.99999999999392 0.0 0.04999999999986855
15.99999999999392 0.0 0.07499999999993362
16.99999999999544 0.0 0.02499999999994167
16.99999999999544 0.0 0.04999999999986855
16.99999999999544 0.0 0.0749999999999336
17.99999999999696 0.0 0.02499999999994166
17.99999999999696 0.0 0.04999999999986855
17.99999999999696 0.0 0.07499999999993362
18.99999999999848 0.0 0.02499999999994167
18.99999999999848 0.0 0.04999999999986855
18.99999999999848 0.0 0.0749999999999336
20.0 0.9999999999991023 0.02499999999994167
20.0 0.999999999999102 0.04999999999986855
20.0 0.9999999999991022 0.0749999999999336
20.0 1.999999999998378 0.02499999999994166
20.0 1.999999999998378 0.04999999999986855
20.0 1.999999999998378 0.07499999999993363
20.0 2.999999999996569 0.02499999999994166
20.0 2.999999999996569 0.04999999999986856
20.0 2.999999999996569 0.07499999999993359
20.0 3.999999999993649 0.02499999999994167
20.0 3.999999999993648 0.04999999999986855
20.0 3.999999999993649 0.0749999999999336
20.0 4.999999999990727 0.02499999999994167
20.0 4.999999999990727 0.04999999999986855
20.0 4.999999999990727 0.07499999999993362
20.0 5.999999999987808 0.02499999999994167
20.0 5.999999999987806 0.04999999999986855
20.0 5.999999999987805 0.0749999999999336
20.0 6.999999999984885 0.02499999999994167
20.0 6.999999999984885 0.04999999999986855
20.0 6.999999999984885 0.0749999999999336
20.0 7.999999999982036 0.02499999999994167
20.0 7.999999999982034 0.04999999999986855
20.0 7.999999999982035 0.07499999999993359
20.0 8.999999999983277 0.02499999999994167
20.0 8.999999999983277 0.04999999999986855
20.0 8.999999999983277 0.07499999999993362
20.0 9.999999999984798 0.02499999999994167
20.0 9.999999999984798 0.04999999999986855
20.0 9.999999999984798 0.07499999999993359
20.0 10.99999999998632 0.02499999999994167
20.0 10.99999999998632 0.04999999999986855
20.0 10.99999999998632 0.07499999999993362
20.0 11.99999999998784 0.02499999999994167
20.0 11.99999999998784 0.04999999999986855
20.0 11.99999999998784 0.07499999999993362
20.0 12.99999999998936 0.02499999999994167
20.0 12.99999999998936 0.04999999999986855
20.0 12.99999999998935 0.0749999999999336
20.0 13.99999999999087 0.02499999999994167
20.0 13.99999999999088 0.04999999999986855
20.0 13.99999999999088 0.0749999999999336
20.0 14.9999999999924 0.02499999999994167
20.0 14.9999999999924 0.04999999999986855
20.0 14.9999999999924 0.07499999999993362
20.0 15.99999999999392 0.02499999999994167
20.0 15.99999999999392 0.04999999999986855
20.0 15.99999999999392 0.07499999999993362
20.0 16.99999999999544 0.02499999999994167
20.0 16.99999999999544 0.04999999999986855
20.0 16.99999999999544 0.0749999999999336
20.0 17.99999999999696 0.02499999999994166
20.0 17.99999999999696 0.04999999999986855
20.0 17.99999999999696 0.07499999999993362
20.0 18.99999999999848 0.02499999999994167
20.0 18.99999999999848 0.04999999999986855
20.0 18.99999999999848 0.0749999999999336
19.0 20.0 0.02499999999994167
19.0 20.0 0.04999999999986855
19.0 20.0 0.0749999999999336
18.0 20.0 0.02499999999994167
18.0 20.0 0.04999999999986855
18.0 20.0 0.07499999999993362
17.0 20.0 0.02499999999994166
17.0 20.0 0.04999999999986855
17.0 20.0 0.07499999999993362
15.99999999999999 20.0 0.02499999999994167
15.99999999999999 20.0 0.04999999999986855
15.99999999999999 20.0 0.07499999999993359
14.99999999999999 20.0 0.02499999999994167
14.99999999999999 20.0 0.04999999999986855
14.99999999999999 20.0 0.0749999999999336
13.99999999999999 20.0 0.02499999999994166
13.99999999999999 20.0 0.04999999999986855
13.99999999999999 20.0 0.0749999999999336
12.99999999999999 20.0 0.02499999999994167
12.99999999999999 20.0 0.04999999999986855
12.99999999999999 20.0 0.07499999999993362
11.99999999999999 20.0 0.02499999999994167
11.99999999999999 20.0 0.04999999999986855
12.0 20.0 0.0749999999999336
10.99999999999999 20.0 0.02499999999994167
10.99999999999999 20.0 0.04999999999986855
10.99999999999999 20.0 0.07499999999993362
9.999999999999993 20.0 0.02499999999994167
9.999999999999993 20.0 0.04999999999986855
9.999999999999991 20.0 0.07499999999993362
8.999999999999995 20.0 0.02499999999994166
8.999999999999995 20.0 0.04999999999986855
8.999999999999995 20.0 0.0749999999999336
7.999999999999993 20.0 0.02499999999994167
7.999999999999993 20.0 0.04999999999986855
7.999999999999992 20.0 0.07499999999993362
6.999999999999995 20.0 0.02499999999994167
6.999999999999995 20.0 0.04999999999986855
6.999999999999994 20.0 0.07499999999993362
5.999999999999995 20.0 0.02499999999994167
5.999999999999996 20.0 0.04999999999986855
5.999999999999996 20.0 0.07499999999993362
4.999999999999997 20.0 0.02499999999994167
4.999999999999997 20.0 0.04999999999986855
4.999999999999997 20.0 0.0749999999999336
3.999999999999996 20.0 0.02499999999994167
3.999999999999996 20.0 0.04999999999986855
3.999999999999996 20.0 0.07499999999993362
3.0 20.0 0.02499999999994166
3.0 20.0 0.04999999999986855
3.0 20.0 0.0749999999999336
1.999999999999996 20.0 0.02499999999994166
1.999999999999996 20.0 0.04999999999986855
1.999999999999996 20.0 0.0749999999999336
1.0 20.0 0.02499999999994167
1.0 20.0 0.04999999999986855
1.0 20.0 0.0749999999999336
0.0 19.0 0.02499999999994167
0.0 19.0 0.04999999999986855
0.0 19.0 0.0749999999999336
0.0 18.0 0.02499999999994167
0.0 18.0 0.04999999999986855
0.0 18.0 0.07499999999993362
0.0 17.0 0.02499999999994166
0.0 17.0 0.04999999999986855
0.0 17.0 0.07499999999993362
0.0 15.99999999999999 0.02499999999994167
0.0 15.99999999999999 0.04999999999986855
0.0 15.99999999999999 0.07499999999993359
0.0 14.99999999999999 0.02499999999994167
0.0 14.99999999999999 0.04999999999986855
0.0 14.99999999999999 0.0749999999999336
0.0 13.99999999999999 0.02499999999994166
0.0 13.99999999999999 0.04999999999986855
0.0 13.99999999999999 0.0749999999999336
0.0 12.99999999999999 0.02499999999994167
0.0 12.99999999999999 0.04999999999986855
0.0 12.99999999999999 0.07499999999993362
0.0 11.99999999999999 0.02499999999994167
0.0 11.99999999999999 0.04999999999986855
0.0 12.0 0.0749999999999336
0.0 10.99999999999999 0.02499999999994167
0.0 10.99999999999999 0.04999999999986855
0.0 10.99999999999999 0.07499999999993362
0.0 9.999999999999993 0.02499999999994167
0.0 9.999999999999993 0.04999999999986855
0.0 9.999999999999991 0.07499999999993362
0.0 8.999999999999995 0.02499999999994166
0.0 8.999999999999995 0.04999999999986855
0.0 8.999999999999995 0.0749999999999336
0.0 7.999999999999993 0.02499999999994167
0.0 7.999999999999993 0.04999999999986855
0.0 7.999999999999992 0.07499999999993362
0.0 6.999999999999995 0.02499999999994167
0.0 6.999999999999995 0.04999999999986855
0.0 6.999999999999994 0.07499999999993362
0.0 5.999999999999995 0.02499999999994167
0.0 5.999999999999996 0.04999999999986855
0.0 5.999999999999996 0.07499999999993362
0.0 4.999999999999997 0.02499999999994167
0.0 4.999999999999997 0.04999999999986855
0.0 4.999999999999997 0.0749999999999336
0.0 3.999999999999996 0.02499999999994167
0.0 3.999999999999996 0.04999999999986855
0.0 3.999999999999996 0.07499999999993362
0.0 3.0 0.02499999999994166
0.0 3.0 0.04999999999986855
0.0 3.0 0.0749999999999336
0.0 1.999999999999996 0.02499999999994166
0.0 1.999999999999996 0.04999999999986855
0.0 1.999999999999996 0.0749999999999336
0.0 1.0 0.02499999999994167
0.0 1.0 0.04999999999986855
0.0 1.0 0.0749999999999336
0.999999999999147 0.9999999999999549 0.02499999999994167
0.9999999999991472 0.9999999999999547 0.04999999999986856
0.9999999999991471 0.9999999999999551 0.07499999999993359
0.9999999999991922 1.999999999999916 0.02499999999994166
0.9999999999991918 1.999999999999915 0.04999999999986856
0.9999999999991923 1.999999999999917 0.07499999999993358
0.9999999999992372 2.999999999999829 0.02499999999994165
0.9999999999992369 2.999999999999829 0.04999999999986857
0.9999999999992373 2.999999999999829 0.0749999999999336
0.9999999999992814 3.999999999999678 0.02499999999994167
0.9999999999992817 3.999999999999678 0.04999999999986857
0.9999999999992812 3.999999999999679 0.07499999999993358
0.9999999999993268 4.999999999999536 0.02499999999994167
0.9999999999993261 4.999999999999535 0.04999999999986858
0.9999999999993265 4.999999999999536 0.07499999999993365
0.9999999999993721 5.999999999999384 0.02499999999994167
0.999999999999371 5.999999999999384 0.04999999999986855
0.9999999999993712 5.999999999999384 0.07499999999993356
0.9999999999994169 6.999999999999238 0.02499999999994167
0.9999999999994167 6.999999999999238 0.04999999999986857
0.9999999999994169 6.999999999999235 0.07499999999993362
0.9999999999994611 7.999999999999095 0.02499999999994167
0.9999999999994608 7.999999999999093 0.04999999999986857
0.9999999999994615 7.999999999999097 0.07499999999993362
0.9999999999995065 8.999999999999158 0.02499999999994167
0.9999999999995062 8.999999999999162 0.04999999999986855
0.9999999999995064 8.999999999999156 0.07499999999993359
0.9999999999995516 9.999999999999236 0.02499999999994167
0.9999999999995511 9.999999999999236 0.04999999999986857
0.9999999999995511 9.999999999999233 0.07499999999993362
0.9999999999995965 10.99999999999931 0.02499999999994167
0.9999999999995959 10.9999999999993 0.04999999999986858
0.9999999999995959 10.99999999999931 0.07499999999993366
0.9999999999996407 11.99999999999938 0.02499999999994167
0.9999999999996405 11.99999999999939 0.04999999999986857
0.9999999999996407 11.99999999999939 0.07499999999993362
0.999999999999686 12.99999999999946 0.02499999999994167
0.9999999999996855 12.99999999999946 0.04999999999986857
0.999999999999686 12.99999999999947 0.07499999999993362
0.9999999999997311 13.99999999999953 0.02499999999994167
0.9999999999997308 13.99999999999954 0.04999999999986855
0.9999999999997307 13.99999999999953 0.07499999999993356
0.9999999999997757 14.99999999999962 0.02499999999994167
0.9999999999997751 14.99999999999962 0.04999999999986857
0.9999999999997753 14.99999999999962 0.07499999999993359
0.9999999999998207 15.99999999999969 0.02499999999994167
0.9999999999998208 15.99999999999969 0.04999999999986855
0.9999999999998209 15.99999999999969 0.07499999999993359
0.9999999999998656 16.99999999999977 0.02499999999994165
0.9999999999998651 16.99999999999978 0.04999999999986857
0.9999999999998651 16.99999999999978 0.07499999999993363
0.9999999999999105 17.99999999999985 0.02499999999994166
0.9999999999999103 17.99999999999984 0.04999999999986857
0.9999999999999105 17.99999999999985 0.07499999999993363
0.9999999999999548 18.99999999999993 0.02499999999994167
0.9999999999999547 18.99999999999994 0.04999999999986857
0.9999999999999551 18.99999999999993 0.07499999999993356
1.999999999998459 0.9999999999999107 0.02499999999994166
1.999999999998459 0.9999999999999104 0.04999999999986856
1.999999999998459 0.9999999999999103 0.07499999999993363
1.999999999998539 1.999999999999833 0.02499999999994164
1.99999999999854 1.999999999999835 0.04999999999986857
1.999999999998541 1.999999999999835 0.07499999999993362
1.999999999998621 2.999999999999658 0.02499999999994165
1.999999999998622 2.999999999999656 0.04999999999986857
1.999999999998621 2.999999999999656 0.07499999999993365
1.999999999998702 3.999999999999363 0.02499999999994167
1.999999999998702 3.999999999999361 0.04999999999986856
1.999999999998702 3.999999999999361 0.07499999999993363
1.999999999998784 4.999999999999067 0.02499999999994165
1.999999999998782 4.999999999999069 0.04999999999986857
1.999999999998783 4.999999999999068 0.07499999999993365
1.999999999998862 5.999999999998778 0.02499999999994165
1.999999999998863 5.999999999998779 0.04999999999986856
1.999999999998864 5.999999999998778 0.07499999999993363
1.999999999998944 6.999999999998482 0.02499999999994166
1.999999999998944 6.999999999998482 0.04999999999986855
1.999999999998944 6.999999999998483 0.07499999999993362
1.999999999999025 7.999999999998198 0.02499999999994165
1.999999999999025 7.999999999998196 0.04999999999986855
1.999999999999027 7.999999999998196 0.07499999999993365
1.999999999999107 8.999999999998318 0.02499999999994165
1.999999999999107 8.99999999999832 0.04999999999986855
1.999999999999106 8.999999999998316 0.07499999999993368
1.999999999999188 9.999999999998467 0.02499999999994165
1.999999999999187 9.999999999998472 0.04999999999986857
1.999999999999188 9.999999999998467 0.07499999999993365
1.999999999999268 10.99999999999863 0.02499999999994166
1.999999999999268 10.99999999999863 0.04999999999986857
1.999999999999268 10.99999999999863 0.07499999999993365
1.999999999999348 11.99999999999877 0.02499999999994165
1.999999999999349 11.99999999999878 0.04999999999986857
1.999999999999349 11.99999999999878 0.07499999999993365
1.99999999999943 12.99999999999893 0.02499999999994165
1.99999999999943 12.99999999999893 0.04999999999986855
1.99999999999943 12.99999999999893 0.07499999999993363
1.999999999999511 13.99999999999907 0.02499999999994166
1.999999999999512 13.99999999999907 0.04999999999986855
1.999999999999511 13.99999999999907 0.07499999999993363
1.999999999999593 14.99999999999923 0.02499999999994166
1.999999999999592 14.99999999999923 0.04999999999986857
1.999999999999592 14.99999999999923 0.07499999999993365
1.999999999999672 15.99999999999939 0.02499999999994165
1.999999999999673 15.99999999999939 0.04999999999986857
1.999999999999673 15.99999999999939 0.07499999999993359
1.999999999999753 16.99999999999953 0.02499999999994165
1.999999999999754 16.99999999999955 0.04999999999986856
1.999999999999754 16.99999999999955 0.07499999999993365
1.999999999999834 17.99999999999969 0.02499999999994166
1.999999999999835 17.99999999999969 0.04999999999986855
1.999999999999835 17.99999999999969 0.07499999999993365
1.999999999999915 18.99999999999986 0.02499999999994166
1.999999999999915 18.99999999999985 0.04999999999986856
1.999999999999915 18.99999999999986 0.07499999999993363
2.999999999996741 0.9999999999998654 0.02499999999994167
2.999999999996743 0.9999999999998652 0.04999999999986857
2.999999999996743 0.9999999999998654 0.07499999999993359
2.999999999996912 1.999999999999753 0.02499999999994164
2.999999999996912 1.999999999999753 0.04999999999986857
2.999999999996913 1.999999999999754 0.07499999999993359
2.999999999997082 2.999999999999485 0.02499999999994165
2.999999999997084 2.999999999999485 0.04999999999986859
2.999999999997083 2.999999999999485 0.07499999999993359
2.999999999997257 3.999999999999045 0.02499999999994166
2.999999999997255 3.999999999999045 0.04999999999986858
2.999999999997256 3.999999999999045 0.0749999999999336
2.999999999997428 4.999999999998609 0.02499999999994165
2.999999999997428 4.999999999998609 0.04999999999986858
2.999999999997428 4.999999999998609 0.07499999999993363
2.999999999997598 5.999999999998168 0.02499999999994166
2.999999999997598 5.999999999998167 0.04999999999986857
2.999999999997597 5.999999999998167 0.0749999999999336
2.999999999997769 6.999999999997732 0.02499999999994167
2.999999999997768 6.999999999997728 0.04999999999986857
2.99999999999777 6.999999999997727 0.07499999999993358
2.999999999997939 7.999999999997295 0.02499999999994165
2.99999999999794 7.999999999997296 0.04999999999986857
2.99999999999794 7.999999999997296 0.07499999999993359
2.999999999998114 8.999999999997494 0.02499999999994165
2.999999999998114 8.999999999997485 0.04999999999986859
2.999999999998113 8.999999999997485 0.07499999999993362
2.999999999998285 9.99999999999771 0.02499999999994165
2.999999999998285 9.999999999997716 0.04999999999986858
2.999999999998285 9.999999999997716 0.07499999999993362
2.999999999998458 10.99999999999794 0.02499999999994166
2.999999999998455 10.99999999999795 0.04999999999986858
2.999999999998455 10.99999999999795 0.07499999999993366
2.999999999998626 11.99999999999817 0.02499999999994166
2.999999999998627 11.99999999999817 0.04999999999986857
2.999999999998627 11.99999999999818 0.07499999999993359
2.9999999999988 12.99999999999839 0.02499999999994167
2.999999999998798 12.99999999999839 0.04999999999986857
2.999999999998798 12.9999999999984 0.07499999999993358
2.999999999998971 13.99999999999862 0.02499999999994166
2.999999999998971 13.99999999999862 0.04999999999986858
2.999999999998971 13.99999999999862 0.0749999999999336
2.999999999999142 14.99999999999885 0.02499999999994167
2.999999999999143 14.99999999999885 0.04999999999986858
2.999999999999141 14.99999999999885 0.07499999999993362
2.999999999999312 15.99999999999908 0.02499999999994166
2.999999999999314 15.99999999999908 0.04999999999986858
2.999999999999314 15.99999999999909 0.07499999999993362
2.999999999999486 16.99999999999931 0.02499999999994165
2.999999999999485 16.99999999999931 0.04999999999986854
2.999999999999486 16.99999999999931 0.07499999999993365
2.999999999999656 17.99999999999953 0.02499999999994166
2.999999999999656 17.99999999999953 0.04999999999986859
2.999999999999656 17.99999999999955 0.07499999999993365
2.999999999999828 18.99999999999977 0.02499999999994166
2.999999999999828 18.99999999999976 0.04999999999986857
2.999999999999827 18.99999999999977 0.07499999999993358
3.999999999993964 0.9999999999998206 0.02499999999994167
3.999999999993965 0.9999999999998204 0.04999999999986857
3.999999999993966 0.9999999999998207 0.07499999999993358
3.999999999994285 1.999999999999673 0.02499999999994167
3.999999999994285 1.999999999999673 0.04999999999986856
3.999999999994285 1.999999999999673 0.07499999999993358
3.999999999994599 2.999999999999315 0.02499999999994165
3.9999999999946 2.999999999999315 0.04999999999986859
3.999999999994601 2.999999999999314 0.0749999999999336
3.999999999994916 3.999999999998726 0.02499999999994167
3.999999999994917 3.999999999998726 0.04999999999986856
3.999999999994918 3.999999999998727 0.07499999999993358
3.999999999995236 4.999999999998139 0.02499999999994167
3.999999999995234 4.999999999998141 0.04999999999986858
3.999999999995237 4.99999999999814 0.07499999999993368
3.999999999995555 5.999999999997557 0.02499999999994167
3.999999999995553 5.999999999997558 0.04999999999986857
3.999999999995553 5.999999999997556 0.07499999999993356
3.999999999995868 6.999999999996973 0.02499999999994167
3.999999999995869 6.999999999996972 0.04999999999986857
3.99999999999587 6.999999999996972 0.07499999999993362
3.999999999996189 7.999999999996403 0.02499999999994167
3.999999999996187 7.999999999996405 0.04999999999986857
3.999999999996189 7.999999999996401 0.07499999999993368
3.999999999996507 8.999999999996644 0.02499999999994167
3.999999999996505 8.999999999996644 0.04999999999986857
3.999999999996505 8.999999999996643 0.07499999999993359
3.999999999996822 9.999999999996957 0.02499999999994167
3.999999999996823 9.99999999999696 0.04999999999986858
3.999999999996823 9.999999999996952 0.07499999999993368
3.999999999997141 10.99999999999726 0.02499999999994167
3.999999999997141 10.99999999999725 0.04999999999986858
3.999999999997141 10.99999999999725 0.07499999999993365
3.999999999997455 11.99999999999756 0.02499999999994167
3.999999999997457 11.99999999999756 0.04999999999986857
3.999999999997458 11.99999999999757 0.07499999999993365
3.999999999997776 12.99999999999787 0.02499999999994167
3.999999999997774 12.99999999999787 0.04999999999986858
3.999999999997776 12.99999999999787 0.07499999999993362
3.999999999998093 13.99999999999817 0.02499999999994167
3.999999999998094 13.99999999999817 0.04999999999986857
3.999999999998093 13.99999999999817 0.07499999999993356
3.999999999998412 14.99999999999848 0.02499999999994167
3.99999999999841 14.99999999999848 0.04999999999986857
3.999999999998409 14.99999999999847 0.07499999999993365
3.999999999998728 15.99999999999878 0.02499999999994167
3.999999999998729 15.99999999999878 0.04999999999986858
3.999999999998728 15.99999999999878 0.07499999999993358
3.999999999999044 16.99999999999908 0.02499999999994165
3.999999999999045 16.99999999999908 0.04999999999986857
3.999999999999045 16.99999999999908 0.07499999999993362
3.999999999999363 17.99999999999939 0.02499999999994167
3.999999999999361 17.99999999999939 0.04999999999986858
3.999999999999362 17.99999999999939 0.07499999999993363
3.999999999999678 18.99999999999969 0.02499999999994167
3.999999999999678 18.99999999999969 0.04999999999986857
3.999999999999678 18.99999999999969 0.07499999999993362
4.999999999991191 0.9999999999997757 0.02499999999994167
4.99999999999119 0.9999999999997755 0.04999999999986857
4.999999999991193 0.9999999999997754 0.07499999999993365
4.999999999991651 1.999999999999592 0.02499999999994166
4.999999999991653 1.999999999999592 0.04999999999986857
4.999999999991652 1.999999999999592 0.07499999999993365
4.999999999992115 2.999999999999142 0.02499999999994165
4.999999999992117 2.999999999999143 0.04999999999986859
4.999999999992117 2.999999999999143 0.07499999999993362
4.999999999992582 3.999999999998411 0.02499999999994167
4.999999999992582 3.999999999998409 0.04999999999986856
4.999999999992582 3.999999999998409 0.07499999999993368
4.999999999993044 4.99999999999768 0.02499999999994167
4.999999999993046 4.999999999997681 0.04999999999986858
4.999999999993044 4.999999999997682 0.07499999999993366
4.999999999993507 5.999999999996944 0.02499999999994167
4.999999999993507 5.999999999996947 0.04999999999986857
4.999999999993507 5.999999999996946 0.07499999999993365
4.999999999993969 6.999999999996216 0.02499999999994167
4.999999999993971 6.999999999996217 0.04999999999986858
4.99999999999397 6.999999999996216 0.07499999999993365
4.999999999994435 7.999999999995506 0.02499999999994167
4.999999999994435 7.999999999995502 0.04999999999986857
4.999999999994435 7.999999999995501 0.07499999999993365
4.999999999994898 8.999999999995818 0.02499999999994165
4.999999999994898 8.999999999995815 0.04999999999986857
4.999999999994898 8.999999999995818 0.07499999999993365
4.999999999995359 9.999999999996191 0.02499999999994167
4.999999999995362 9.999999999996191 0.04999999999986856
4.999999999995362 9.999999999996193 0.07499999999993365
4.999999999995826 10.99999999999658 0.02499999999994167
4.999999999995826 10.99999999999657 0.04999999999986857
4.999999999995826 10.99999999999657 0.07499999999993365
4.99999999999629 11.99999999999696 0.02499999999994167
4.99999999999629 11.99999999999696 0.04999999999986857
4.999999999996289 11.99999999999696 0.07499999999993366
4.999999999996753 12.99999999999733 0.02499999999994167
4.999999999996753 12.99999999999733 0.04999999999986857
4.999999999996753 12.99999999999734 0.07499999999993365
4.999999999997217 13.99999999999771 0.02499999999994167
4.999999999997217 13.99999999999772 0.04999999999986857
4.999999999997216 13.99999999999772 0.07499999999993359
4.99999999999768 14.99999999999809 0.02499999999994167
4.999999999997681 14.99999999999809 0.04999999999986857
4.999999999997681 14.99999999999809 0.07499999999993366
4.999999999998142 15.99999999999848 0.02499999999994167
4.999999999998144 15.99999999999848 0.04999999999986857
4.999999999998142 15.99999999999849 0.07499999999993363
4.999999999998608 16.99999999999886 0.02499999999994166
4.999999999998608 16.99999999999886 0.04999999999986857
4.999999999998609 16.99999999999886 0.07499999999993368
4.999999999999069 17.99999999999923 0.02499999999994167
4.999999999999069 17.99999999999923 0.04999999999986857
4.999999999999069 17.99999999999924 0.07499999999993366
4.999999999999532 18.99999999999962 0.02499999999994167
4.999999999999533 18.99999999999961 0.04999999999986857
4.999999999999533 18.99999999999962 0.07499999999993359
5.999999999988416 0.9999999999997309 0.02499999999994167
5.999999999988413 0.9999999999997307 0.04999999999986856
5.999999999988414 0.9999999999997305 0.07499999999993358
5.999999999989029 1.999999999999512 0.02499999999994167
5.999999999989027 1.999999999999512 0.04999999999986856
5.999999999989026 1.999999999999512 0.07499999999993356
5.999999999989641 2.999999999998971 0.02499999999994166
5.999999999989638 2.999999999998971 0.04999999999986857
5.999999999989633 2.999999999998971 0.07499999999993356
5.999999999990244 3.999999999998092 0.02499999999994167
5.999999999990242 3.999999999998093 0.04999999999986857
5.999999999990242 3.999999999998093 0.07499999999993358
5.999999999990853 4.999999999997216 0.02499999999994167
5.999999999990854 4.999999999997216 0.04999999999986857
5.999999999990854 4.999999999997215 0.07499999999993365
5.999999999991462 5.999999999996339 0.02499999999994167
5.999999999991462 5.999999999996339 0.04999999999986857
5.999999999991462 5.999999999996337 0.07499999999993356
5.999999999992071 6.99999999999546 0.02499999999994167
5.999999999992071 6.999999999995459 0.04999999999986857
5.999999999992071 6.99999999999546 0.07499999999993362
5.999999999992682 7.999999999994607 0.02499999999994167
5.999999999992681 7.999999999994605 0.04999999999986857
5.999999999992681 7.999999999994603 0.07499999999993368
5.99999999999329 8.999999999994978 0.02499999999994167
5.999999999993293 8.999999999994982 0.04999999999986858
5.999999999993292 8.999999999994978 0.07499999999993359
5.999999999993901 9.999999999995435 0.02499999999994167
5.999999999993901 9.999999999995438 0.04999999999986856
5.9999999999939 9.999999999995435 0.07499999999993368
5.999999999994511 10.99999999999589 0.02499999999994167
5.999999999994511 10.99999999999589 0.04999999999986857
5.999999999994507 10.99999999999589 0.07499999999993365
5.999999999995112 11.99999999999635 0.02499999999994167
5.999999999995117 11.99999999999634 0.04999999999986857
5.999999999995116 11.99999999999635 0.07499999999993365
5.999999999995729 12.9999999999968 0.02499999999994167
5.99999999999573 12.9999999999968 0.04999999999986857
5.999999999995729 12.9999999999968 0.07499999999993362
5.999999999996335 13.99999999999726 0.02499999999994167
5.999999999996339 13.99999999999726 0.04999999999986857
5.999999999996338 13.99999999999726 0.07499999999993356
5.999999999996945 14.99999999999771 0.02499999999994167
5.999999999996947 14.99999999999771 0.04999999999986857
5.999999999996946 14.99999999999771 0.07499999999993368
5.999999999997558 15.99999999999818 0.02499999999994167
5.999999999997557 15.99999999999818 0.04999999999986857
5.999999999997557 15.99999999999818 0.07499999999993359
5.999999999998167 16.99999999999863 0.02499999999994167
5.999999999998167 16.99999999999864 0.04999999999986857
5.999999999998164 16.99999999999864 0.07499999999993363
5.999999999998774 17.99999999999908 0.02499999999994167
5.999999999998778 17.99999999999908 0.04999999999986856
5.999999999998776 17.99999999999908 0.07499999999993365
5.999999999999384 18.99999999999955 0.02499999999994167
5.999999999999384 18.99999999999955 0.04999999999986857
5.999999999999383 18.99999999999955 0.07499999999993363
6.999999999985641 0.9999999999996856 0.02499999999994167
6.999999999985641 0.9999999999996857 0.04999999999986857
6.999999999985642 0.9999999999996855 0.07499999999993356
6.99999999998639 1.999999999999431 0.02499999999994165
6.999999999986391 1.99999999999943 0.04999999999986857
6.99999999998639 1.999999999999431 0.07499999999993358
6.999999999987152 2.999999999998801 0.02499999999994165
6.999999999987151 2.9999999999988 0.04999999999986857
6.999999999987152 2.9999999999988 0.07499999999993359
6.999999999987908 3.999999999997776 0.02499999999994167
6.999999999987908 3.999999999997774 0.04999999999986857
6.999999999987908 3.999999999997774 0.07499999999993358
6.999999999988662 4.999999999996753 0.02499999999994167
6.99999999998866 4.999999999996753 0.04999999999986858
6.999999999988663 4.999999999996754 0.07499999999993365
6.999999999989416 5.999999999995729 0.02499999999994167
6.99999999998942 5.99999999999573 0.04999999999986857
6.999999999989416 5.999999999995729 0.07499999999993356
6.999999999990171 6.999999999994708 0.02499999999994167
6.999999999990175 6.999999999994708 0.04999999999986857
6.999999999990175 6.999999999994706 0.07499999999993363
6.999999999990926 7.999999999993712 0.02499999999994167
6.999999999990935 7.999999999993705 0.04999999999986858
6.999999999990932 7.999999999993705 0.07499999999993359
6.999999999991685 8.999999999994138 0.02499999999994165
6.999999999991687 8.999999999994143 0.04999999999986857
6.999999999991683 8.99999999999414 0.07499999999993365
6.999999999992442 9.999999999994674 0.02499999999994167
6.999999999992442 9.999999999994671 0.04999999999986857
6.999999999992442 9.999999999994674 0.07499999999993359
6.999999999993197 10.99999999999522 0.02499999999994167
6.999999999993193 10.99999999999521 0.04999999999986857
6.999999999993193 10.99999999999521 0.07499999999993365
6.999999999993953 11.99999999999574 0.02499999999994167
6.999999999993953 11.99999999999574 0.04999999999986857
6.999999999993951 11.99999999999574 0.07499999999993365
6.999999999994706 12.99999999999628 0.02499999999994167
6.999999999994705 12.99999999999628 0.04999999999986857
6.999999999994705 12.99999999999627 0.07499999999993362
6.99999999999546 13.9999999999968 0.02499999999994167
6.999999999995458 13.9999999999968 0.04999999999986857
6.99999999999546 13.9999999999968 0.07499999999993356
6.999999999996222 14.99999999999734 0.02499999999994167
6.999999999996218 14.99999999999733 0.04999999999986857
6.999999999996217 14.99999999999734 0.07499999999993365
6.999999999996973 15.99999999999786 0.02499999999994167
6.999999999996971 15.99999999999787 0.04999999999986857
6.999999999996969 15.99999999999787 0.07499999999993359
6.999999999997728 16.9999999999984 0.02499999999994165
6.999999999997726 16.99999999999841 0.04999999999986858
6.999999999997726 16.99999999999841 0.07499999999993363
6.999999999998485 17.99999999999894 0.02499999999994166
6.999999999998488 17.99999999999893 0.04999999999986857
6.999999999998485 17.99999999999894 0.07499999999993363
6.99999999999924 18.99999999999946 0.02499999999994167
6.999999999999238 18.99999999999947 0.04999999999986855
6.999999999999238 18.99999999999947 0.07499999999993363
7.999999999982932 0.999999999999641 0.02499999999994167
7.999999999982931 0.9999999999996412 0.04999999999986856
7.999999999982931 0.9999999999996406 0.0749999999999336
7.999999999983832 1.99999999999935 0.02499999999994165
7.999999999983829 1.99999999999935 0.04999999999986855
7.99999999998383 1.999999999999349 0.07499999999993359
7.999999999984727 2.999999999998627 0.02499999999994165
7.999999999984722 2.999999999998625 0.04999999999986857
7.999999999984725 2.999999999998625 0.0749999999999336
7.999999999985627 3.999999999997459 0.02499999999994166
7.999999999985626 3.999999999997455 0.04999999999986856
7.999999999985627 3.999999999997457 0.0749999999999336
7.999999999986523 4.99999999999629 0.02499999999994167
7.999999999986523 4.999999999996289 0.04999999999986856
7.999999999986526 4.99999999999629 0.07499999999993359
7.999999999987423 5.999999999995114 0.02499999999994167
7.999999999987422 5.999999999995118 0.04999999999986858
7.999999999987423 5.999999999995118 0.07499999999993358
7.999999999988315 6.999999999993955 0.02499999999994167
7.999999999988319 6.999999999993956 0.04999999999986858
7.999999999988317 6.999999999993952 0.07499999999993358
7.999999999989224 7.999999999992814 0.02499999999994167
7.999999999989217 7.999999999992809 0.04999999999986857
7.999999999989219 7.999999999992808 0.07499999999993362
7.999999999990118 8.99999999999331 0.02499999999994165
7.999999999990116 8.99999999999331 0.04999999999986856
7.999999999990117 8.99999999999331 0.0749999999999336
7.999999999991016 9.999999999993914 0.02499999999994167
7.999999999991014 9.999999999993918 0.04999999999986857
7.999999999991014 9.999999999993914 0.07499999999993359
7.999999999991911 10.99999999999453 0.02499999999994167
7.999999999991912 10.99999999999453 0.04999999999986857
7.99999999999191 10.99999999999453 0.07499999999993368
7.999999999992814 11.99999999999512 0.02499999999994167
7.999999999992809 11.99999999999512 0.04999999999986857
7.999999999992811 11.99999999999513 0.07499999999993359
7.999999999993705 12.99999999999574 0.02499999999994167
7.999999999993705 12.99999999999574 0.04999999999986856
7.999999999993705 12.99999999999574 0.0749999999999336
7.999999999994607 13.99999999999634 0.02499999999994167
7.999999999994605 13.99999999999634 0.04999999999986858
7.999999999994605 13.99999999999634 0.07499999999993359
7.999999999995504 14.99999999999695 0.02499999999994167
7.9999999999955 14.99999999999696 0.04999999999986857
7.999999999995501 14.99999999999696 0.07499999999993359
7.999999999996404 15.99999999999757 0.02499999999994167
7.999999999996405 15.99999999999757 0.04999999999986858
7.999999999996402 15.99999999999757 0.07499999999993362
7.999999999997298 16.99999999999817 0.02499999999994165
7.999999999997296 16.99999999999818 0.04999999999986857
7.999999999997298 16.99999999999818 0.07499999999993365
7.999999999998197 17.99999999999877 0.02499999999994167
7.999999999998197 17.99999999999877 0.04999999999986855
7.999999999998193 17.99999999999878 0.07499999999993368
7.999999999999095 18.99999999999939 0.02499999999994167
7.999999999999092 18.99999999999939 0.04999999999986856
7.999999999999098 18.9999999999994 0.07499999999993362
8.99999999998411 0.9999999999995964 0.02499999999994167
8.999999999984112 0.9999999999995959 0.04999999999986856
8.99999999998411 0.9999999999995959 0.07499999999993365
8.99999999998495 1.999999999999267 0.02499999999994165
8.99999999998495 1.999999999999268 0.04999999999986856
8.99999999998495 1.999999999999268 0.07499999999993363
8.999999999985786 2.999999999998457 0.02499999999994165
8.99999999998579 2.999999999998455 0.04999999999986857
8.999999999985787 2.999999999998455 0.07499999999993359
8.999999999986617 3.999999999997141 0.02499999999994166
8.99999999998662 3.999999999997141 0.04999999999986857
8.999999999986622 3.99999999999714 0.07499999999993363
8.999999999987452 4.999999999995826 0.02499999999994167
8.99999999998745 4.999999999995826 0.04999999999986856
8.99999999998745 4.999999999995826 0.07499999999993366
8.999999999988294 5.999999999994511 0.02499999999994167
8.99999999998829 5.999999999994511 0.04999999999986857
8.99999999998829 5.99999999999451 0.07499999999993363
8.99999999998913 6.999999999993195 0.02499999999994167
8.999999999989129 6.999999999993192 0.04999999999986857
8.999999999989129 6.999999999993193 0.07499999999993363
8.999999999989964 7.999999999991911 0.02499999999994165
8.999999999989967 7.999999999991912 0.04999999999986858
8.999999999989964 7.99999999999191 0.0749999999999336
8.999999999990802 8.999999999992466 0.02499999999994167
8.999999999990807 8.999999999992468 0.04999999999986857
8.999999999990802 8.999999999992468 0.07499999999993365
8.999999999991639 9.999999999993149 0.02499999999994167
8.999999999991639 9.999999999993149 0.04999999999986857
8.999999999991639 9.999999999993154 0.07499999999993359
8.999999999992468 10.99999999999384 0.02499999999994167
8.999999999992468 10.99999999999384 0.04999999999986857
8.999999999992468 10.99999999999384 0.07499999999993365
8.999999999993308 11.99999999999452 0.02499999999994167
8.99999999999331 11.99999999999452 0.04999999999986857
8.99999999999331 11.99999999999453 0.07499999999993366
8.999999999994143 12.99999999999521 0.02499999999994167
8.999999999994143 12.99999999999521 0.04999999999986857
8.999999999994142 12.99999999999521 0.07499999999993365
8.99999999999498 13.99999999999588 0.02499999999994167
8.999999999994982 13.99999999999589 0.04999999999986857
8.999999999994978 13.99999999999588 0.07499999999993359
8.999999999995815 14.99999999999658 0.02499999999994167
8.999999999995815 14.99999999999658 0.04999999999986857
8.999999999995815 14.99999999999658 0.07499999999993366
8.999999999996644 15.99999999999726 0.02499999999994167
8.999999999996643 15.99999999999726 0.04999999999986857
8.999999999996646 15.99999999999727 0.07499999999993359
8.999999999997492 16.99999999999795 0.02499999999994165
8.999999999997485 16.99999999999795 0.04999999999986857
8.999999999997486 16.99999999999795 0.07499999999993365
8.999999999998323 17.99999999999862 0.02499999999994166
8.999999999998323 17.99999999999862 0.04999999999986857
8.999999999998323 17.99999999999863 0.07499999999993366
8.999999999999158 18.99999999999932 0.02499999999994167
8.999999999999162 18.99999999999932 0.04999999999986855
8.999999999999156 18.99999999999932 0.07499999999993359
9.999999999985562 0.9999999999995514 0.02499999999994167
9.999999999985562 0.9999999999995506 0.04999999999986855
9.999999999985565 0.9999999999995507 0.07499999999993359
9.999999999986311 1.999999999999188 0.02499999999994165
9.999999999986313 1.999999999999187 0.04999999999986857
9.999999999986313 1.999999999999187 0.07499999999993359
9.999999999987077 2.999999999998283 0.02499999999994165
9.999999999987077 2.999999999998286 0.04999999999986858
9.999999999987077 2.999999999998285 0.07499999999993362
9.999999999987837 3.999999999996821 0.02499999999994166
9.999999999987837 3.99999999999682 0.04999999999986857
9.999999999987843 3.999999999996822 0.0749999999999336
9.999999999988603 4.999999999995361 0.02499999999994167
9.999999999988605 4.999999999995362 0.04999999999986857
9.999999999988598 4.999999999995362 0.07499999999993359
9.999999999989356 5.9999999999939 0.02499999999994167
9.999999999989356 5.999999999993901 0.04999999999986857
9.999999999989356 5.9999999999939 0.07499999999993358
9.999999999990113 6.999999999992442 0.02499999999994167
9.999999999990116 6.999999999992442 0.04999999999986857
9.999999999990113 6.99999999999244 0.07499999999993359
9.999999999990877 7.999999999991016 0.02499999999994166
9.999999999990877 7.999999999991011 0.04999999999986857
9.999999999990873 7.999999999991012 0.07499999999993359
9.999999999991635 8.999999999991637 0.02499999999994167
9.999999999991635 8.999999999991639 0.04999999999986857
9.999999999991635 8.999999999991639 0.07499999999993363
9.99999999999239 9.999999999992392 0.02499999999994167
9.999999999992397 9.999999999992397 0.04999999999986857
9.99999999999239 9.999999999992394 0.07499999999993362
9.999999999993147 10.99999999999316 0.02499999999994167
9.999999999993149 10.99999999999316 0.04999999999986857
9.999999999993154 10.99999999999316 0.07499999999993368
9.999999999993912 11.99999999999392 0.02499999999994167
9.999999999993918 11.99999999999392 0.04999999999986857
9.999999999993914 11.99999999999392 0.07499999999993362
9.999999999994674 12.99999999999468 0.02499999999994167
9.999999999994671 12.99999999999467 0.04999999999986857
9.999999999994676 12.99999999999467 0.07499999999993359
9.999999999995435 13.99999999999543 0.02499999999994167
9.999999999995438 13.99999999999543 0.04999999999986858
9.999999999995435 13.99999999999543 0.07499999999993359
9.999999999996191 14.9999999999962 0.02499999999994167
9.999999999996191 14.9999999999962 0.04999999999986857
9.999999999996195 14.99999999999619 0.07499999999993363
9.999999999996959 15.99999999999696 0.02499999999994167
9.99999999999696 15.99999999999697 0.04999999999986857
9.999999999996954 15.99999999999697 0.07499999999993363
9.999999999997716 16.99999999999772 0.02499999999994167
9.999999999997714 16.99999999999772 0.04999999999986857
9.999999999997716 16.99999999999772 0.07499999999993366
9.99999999999848 17.99999999999848 0.02499999999994167
9.999999999998478 17.99999999999848 0.04999999999986857
9.999999999998472 17.99999999999848 0.07499999999993368
9.999999999999233 18.99999999999924 0.02499999999994167
9.999999999999233 18.99999999999924 0.04999999999986857
9.999999999999233 18.99999999999924 0.07499999999993362
10.99999999998701 0.999999999999506 0.02499999999994167
10.999999999987 0.9999999999995062 0.04999999999986858
10.999999999987 0.9999999999995062 0.07499999999993365
10.99999999998769 1.999999999999107 0.02499999999994165
10.99999999998769 1.999999999999107 0.04999999999986857
10.99999999998769 1.999999999999107 0.07499999999993365
10.99999999998837 2.999999999998111 0.02499999999994165
10.99999999998837 2.999999999998113 0.04999999999986859
10.99999999998838 2.999999999998113 0.0749999999999336
10.99999999998905 3.999999999996507 0.02499999999994166
10.99999999998906 3.999999999996505 0.04999999999986857
10.99999999998906 3.999999999996505 0.07499999999993365
10.99999999998974 4.999999999994898 0.02499999999994167
10.99999999998974 4.999999999994898 0.04999999999986855
10.99999999998974 4.999999999994898 0.07499999999993365
10.99999999999042 5.999999999993292 0.02499999999994167
10.99999999999042 5.999999999993289 0.04999999999986857
10.99999999999042 5.999999999993289 0.07499999999993363
10.99999999999111 6.999999999991684 0.02499999999994167
10.99999999999111 6.999999999991687 0.04999999999986857
10.99999999999111 6.999999999991684 0.07499999999993365
10.9999999999918 7.999999999990118 0.02499999999994167
10.99999999999179 7.999999999990116 0.04999999999986858
10.99999999999179 7.999999999990118 0.07499999999993362
10.99999999999248 8.999999999990804 0.02499999999994167
10.99999999999247 8.999999999990806 0.04999999999986857
10.99999999999248 8.999999999990802 0.07499999999993365
10.99999999999316 9.999999999991633 0.02499999999994167
10.99999999999315 9.999999999991635 0.04999999999986857
10.99999999999316 9.999999999991633 0.07499999999993359
10.99999999999384 10.99999999999248 0.02499999999994167
10.99999999999384 10.99999999999247 0.04999999999986857
10.99999999999384 10.99999999999248 0.07499999999993365
10.99999999999452 11.9999999999933 0.02499999999994167
10.99999999999453 11.9999999999933 0.04999999999986857
10.99999999999452 11.99999999999331 0.07499999999993366
10.99999999999521 12.99999999999415 0.02499999999994167
10.99999999999521 12.99999999999415 0.04999999999986857
10.99999999999521 12.99999999999415 0.07499999999993365
10.99999999999589 13.99999999999498 0.02499999999994167
10.99999999999589 13.99999999999498 0.04999999999986857
10.99999999999589 13.99999999999498 0.07499999999993365
10.99999999999658 14.99999999999582 0.02499999999994167
10.99999999999657 14.99999999999581 0.04999999999986857
10.99999999999657 14.99999999999581 0.07499999999993365
10.99999999999725 15.99999999999666 0.02499999999994167
10.99999999999726 15.99999999999665 0.04999999999986857
10.99999999999726 15.99999999999665 0.0749999999999336
10.99999999999795 16.99999999999748 0.02499999999994167
10.99999999999794 16.99999999999748 0.04999999999986857
10.99999999999795 16.99999999999748 0.07499999999993365
10.99999999999863 17.99999999999832 0.02499999999994167
10.99999999999863 17.99999999999832 0.04999999999986857
10.99999999999863 17.99999999999832 0.07499999999993366
10.99999999999931 18.99999999999916 0.02499999999994167
10.9999999999993 18.99999999999916 0.04999999999986857
10.99999999999931 18.99999999999916 0.07499999999993363
11.99999999998845 0.9999999999994611 0.02499999999994166
11.99999999998845 0.9999999999994609 0.04999999999986857
11.99999999998846 0.9999999999994615 0.07499999999993363
11.99999999998906 1.999999999999025 0.02499999999994165
11.99999999998906 1.999999999999025 0.04999999999986857
11.99999999998906 1.999999999999027 0.07499999999993366
11.99999999998966 2.999999999997942 0.02499999999994165
11.99999999998966 2.999999999997942 0.04999999999986857
11.99999999998966 2.999999999997942 0.0749999999999336
11.99999999999027 3.999999999996189 0.02499999999994166
11.99999999999027 3.999999999996188 0.04999999999986855
11.99999999999028 3.999999999996189 0.07499999999993365
11.99999999999089 4.999999999994436 0.02499999999994167
11.99999999999088 4.999999999994438 0.04999999999986857
11.99999999999089 4.999999999994436 0.07499999999993366
11.99999999999148 5.999999999992681 0.02499999999994167
11.99999999999149 5.999999999992682 0.04999999999986856
11.99999999999149 5.99999999999268 0.07499999999993363
11.99999999999209 6.999999999990925 0.02499999999994167
11.9999999999921 6.999999999990926 0.04999999999986857
11.9999999999921 6.999999999990926 0.07499999999993365
11.9999999999927 7.999999999989222 0.02499999999994167
11.9999999999927 7.999999999989217 0.04999999999986857
11.9999999999927 7.999999999989218 0.07499999999993359
11.9999999999933 8.999999999989964 0.02499999999994167
11.9999999999933 8.999999999989967 0.04999999999986856
11.99999999999331 8.999999999989964 0.07499999999993366
11.99999999999392 9.999999999990875 0.02499999999994167
11.99999999999392 9.999999999990877 0.04999999999986857
11.99999999999392 9.999999999990873 0.07499999999993359
11.99999999999453 10.9999999999918 0.02499999999994167
11.99999999999453 10.99999999999179 0.04999999999986857
11.99999999999453 10.9999999999918 0.07499999999993366
11.99999999999512 11.9999999999927 0.02499999999994167
11.99999999999512 11.9999999999927 0.04999999999986857
11.99999999999513 11.9999999999927 0.07499999999993365
11.99999999999574 12.99999999999361 0.02499999999994167
11.99999999999574 12.99999999999361 0.04999999999986857
11.99999999999574 12.99999999999361 0.07499999999993365
11.99999999999635 13.99999999999452 0.02499999999994167
11.99999999999634 13.99999999999452 0.04999999999986857
11.99999999999635 13.99999999999452 0.07499999999993359
11.99999999999696 14.99999999999544 0.02499999999994167
11.99999999999696 14.99999999999544 0.04999999999986857
11.99999999999696 14.99999999999544 0.07499999999993365
11.99999999999756 15.99999999999635 0.02499999999994167
11.99999999999756 15.99999999999635 0.04999999999986857
11.99999999999757 15.99999999999635 0.07499999999993359
11.99999999999817 16.99999999999725 0.02499999999994167
11.99999999999817 16.99999999999725 0.04999999999986857
11.99999999999818 16.99999999999725 0.07499999999993363
11.99999999999878 17.99999999999817 0.02499999999994166
11.99999999999878 17.99999999999817 0.04999999999986857
11.99999999999878 17.99999999999817 0.07499999999993368
11.99999999999939 18.99999999999909 0.02499999999994167
11.99999999999939 18.99999999999908 0.04999999999986856
11.99999999999939 18.99999999999908 0.0749999999999336
12.99999999998989 0.9999999999994169 0.02499999999994167
12.99999999998989 0.9999999999994165 0.04999999999986857
12.99999999998989 0.9999999999994169 0.07499999999993359
12.99999999999043 1.999999999998944 0.02499999999994165
12.99999999999043 1.999999999998944 0.04999999999986856
12.99999999999042 1.999999999998945 0.07499999999993356
12.99999999999096 2.999999999997769 0.02499999999994165
12.99999999999096 2.999999999997768 0.04999999999986857
12.99999999999095 2.99999999999777 0.07499999999993358
12.99999999999148 3.99999999999587 0.02499999999994166
12.99999999999148 3.99999999999587 0.04999999999986856
12.99999999999148 3.999999999995872 0.07499999999993356
12.99999999999202 4.999999999993969 0.02499999999994167
12.99999999999202 4.999999999993971 0.04999999999986856
12.99999999999202 4.99999999999397 0.07499999999993363
12.99999999999255 5.999999999992071 0.02499999999994167
12.99999999999255 5.999999999992069 0.04999999999986857
12.99999999999256 5.999999999992068 0.07499999999993358
12.99999999999307 6.999999999990171 0.02499999999994167
12.99999999999308 6.999999999990171 0.04999999999986857
12.99999999999308 6.999999999990175 0.07499999999993363
12.99999999999361 7.999999999988319 0.02499999999994167
12.99999999999361 7.999999999988319 0.04999999999986856
12.99999999999361 7.999999999988317 0.07499999999993359
12.99999999999415 8.999999999989129 0.02499999999994167
12.99999999999415 8.999999999989129 0.04999999999986857
12.99999999999415 8.999999999989129 0.07499999999993365
12.99999999999468 9.999999999990115 0.02499999999994167
12.99999999999468 9.999999999990116 0.04999999999986857
12.99999999999469 9.999999999990115 0.07499999999993359
12.9999999999952 10.99999999999111 0.02499999999994167
12.99999999999521 10.99999999999111 0.04999999999986857
12.9999999999952 10.99999999999111 0.07499999999993365
12.99999999999574 11.99999999999209 0.02499999999994167
12.99999999999574 11.99999999999209 0.04999999999986857
12.99999999999574 11.9999999999921 0.07499999999993365
12.99999999999628 12.99999999999308 0.02499999999994167
12.99999999999628 12.99999999999308 0.04999999999986856
12.99999999999627 12.99999999999308 0.07499999999993363
12.9999999999968 13.99999999999407 0.02499999999994167
12.9999999999968 13.99999999999407 0.04999999999986857
12.9999999999968 13.99999999999407 0.07499999999993358
12.99999999999733 14.99999999999506 0.02499999999994167
12.99999999999733 14.99999999999505 0.04999999999986857
12.99999999999734 14.99999999999505 0.07499999999993365
12.99999999999787 15.99999999999604 0.02499999999994167
12.99999999999787 15.99999999999604 0.04999999999986857
12.99999999999787 15.99999999999605 0.07499999999993359
12.99999999999839 16.99999999999703 0.02499999999994167
12.9999999999984 16.99999999999703 0.04999999999986857
12.9999999999984 16.99999999999703 0.07499999999993363
12.99999999999893 17.99999999999801 0.02499999999994166
12.99999999999893 17.99999999999801 0.04999999999986856
12.99999999999893 17.99999999999801 0.07499999999993363
12.99999999999946 18.99999999999901 0.02499999999994167
12.99999999999946 18.99999999999902 0.04999999999986857
12.99999999999946 18.99999999999902 0.07499999999993363
13.99999999999133 0.9999999999993721 0.02499999999994167
13.99999999999133 0.9999999999993714 0.04999999999986856
13.99999999999133 0.9999999999993712 0.07499999999993358
13.99999999999179 1.999999999998864 0.02499999999994165
13.99999999999179 1.999999999998864 0.04999999999986856
13.99999999999179 1.999999999998864 0.07499999999993356
13.99999999999224 2.9999999999976 0.02499999999994166
13.99999999999224 2.999999999997597 0.04999999999986856
13.99999999999224 2.999999999997597 0.07499999999993359
13.99999999999271 3.999999999995555 0.02499999999994167
13.99999999999271 3.999999999995551 0.04999999999986857
13.99999999999271 3.999999999995553 0.07499999999993358
13.99999999999315 4.999999999993511 0.02499999999994167
13.99999999999316 4.999999999993511 0.04999999999986857
13.99999999999315 4.999999999993511 0.07499999999993365
13.99999999999362 5.999999999991462 0.02499999999994167
13.99999999999361 5.999999999991467 0.04999999999986857
13.99999999999361 5.999999999991465 0.07499999999993356
13.99999999999406 6.999999999989416 0.02499999999994167
13.99999999999406 6.99999999998942 0.04999999999986857
13.99999999999406 6.999999999989416 0.07499999999993358
13.99999999999451 7.999999999987423 0.02499999999994165
13.99999999999451 7.999999999987422 0.04999999999986858
13.99999999999452 7.999999999987419 0.07499999999993362
13.99999999999498 8.999999999988292 0.02499999999994167
13.99999999999498 8.99999999998829 0.04999999999986856
13.99999999999498 8.99999999998829 0.07499999999993365
13.99999999999543 9.999999999989356 0.02499999999994166
13.99999999999544 9.999999999989356 0.04999999999986858
13.99999999999543 9.999999999989356 0.07499999999993362
13.99999999999588 10.99999999999042 0.02499999999994167
13.99999999999588 10.99999999999042 0.04999999999986857
13.99999999999588 10.99999999999042 0.07499999999993365
13.99999999999634 11.99999999999148 0.02499999999994167
13.99999999999635 11.99999999999149 0.04999999999986857
13.99999999999635 11.99999999999149 0.07499999999993365
13.9999999999968 12.99999999999255 0.02499999999994167
13.9999999999968 12.99999999999255 0.04999999999986857
13.99999999999679 12.99999999999255 0.07499999999993358
13.99999999999726 13.99999999999362 0.02499999999994167
13.99999999999726 13.99999999999361 0.04999999999986857
13.99999999999726 13.99999999999362 0.07499999999993356
13.9999999999977 14.99999999999467 0.02499999999994167
13.99999999999771 14.99999999999467 0.04999999999986857
13.99999999999771 14.99999999999467 0.07499999999993362
13.99999999999817 15.99999999999575 0.02499999999994167
13.99999999999817 15.99999999999575 0.04999999999986857
13.99999999999817 15.99999999999575 0.07499999999993359
13.99999999999862 16.9999999999968 0.02499999999994165
13.99999999999862 16.9999999999968 0.04999999999986857
13.99999999999862 16.9999999999968 0.07499999999993358
13.99999999999908 17.99999999999787 0.02499999999994167
13.99999999999908 17.99999999999787 0.04999999999986857
13.99999999999908 17.99999999999787 0.07499999999993365
13.99999999999953 18.99999999999893 0.02499999999994167
13.99999999999953 18.99999999999893 0.04999999999986857
13.99999999999953 18.99999999999894 0.07499999999993358
14.99999999999278 0.9999999999993269 0.02499999999994167
14.99999999999278 0.9999999999993265 0.04999999999986857
14.99999999999278 0.9999999999993272 0.07499999999993368
14.99999999999316 1.999999999998783 0.02499999999994165
14.99999999999316 1.999999999998783 0.04999999999986857
14.99999999999316 1.999999999998783 0.07499999999993366
14.99999999999354 2.999999999997426 0.02499999999994165
14.99999999999354 2.999999999997427 0.04999999999986858
14.99999999999354 2.999999999997426 0.07499999999993362
14.99999999999392 3.999999999995237 0.02499999999994167
14.99999999999392 3.999999999995237 0.04999999999986857
14.99999999999392 3.999999999995236 0.07499999999993359
14.9999999999943 4.999999999993042 0.02499999999994167
14.99999999999431 4.999999999993043 0.04999999999986857
14.9999999999943 4.999999999993042 0.07499999999993366
14.99999999999467 5.999999999990853 0.02499999999994167
14.99999999999468 5.99999999999085 0.04999999999986857
14.99999999999468 5.99999999999085 0.0749999999999336
14.99999999999505 6.999999999988663 0.02499999999994167
14.99999999999505 6.99999999998866 0.04999999999986857
14.99999999999505 6.999999999988662 0.07499999999993359
14.99999999999543 7.999999999986524 0.02499999999994167
14.99999999999544 7.999999999986522 0.04999999999986857
14.99999999999543 7.999999999986525 0.0749999999999336
14.99999999999581 8.999999999987457 0.02499999999994167
14.99999999999581 8.99999999998745 0.04999999999986857
14.99999999999581 8.99999999998745 0.07499999999993366
14.9999999999962 9.999999999988598 0.02499999999994167
14.9999999999962 9.9999999999886 0.04999999999986856
14.99999999999619 9.999999999988598 0.07499999999993359
14.99999999999658 10.99999999998974 0.02499999999994167
14.99999999999658 10.99999999998974 0.04999999999986857
14.99999999999658 10.99999999998974 0.07499999999993365
14.99999999999696 11.99999999999088 0.02499999999994167
14.99999999999696 11.99999999999088 0.04999999999986857
14.99999999999695 11.99999999999088 0.07499999999993365
14.99999999999734 12.99999999999202 0.02499999999994167
14.99999999999733 12.99999999999202 0.04999999999986857
14.99999999999734 12.99999999999201 0.07499999999993358
14.99999999999771 13.99999999999315 0.02499999999994167
14.99999999999771 13.99999999999315 0.04999999999986857
14.99999999999771 13.99999999999315 0.0749999999999336
14.9999999999981 14.9999999999943 0.02499999999994167
14.99999999999809 14.9999999999943 0.04999999999986857
14.99999999999809 14.99999999999429 0.07499999999993366
14.99999999999848 15.99999999999544 0.02499999999994167
14.99999999999846 15.99999999999544 0.04999999999986857
14.99999999999847 15.99999999999543 0.0749999999999336
14.99999999999886 16.99999999999658 0.02499999999994167
14.99999999999885 16.99999999999657 0.04999999999986857
14.99999999999886 16.99999999999657 0.07499999999993358
14.99999999999923 17.99999999999771 0.02499999999994167
14.99999999999923 17.99999999999771 0.04999999999986856
14.99999999999923 17.99999999999771 0.07499999999993366
14.99999999999961 18.99999999999886 0.02499999999994167
14.99999999999961 18.99999999999885 0.04999999999986857
14.99999999999961 18.99999999999886 0.07499999999993359
15.99999999999422 0.9999999999992821 0.02499999999994167
15.99999999999423 0.9999999999992817 0.04999999999986856
15.99999999999422 0.9999999999992819 0.07499999999993365
15.99999999999453 1.999999999998701 0.02499999999994166
15.99999999999453 1.999999999998702 0.04999999999986856
15.99999999999453 1.999999999998702 0.07499999999993365
15.99999999999484 2.999999999997256 0.02499999999994165
15.99999999999483 2.999999999997257 0.04999999999986857
15.99999999999483 2.999999999997256 0.07499999999993359
15.99999999999513 3.999999999994917 0.02499999999994167
15.99999999999513 3.999999999994916 0.04999999999986856
15.99999999999513 3.999999999994918 0.07499999999993359
15.99999999999544 4.999999999992583 0.02499999999994167
15.99999999999544 4.999999999992583 0.04999999999986857
15.99999999999544 4.999999999992584 0.07499999999993365
15.99999999999575 5.999999999990245 0.02499999999994167
15.99999999999575 5.999999999990244 0.04999999999986857
15.99999999999575 5.999999999990244 0.0749999999999336
15.99999999999604 6.999999999987908 0.02499999999994167
15.99999999999605 6.999999999987907 0.04999999999986856
15.99999999999605 6.999999999987908 0.0749999999999336
15.99999999999635 7.999999999985632 0.02499999999994167
15.99999999999635 7.999999999985626 0.04999999999986858
15.99999999999635 7.99999999998563 0.07499999999993362
15.99999999999666 8.999999999986622 0.02499999999994167
15.99999999999665 8.99999999998662 0.04999999999986856
15.99999999999665 8.99999999998662 0.07499999999993366
15.99999999999696 9.999999999987839 0.02499999999994167
15.99999999999696 9.999999999987837 0.04999999999986857
15.99999999999696 9.999999999987839 0.0749999999999336
15.99999999999726 10.99999999998906 0.02499999999994167
15.99999999999727 10.99999999998906 0.04999999999986857
15.99999999999726 10.99999999998906 0.07499999999993365
15.99999999999757 11.99999999999027 0.02499999999994167
15.99999999999757 11.99999999999027 0.04999999999986857
15.99999999999757 11.99999999999027 0.07499999999993359
15.99999999999786 12.99999999999148 0.02499999999994167
15.99999999999787 12.99999999999149 0.04999999999986857
15.99999999999787 12.99999999999148 0.07499999999993359
15.99999999999818 13.9999999999927 0.02499999999994167
15.99999999999818 13.9999999999927 0.04999999999986856
15.99999999999818 13.9999999999927 0.07499999999993359
15.99999999999848 14.99999999999393 0.02499999999994167
15.99999999999848 14.99999999999392 0.04999999999986857
15.99999999999847 14.99999999999391 0.0749999999999336
15.99999999999879 15.99999999999514 0.02499999999994167
15.99999999999878 15.99999999999514 0.04999999999986857
15.99999999999878 15.99999999999515 0.07499999999993366
15.99999999999909 16.99999999999634 0.02499999999994167
15.99999999999909 16.99999999999634 0.04999999999986857
15.99999999999909 16.99999999999634 0.0749999999999336
15.99999999999939 17.99999999999757 0.02499999999994167
15.99999999999939 17.99999999999757 0.04999999999986857
15.99999999999939 17.99999999999757 0.0749999999999336
15.99999999999969 18.99999999999878 0.02499999999994167
15.99999999999969 18.99999999999879 0.04999999999986857
15.99999999999969 18.99999999999878 0.07499999999993358
16.99999999999566 0.9999999999992368 0.02499999999994167
16.99999999999566 0.9999999999992368 0.04999999999986857
16.99999999999566 0.9999999999992369 0.07499999999993358
16.99999999999589 1.99999999999862 0.02499999999994165
16.99999999999589 1.99999999999862 0.04999999999986856
16.9999999999959 1.999999999998622 0.07499999999993365
16.99999999999612 2.999999999997085 0.02499999999994165
16.99999999999612 2.999999999997084 0.04999999999986857
16.99999999999612 2.999999999997084 0.07499999999993359
16.99999999999635 3.999999999994599 0.02499999999994167
16.99999999999635 3.9999999999946 0.04999999999986857
16.99999999999635 3.9999999999946 0.07499999999993358
16.99999999999658 4.999999999992116 0.02499999999994167
16.99999999999658 4.999999999992116 0.04999999999986857
16.99999999999658 4.999999999992115 0.07499999999993363
16.9999999999968 5.999999999989635 0.02499999999994167
16.9999999999968 5.999999999989631 0.04999999999986856
16.9999999999968 5.999999999989631 0.07499999999993358
16.99999999999702 6.99999999998715 0.02499999999994165
16.99999999999703 6.999999999987153 0.04999999999986857
16.99999999999703 6.99999999998715 0.07499999999993358
16.99999999999725 7.99999999998473 0.02499999999994165
16.99999999999725 7.999999999984726 0.04999999999986853
16.99999999999725 7.99999999998473 0.07499999999993358
16.99999999999748 8.999999999985786 0.02499999999994167
16.99999999999748 8.99999999998579 0.04999999999986857
16.99999999999748 8.999999999985786 0.07499999999993365
16.99999999999772 9.999999999987079 0.02499999999994167
16.99999999999772 9.999999999987084 0.04999999999986857
16.99999999999772 9.99999999998708 0.0749999999999336
16.99999999999795 10.99999999998838 0.02499999999994166
16.99999999999795 10.99999999998837 0.04999999999986857
16.99999999999795 10.99999999998837 0.07499999999993365
16.99999999999817 11.99999999998967 0.02499999999994167
16.99999999999817 11.99999999998966 0.04999999999986856
16.99999999999817 11.99999999998967 0.07499999999993365
16.9999999999984 12.99999999999095 0.02499999999994167
16.9999999999984 12.99999999999095 0.04999999999986857
16.9999999999984 12.99999999999096 0.07499999999993358
16.99999999999862 13.99999999999224 0.02499999999994165
16.99999999999862 13.99999999999224 0.04999999999986857
16.99999999999862 13.99999999999224 0.07499999999993358
16.99999999999886 14.99999999999354 0.02499999999994167
16.99999999999886 14.99999999999354 0.04999999999986857
16.99999999999886 14.99999999999354 0.07499999999993363
16.99999999999908 15.99999999999484 0.02499999999994167
16.99999999999908 15.99999999999483 0.04999999999986857
16.99999999999908 15.99999999999483 0.07499999999993363
16.99999999999931 16.99999999999611 0.02499999999994165
16.99999999999931 16.99999999999612 0.04999999999986857
16.99999999999931 16.99999999999611 0.07499999999993363
16.99999999999953 17.99999999999741 0.02499999999994165
16.99999999999954 17.99999999999741 0.04999999999986857
16.99999999999953 17.99999999999741 0.07499999999993365
16.99999999999977 18.99999999999871 0.02499999999994165
16.99999999999978 18.99999999999871 0.04999999999986857
16.99999999999978 18.99999999999871 0.07499999999993363
17.99999999999709 0.9999999999991926 0.02499999999994166
17.9999999999971 0.9999999999991918 0.04999999999986857
17.9999999999971 0.9999999999991922 0.07499999999993363
17.99999999999725 1.999999999998539 0.02499999999994164
17.99999999999726 1.999999999998541 0.04999999999986856
17.99999999999726 1.999999999998539 0.07499999999993365
17.99999999999741 2.999999999996912 0.02499999999994165
17.99999999999741 2.999999999996912 0.04999999999986857
17.99999999999741 2.999999999996912 0.0749999999999336
17.99999999999756 3.999999999994285 0.02499999999994167
17.99999999999756 3.999999999994283 0.04999999999986856
17.99999999999756 3.999999999994283 0.07499999999993358
17.99999999999771 4.999999999991655 0.02499999999994165
17.99999999999771 4.999999999991655 0.04999999999986857
17.99999999999772 4.999999999991654 0.07499999999993366
17.99999999999786 5.999999999989023 0.02499999999994167
17.99999999999787 5.999999999989022 0.04999999999986856
17.99999999999788 5.999999999989018 0.07499999999993358
17.99999999999803 6.999999999986391 0.02499999999994166
17.99999999999802 6.999999999986392 0.04999999999986857
17.99999999999802 6.999999999986392 0.07499999999993365
17.99999999999817 7.99999999998383 0.02499999999994167
17.99999999999817 7.999999999983829 0.04999999999986856
17.99999999999818 7.99999999998383 0.0749999999999336
17.99999999999832 8.999999999984945 0.02499999999994166
17.99999999999832 8.999999999984949 0.04999999999986857
17.99999999999832 8.999999999984945 0.07499999999993366
17.99999999999847 9.99999999998632 0.02499999999994166
17.99999999999847 9.999999999986317 0.04999999999986857
17.99999999999847 9.999999999986318 0.0749999999999336
17.99999999999863 10.99999999998769 0.02499999999994166
17.99999999999863 10.99999999998769 0.04999999999986857
17.99999999999863 10.99999999998769 0.07499999999993366
17.99999999999878 11.99999999998906 0.02499999999994166
17.99999999999878 11.99999999998906 0.04999999999986857
17.99999999999878 11.99999999998906 0.07499999999993365
17.99999999999893 12.99999999999042 0.02499999999994166
17.99999999999893 12.99999999999042 0.04999999999986856
17.99999999999893 12.99999999999042 0.07499999999993363
17.99999999999908 13.99999999999179 0.02499999999994167
17.99999999999909 13.99999999999179 0.04999999999986857
17.99999999999908 13.99999999999179 0.07499999999993365
17.99999999999924 14.99999999999316 0.02499999999994167
17.99999999999923 14.99999999999316 0.04999999999986856
17.99999999999924 14.99999999999315 0.07499999999993366
17.9999999999994 15.99999999999453 0.02499999999994167
17.99999999999939 15.99999999999453 0.04999999999986857
17.9999999999994 15.99999999999453 0.07499999999993366
17.99999999999953 16.99999999999589 0.02499999999994166
17.99999999999953 16.99999999999589 0.04999999999986857
17.99999999999955 16.99999999999589 0.07499999999993365
17.99999999999969 17.99999999999725 0.02499999999994166
17.99999999999969 17.99999999999725 0.04999999999986857
17.99999999999969 17.99999999999725 0.07499999999993365
17.99999999999984 18.99999999999863 0.02499999999994167
17.99999999999984 18.99999999999863 0.04999999999986857
17.99999999999985 18.99999999999864 0.07499999999993363
18.99999999999855 0.999999999999147 0.02499999999994166
18.99999999999856 0.9999999999991465 0.04999999999986857
18.99999999999856 0.9999999999991469 0.07499999999993356
18.99999999999864 1.999999999998458 0.02499999999994165
18.99999999999864 1.999999999998459 0.04999999999986856
18.99999999999864 1.999999999998459 0.07499999999993362
18.99999999999871 2.99999999999674 0.02499999999994166
18.9999999999987 2.999999999996741 0.04999999999986857
18.99999999999871 2.999999999996739 0.07499999999993359
18.99999999999878 3.999999999993966 0.02499999999994167
18.99999999999879 3.999999999993964 0.04999999999986857
18.99999999999879 3.999999999993966 0.07499999999993356
18.99999999999886 4.999999999991188 0.02499999999994167
18.99999999999886 4.999999999991189 0.04999999999986857
18.99999999999887 4.999999999991189 0.07499999999993365
18.99999999999894 5.999999999988418 0.02499999999994167
18.99999999999893 5.999999999988414 0.04999999999986857
18.99999999999894 5.999999999988412 0.07499999999993358
18.99999999999901 6.999999999985643 0.02499999999994167
18.99999999999901 6.999999999985641 0.04999999999986857
18.99999999999902 6.999999999985644 0.07499999999993358
18.9999999999991 7.999999999982931 0.02499999999994166
18.99999999999909 7.999999999982934 0.04999999999986855
18.99999999999909 7.99999999998293 0.07499999999993362
18.99999999999917 8.999999999984116 0.02499999999994167
18.99999999999916 8.999999999984116 0.04999999999986857
18.99999999999917 8.999999999984112 0.07499999999993365
18.99999999999923 9.999999999985558 0.02499999999994167
18.99999999999924 9.999999999985562 0.04999999999986857
18.99999999999924 9.99999999998556 0.0749999999999336
18.99999999999932 10.99999999998701 0.02499999999994167
18.99999999999932 10.999999999987 0.04999999999986857
18.99999999999932 10.99999999998701 0.07499999999993368
18.9999999999994 11.99999999998845 0.02499999999994166
18.99999999999938 11.99999999998844 0.04999999999986856
18.99999999999939 11.99999999998844 0.07499999999993366
18.99999999999946 12.9999999999899 0.02499999999994167
18.99999999999947 12.9999999999899 0.04999999999986857
18.99999999999947 12.9999999999899 0.07499999999993358
18.99999999999954 13.99999999999133 0.02499999999994167
18.99999999999953 13.99999999999133 0.04999999999986857
18.99999999999954 13.99999999999133 0.07499999999993358
18.99999999999963 14.99999999999277 0.02499999999994167
18.99999999999963 14.99999999999278 0.04999999999986857
18.99999999999963 14.99999999999277 0.07499999999993359
18.99999999999969 15.99999999999423 0.02499999999994167
18.99999999999969 15.99999999999422 0.04999999999986857
18.99999999999969 15.99999999999423 0.07499999999993359
18.99999999999977 16.99999999999567 0.02499999999994167
18.99999999999977 16.99999999999567 0.04999999999986857
18.99999999999977 16.99999999999567 0.07499999999993358
18.99999999999984 17.9999999999971 0.02499999999994166
18.99999999999984 17.99999999999711 0.04999999999986857
18.99999999999985 17.9999999999971 0.07499999999993363
18.99999999999991 18.99999999999855 0.02499999999994167
18.99999999999992 18.99999999999856 0.04999999999986857
18.99999999999992 18.99999999999856 0.07499999999993358
CELLS 1600 14400
8 0 8 172 83 160 894 1122 1119
8 160 894 1122 1119 161 895 1123 1120
8 161 895 1123 1120 162 896 1124 1121
8 162 896 1124 1121 4 84 533 159
8 83 172 173 82 1119 1122 1125 1116
8 1119 1122 1125 1116 1120 1123 1126 1117
8 1120 1123 1126 1117 1121 1124 1127 1118
8 1121 1124 1127 1118 159 533 534 158
8 82 173 174 81 1116 1125 1128 1113
8 1116 1125 1128 1113 1117 1126 1129 1114
8 1117 1126 1129 1114 1118 1127 1130 1115
8 1118 1127 1130 1115 158 534 535 157
8 81 174 175 80 1113 1128 1131 1110
8 1113 1128 1131 1110 1114 1129 1132 1111
8 1114 1129 1132 1111 1115 1130 1133 1112
8 1115 1130 1133 1112 157 535 536 156
8 80 175 176 79 1110 1131 1134 1107
8 1110 1131 1134 1107 1111 1132 1135 1108
8 1111 1132 1135 1108 1112 1133 1136 1109
8 1112 1133 1136 1109 156 536 537 155
8 79 176 177 78 1107 1134 1137 1104
8 1107 1134 1137 1104 1108 1135 1138 1105
8 1108 1135 1138 1105 1109 1136 1139 1106
8 1109 1136 1139 1106 155 537 538 154
8 78 177 178 77 1104 1137 1140 1101
8 1104 1137 1140 1101 1105 1138 1141 1102
8 1105 1138 1141 1102 1106 1139 1142 1103
8 1106 1139 1142 1103 154 538 539 153
8 77 178 179 76 1101 1140 1143 1098
8 1101 1140 1143 1098 1102 1141 1144 1099
8 1102 1141 1144 1099 1103 1142 1145 1100
8 1103 1142 1145 1100 153 539 540 152
8 76 179 180 75 1098 1143 1146 1095
8 1098 1143 1146 1095 1099 1144 1147 1096
8 1099 1144 1147 1096 1100 1145 1148 1097
8 1100 1145 1148 1097 152 540 541 151
8 75 180 181 74 1095 1146 1149 1092
8 1095 1146 1149 1092 1096 1147 1150 1093
8 1096 1147 1150 1093 1097 1148 1151 1094
8 1097 1148 1151 1094 151 541 542 150
8 74 181 182 73 1092 1149 1152 1089
8 1092 1149 1152 1089 1093 1150 1153 1090
8 1093 1150 1153 1090 1094 1151 1154 1091
8 1094 1151 1154 1091 150 542 543 149
8 73 182 183 72 1089 1152 1155 1086
8 1089 1152 1155 1086 1090 1153 1156 1087
8 1090 1153 1156 1087 1091 1154 1157 1088
8 1091 1154 1157 1088 149 543 544 148
8 72 183 184 71 1086 1155 1158 1083
8 1086 1155 1158 1083 1087 1156 1159 1084
8 1087 1156 1159 1084 1088 1157 1160 1085
8 1088 1157 1160 1085 148 544 545 147
8 71 184 185 70 1083 1158 1161 1080
8 1083 1158 1161 1080 1084 1159 1162 1081
8 1084 1159 1162 1081 1085 1160 1163 1082
8 1085 1160 1163 1082 147 545 546 146
8 70 185 186 69 1080 1161 1164 1077
8 1080 1161 1164 1077 1081 1162 1165 1078
8 1081 1162 1165 1078 1082 1163 1166 1079
8 1082 1163 1166 1079 146 546 547 145
8 69 186 187 68 1077 1164 1167 1074
8 1077 1164 1167 1074 1078 1165 1168 1075
8 1078 1165 1168 1075 1079 1166 1169 1076
8 1079 1166 1169 1076 145 547 548 144
8 68 187 188 67 1074 1167 1170 1071
8 1074 1167 1170 1071 1075 1168 1171 1072
8 1075 1168 1171 1072 1076 1169 1172 1073
8 1076 1169 1172 1073 144 548 549 143
8 67 188 189 66 1071 1170 1173 1068
8 1071 1170 1173 1068 1072 1171 1174 1069
8 1072 1171 1174 1069 1073 1172 1175 1070
8 1073 1172 1175 1070 143 549 550 142
8 66 189 190 65 1068 1173 1176 1065
8 1068 1173 1176 1065 1069 1174 1177 1066
8 1069 1174 1177 1066 1070 1175 1178 1067
8 1070 1175 1178 1067 142 550 551 141
8 65 190 64 3 1065 1176 1062 169
8 1065 1176 1062 169 1066 1177 1063 170
8 1066 1177 1063 170 1067 1178 1064 171
8 1067 1178 1064 171 141 551 140 7
8 8 9 191 172 894 897 1179 1122
8 894 897 1179 1122 895 898 1180 1123
8 895 898 1180 1123 896 899 1181 1124
8 896 899 1181 1124 84 85 552 533
8 172 191 192 173 1122 1179 1182 1125
8 1122 1179 1182 1125 1123 1180 1183 1126
8 1123 1180 1183 1126 1124 1181 1184 1127
8 1124 1181 1184 1127 533 552 553 534
8 173 192 193 174 1125 1182 1185 1128
8 1125 1182 1185 1128 1126 1183 1186 1129
8 1126 1183 1186 1129 1127 1184 1187 1130
8 1127 1184 1187 1130 534 553 554 535
8 174 193 194 175 1128 1185 1188 1131
8 1128 1185 1188 1131 1129 1186 1189 1132
8 1129 1186 1189 1132 1130 1187 1190 1133
8 1130 1187 1190 1133 535 554 555 536
8 175 194 195 176 1131 1188 1191 1134
8 1131 1188 1191 1134 1132 1189 1192 1135
8 1132 1189 1192 1135 1133 1190 1193 1136
8 1133 1190 1193 1136 536 555 556 537
8 176 195 196 177 1134 1191 1194 1137
8 1134 1191 1194 1137 1135 1192 1195 1138
8 1135 1192 1195 1138 1136 1193 1196 1139
8 1136 1193 1196 1139 537 556 557 538
8 177 196 197 178 1137 1194 1197 1140
8 1137 1194 1197 1140 1138 1195 1198 1141
8 1138 1195 1198 1141 1139 1196 1199 1142
8 1139 1196 1199 1142 538 557 558 539
8 178 197 198 179 1140 1197 1200 1143
8 1140 1197 1200 1143 1141 1198 1201 1144
8 1141 1198 1201 1144 1142 1199 1202 1145
8 1142 1199 1202 1145 539 558 559 540
8 179 198 199 180 1143 1200 1203 1146
8 1143 1200 1203 1146 1144 1201 1204 1147
8 1144 1201 1204 1147 1145 1202 1205 1148
8 1145 1202 1205 1148 540 559 560 541
8 180 199 200 181 1146 1203 1206 1149
8 1146 1203 1206 1149 1147 1204 1207 1150
8 1147 1204 1207 1150 1148 1205 1208 1151
8 1148 1205 1208 1151 541 560 561 542
8 181 200 201 182 1149 1206 1209 1152
8 1149 1206 1209 1152 1150 1207 1210 1153
8 1150 1207 1210 1153 1151 1208 1211 1154
8 1151 1208 1211 1154 542 561 562 543
8 182 201 202 183 1152 1209 1212 1155
8 1152 1209 1212 1155 1153 1210 1213 1156
8 1153 1210 1213 1156 1154 1211 1214 1157
8 1154 1211 1214 1157 543 562 563 544
8 183 202 203 184 1155 1212 1215 1158
8 1155 1212 1215 1158 1156 1213 1216 1159
8 1156 1213 1216 1159 1157 1214 1217 1160
8 1157 1214 1217 1160 544 563 564 545
8 184 203 204 185 1158 1215 1218 1161
8 1158 1215 1218 1161 1159 1216 1219 1162
8 1159 1216 1219 1162 1160 1217 1220 1163
8 1160 1217 1220 1163 545 564 565 546
8 185 204 205 186 1161 1218 1221 1164
8 1161 1218 1221 1164 1162 1219 1222 1165
8 1162 1219 1222 1165 1163 1220 1223 1166
8 1163 1220 1223 1166 546 565 566 547
8 186 205 206 187 1164 1221 1224 1167
8 1164 1221 1224 1167 1165 1222 1225 1168
8 1165 1222 1225 1168 1166 1223 1226 1169
8 1166 1223 1226 1169 547 566 567 548
8 187 206 207 188 1167 1224 1227 1170
8 1167 1224 1227 1170 1168 1225 1228 1171
8 1168 1225 1228 1171 1169 1226 1229 1172
8 1169 1226 1229 1172 548 567 568 549
8 188 207 208 189 1170 1227 1230 1173
8 1170 1227 1230 1173 1171 1228 1231 1174
8 1171 1228 1231 1174 1172 1229 1232 1175
8 1172 1229 1232 1175 549 568 569 550
8 189 208 209 190 1173 1230 1233 1176
8 1173 1230 1233 1176 1174 1231 1234 1177
8 1174 1231 1234 1177 1175 1232 1235 1178
8 1175 1232 1235 1178 550 569 570 551
8 190 209 63 64 1176 1233 1059 1062
8 1176 1233 1059 1062 1177 1234 1060 1063
8 1177 1234 1060 1063 1178 1235 1061 1064
8 1178 1235 1061 1064 551 570 139 140
8 9 10 210 191 897 900 1236 1179
8 897 900 1236 1179 898 901 1237 1180
8 898 901 1237 1180 899 902 1238 1181
8 899 902 1238 1181 85 86 571 552
8 191 210 211 192 1179 1236 1239 1182
8 1179 1236 1239 1182 1180 1237 1240 1183
8 1180 1237 1240 1183 1181 1238 1241 1184
8 1181 1238 1241 1184 552 571 572 553
8 192 211 212 193 1182 1239 1242 1185
8 1182 1239 1242 1185 1183 1240 1243 1186
8 1183 1240 1243 1186 1184 1241 1244 1187
8 1184 1241 1244 1187 553 572 573 554
8 193 212 213 194 1185 1242 1245 1188
8 1185 1242 1245 1188 1186 1243 1246 1189
8 1186 1243 1246 1189 1187 1244 1247 1190
8 1187 1244 1247 1190 554 573 574 555
8 194 213 214 195 1188 1245 1248 1191
8 1188 1245 1248 1191 1189 1246 1249 1192
8 1189 1246 1249 1192 1190 1247 1250 1193
8 1190 1247 1250 1193 555 574 575 556
8 195 214 215 196 1191 1248 1251 1194
8 1191 1248 1251 1194 1192 1249 1252 1195
8 1192 1249 1252 1195 1193 1250 1253 1196
8 1193 1250 1253 1196 556 575 576 557
8 196 215 216 197 1194 1251 1254 1197
8 1194 1251 1254 1197 1195 1252 1255 1198
8 1195 1252 1255 1198 1196 1253 1256 1199
8 1196 1253 1256 1199 557 576 577 558
8 197 216 217 198 1197 1254 1257 1200
8 1197 1254 1257 1200 1198 1255 1258 1201
8 1198 1255 1258 1201 1199 1256 1259 1202
8 1199 1256 1259 1202 558 577 578 559
8 198 217 218 199 1200 1257 1260 1203
8 1200 1257 1260 1203 1201 1258 1261 1204
8 1201 1258 1261 1204 1202 1259 1262 1205
8 1202 1259 1262 1205 559 578 579 560
8 199 218 219 200 1203 1260 1263 1206
8 1203 1260 1263 1206 1204 1261 1264 1207
8 1204 1261 1264 1207 1205 1262 1265 1208
8 1205 1262 1265 1208 560 579 580 561
8 200 219 220 201 1206 1263 1266 1209
8 1206 1263 1266 1209 1207 1264 1267 1210
8 1207 1264 1267 1210 1208 1265 1268 1211
8 1208 1265 1268 1211 561 580 581 562
8 201 220 221 202 1209 1266 1269 1212
8 1209 1266 1269 1212 1210 1267 1270 1213
8 1210 1267 1270 1213 1211 1268 1271 1214
8 1211 1268 1271 1214 562 581 582 563
8 202 221 222 203 1212 1269 1272 1215
8 1212 1269 1272 1215 1213 1270 1273 1216
8 1213 1270 1273 1216 1214 1271 1274 1217
8 1214 1271 1274 1217 563 582 583 564
8 203 222 223 204 1215 1272 1275 1218
8 1215 1272 1275 1218 1216 1273 1276 1219
8 1216 1273 1276 1219 1217 1274 1277 1220
8 1217 1274 1277 1220 564 583 584 565
8 204 223 224 205 1218 1275 1278 1221
8 1218 1275 1278 1221 1219 1276 1279 1222
8 1219 1276 1279 1222 1220 1277 1280 1223
8 1220 1277 1280 1223 565 584 585 566
8 205 224 225 206 1221 1278 1281 1224
8 1221 1278 1281 1224 1222 1279 1282 1225
8 1222 1279 1282 1225 1223 1280 1283 1226
8 1223 1280 1283 1226 566 585 586 567
8 206 225 226 207 1224 1281 1284 1227
8 1224 1281 1284 1227 1225 1282 1285 1228
8 1225 1282 1285 1228 1226 1283 1286 1229
8 1226 1283 1286 1229 567 586 587 568
8 207 226 227 208 1227 1284 1287 1230
8 1227 1284 1287 1230 1228 1285 1288 1231
8 1228 1285 1288 1231 1229 1286 1289 1232
8 1229 1286 1289 1232 568 587 588 569
8 208 227 228 209 1230 1287 1290 1233
8 1230 1287 1290 1233 1231 1288 1291 1234
8 1231 1288 1291 1234 1232 1289 1292 1235
8 1232 1289 1292 1235 569 588 589 570
8 209 228 62 63 1233 1290 1056 1059
8 1233 1290 1056 1059 1234 1291 1057 1060
8 1234 1291 1057 1060 1235 1292 1058 1061
8 1235 1292 1058 1061 570 589 138 139
8 10 11 229 210 900 903 1293 1236
8 900 903 1293 1236 901 904 1294 1237
8 901 904 1294 1237 902 905 1295 1238
8 902 905 1295 1238 86 87 590 571
8 210 229 230 211 1236 1293 1296 1239
8 1236 1293 1296 1239 1237 1294 1297 1240
8 1237 1294 1297 1240 1238 1295 1298 1241
8 1238 1295 1298 1241 571 590 591 572
8 211 230 231 212 1239 1296 1299 1242
8 1239 1296 1299 1242 1240 1297 1300 1243
8 1240 1297 1300 1243 1241 1298 1301 1244
8 1241 1298 1301 1244 572 591 592 573
8 212 231 232 213 1242 1299 1302 1245
8 1242 1299 1302 1245 1243 1300 1303 1246
8 1243 1300 1303 1246 1244 1301 1304 1247
8 1244 1301 1304 1247 573 592 593 574
8 213 232 233 214 1245 1302 1305 1248
8 1245 1302 1305 1248 1246 1303 1306 1249
8 1246 1303 1306 1249 1247 1304 1307 1250
8 1247 1304 1307 1250 574 593 594 575
8 214 233 234 215 1248 1305 1308 1251
8 1248 1305 1308 1251 1249 1306 1309 1252
8 1249 1306 1309 1252 1250 1307 1310 1253
8 1250 1307 1310 1253 575 594 595 576
8 215 234 235 216 1251 1308 1311 1254
8 1251 1308 1311 1254 1252 1309 1312 1255
8 1252 1309 1312 1255 1253 1310 1313 1256
8 1253 1310 1313 1256 576 595 596 577
8 216 235 236 217 1254 1311 1314 1257
8 1254 1311 1314 1257 1255 1312 1315 1258
8 1255 1312 1315 1258 1256 1313 1316 1259
8 1256 1313 1316 1259 577 596 597 578
8 217 236 237 218 1257 1314 1317 1260
8 1257 1314 1317 1260 1258 1315 1318 1261
8 1258 1315 1318 1261 1259 1316 1319 1262
8 1259 1316 1319 1262 578 597 598 579
8 218 237 238 219 1260 1317 1320 1263
8 1260 1317 1320 1263 1261 1318 1321 1264
8 1261 1318 1321 1264 1262 1319 1322 1265
8 1262 1319 1322 1265 579 598 599 580
8 219 238 239 220 1263 1320 1323 1266
8 1263 1320 1323 1266 1264 1321 1324 1267
8 1264 1321 1324 1267 1265 1322 1325 1268
8 1265 1322 1325 1268 580 599 600 581
8 220 239 240 221 1266 1323 1326 1269
8 1266 1323 1326 1269 1267 1324 1327 1270
8 1267 1324 1327 1270 1268 1325 1328 1271
8 1268 1325 1328 1271 581 600 601 582
8 221 240 241 222 1269 1326 1329 1272
8 1269 1326 1329 1272 1270 1327 1330 1273
8 1270 1327 1330 1273 1271 1328 1331 1274
8 1271 1328 1331 1274 582 601 602 583
8 222 241 242 223 1272 1329 1332 1275
8 1272 1329 1332 1275 1273 1330 1333 1276
8 1273 1330 1333 1276 1274 1331 1334 1277
8 1274 1331 1334 1277 583 602 603 584
8 223 242 243 224 1275 1332 1335 1278
8 1275 1332 1335 1278 1276 1333 1336 1279
8 1276 1333 1336 1279 1277 1334 1337 1280
8 1277 1334 1337 1280 584 603 604 585
8 224 243 244 225 1278 1335 1338 1281
8 1278 1335 1338 1281 1279 1336 1339 1282
8 1279 1336 1339 1282 1280 1337 1340 1283
8 1280 1337 1340 1283 585 604 605 586
8 225 244 245 226 1281 1338 1341 1284
8 1281 1338 1341 1284 1282 1339 1342 1285
8 1282 1339 1342 1285 1283 1340 1343 1286
8 1283 1340 1343 1286 586 605 606 587
8 226 245 246 227 1284 1341 1344 1287
8 1284 1341 1344 1287 1285 1342 1345 1288
8 1285 1342 1345 1288 1286 1343 1346 1289
8 1286 1343 1346 1289 587 606 607 588
8 227 246 247 228 1287 1344 1347 1290
8 1287 1344 1347 1290 1288 1345 1348 1291
8 1288 1345 1348 1291 1289 1346 1349 1292
8 1289 1346 1349 1292 588 607 608 589
8 228 247 61 62 1290 1347 1053 1056
8 1290 1347 1053 1056 1291 1348 1054 1057
8 1291 1348 1054 1057 1292 1349 1055 1058
8 1292 1349 1055 1058 589 608 137 138
8 11 12 248 229 903 906 1350 1293
8 903 906 1350 1293 904 907 1351 1294
8 904 907 1351 1294 905 908 1352 1295
8 905 908 1352 1295 87 88 609 590
8 229 248 249 230 1293 1350 1353 1296
8 1293 1350 1353 1296 1294 1351 1354 1297
8 1294 1351 1354 1297 1295 1352 1355 1298
8 1295 1352 1355 1298 590 609 610 591
8 230 249 250 231 1296 1353 1356 1299
8 1296 1353 1356 1299 1297 1354 1357 1300
8 1297 1354 1357 1300 1298 1355 1358 1301
8 1298 1355 1358 1301 591 610 611 592
8 231 250 251 232 1299 1356 1359 1302
8 1299 1356 1359 1302 1300 1357 1360 1303
8 1300 1357 1360 1303 1301 1358 1361 1304
8 1301 1358 1361 1304 592 611 612 593
8 232 251 252 233 1302 1359 1362 1305
8 1302 1359 1362 1305 1303 1360 1363 1306
8 1303 1360 1363 1306 1304 1361 1364 1307
8 1304 1361 1364 1307 593 612 613 594
8 233 252 253 234 1305 1362 1365 1308
8 1305 1362 1365 1308 1306 1363 1366 1309
8 1306 1363 1366 1309 1307 1364 1367 1310
8 1307 1364 1367 1310 594 613 614 595
8 234 253 254 235 1308 1365 1368 1311
8 1308 1365 1368 1311 1309 1366 1369 1312
8 1309 1366 1369 1312 1310 1367 1370 1313
8 1310 1367 1370 1313 595 614 615 596
8 235 254 255 236 1311 1368 1371 1314
8 1311 1368 1371 1314 1312 1369 1372 1315
8 1312 1369 1372 1315 1313 1370 1373 1316
8 1313 1370 1373 1316 596 615 616 597
8 236 255 256 237 1314 1371 1374 1317
8 1314 1371 1374 1317 1315 1372 1375 1318
8 1315 1372 1375 1318 1316 1373 1376 1319
8 1316 1373 1376 1319 597 616 617 598
8 237 256 257 238 1317 1374 1377 1320
8 1317 1374 1377 1320 1318 1375 1378 1321
8 1318 1375 1378 1321 1319 1376 1379 1322
8 1319 1376 1379 1322 598 617 618 599
8 238 257 258 239 1320 1377 1380 1323
8 1320 1377 1380 1323 1321 1378 1381 1324
8 1321 1378 1381 1324 1322 1379 1382 1325
8 1322 1379 1382 1325 599 618 619 600
8 239 258 259 240 1323 1380 1383 1326
8 1323 1380 1383 1326 1324 1381 1384 1327
8 1324 1381 1384 1327 1325 1382 1385 1328
8 1325 1382 1385 1328 600 619 620 601
8 240 259 260 241 1326 1383 1386 1329
8 1326 1383 1386 1329 1327 1384 1387 1330
8 1327 1384 1387 1330 1328 1385 1388 1331
8 1328 1385 1388 1331 601 620 621 602
8 241 260 261 242 1329 1386 1389 1332
8 1329 1386 1389 1332 1330 1387 1390 1333
8 1330 1387 1390 1333 1331 1388 1391 1334
8 1331 1388 1391 1334 602 621 622 603
8 242 261 262 243 1332 1389 1392 1335
8 1332 1389 1392 1335 1333 1390 1393 1336
8 1333 1390 1393 1336 1334 1391 1394 1337
8 1334 1391 1394 1337 603 622 623 604
8 243 262 263 244 1335 1392 1395 1338
8 1335 1392 1395 1338 1336 1393 1396 1339
8 1336 1393 1396 1339 1337 1394 1397 1340
8 1337 1394 1397 1340 604 623 624 605
8 244 263 264 245 1338 1395 1398 1341
8 1338 1395 1398 1341 1339 1396 1399 1342
8 1339 1396 1399 1342 1340 1397 1400 1343
8 1340 1397 1400 1343 605 624 625 606
8 245 264 265 246 1341 1398 1401 1344
8 1341 1398 1401 1344 1342 1399 1402 1345
8 1342 1399 1402 1345 1343 1400 1403 1346
8 1343 1400 1403 1346 606 625 626 607
8 246 265 266 247 1344 1401 1404 1347
8 1344 1401 1404 1347 1345 1402 1405 1348
8 1345 1402 1405 1348 1346 1403 1406 1349
8 1346 1403 1406 1349 607 626 627 608
8 247 266 60 61 1347 1404 1050 1053
8 1347 1404 1050 1053 1348 1405 1051 1054
8 1348 1405 1051 1054 1349 1406 1052 1055
8 1349 1406 1052 1055 608 627 136 137
8 12 13 267 248 906 909 1407 1350
8 906 909 1407 1350 907 910 1408 1351
8 907 910 1408 1351 908 911 1409 1352
8 908 911 1409 1352 88 89 628 609
8 248 267 268 249 1350 1407 1410 1353
8 1350 1407 1410 1353 1351 1408 1411 1354
8 1351 1408 1411 1354 1352 1409 1412 1355
8 1352 1409 1412 1355 609 628 629 610
8 249 268 269 250 1353 1410 1413 1356
8 1353 1410 1413 1356 1354 1411 1414 1357
8 1354 1411 1414 1357 1355 1412 1415 1358
8 1355 1412 1415 1358 610 629 630 611
8 250 269 270 251 1356 1413 1416 1359
8 1356 1413 1416 1359 1357 1414 1417 1360
8 1357 1414 1417 1360 1358 1415 1418 1361
8 1358 1415 1418 1361 611 630 631 612
8 251 270 271 252 1359 1416 1419 1362
8 1359 1416 1419 1362 1360 1417 1420 1363
8 1360 1417 1420 1363 1361 1418 1421 1364
8 1361 1418 1421 1364 612 631 632 613
8 252 271 272 253 1362 1419 1422 1365
8 1362 1419 1422 1365 1363 1420 1423 1366
8 1363 1420 1423 1366 1364 1421 1424 1367
8 1364 1421 1424 1367 613 632 633 614
8 253 272 273 254 1365 1422 1425 1368
8 1365 1422 1425 1368 1366 1423 1426 1369
8 1366 1423 1426 1369 1367 1424 1427 1370
8 1367 1424 1427 1370 614 633 634 615
8 254 273 274 255 1368 1425 1428 1371
8 1368 1425 1428 1371 1369 1426 1429 1372
8 1369 1426 1429 1372 1370 1427 1430 1373
8 1370 1427 1430 1373 615 634 635 616
8 255 274 275 256 1371 1428 1431 1374
8 1371 1428 1431 1374 1372 1429 1432 1375
8 1372 1429 1432 1375 1373 1430 1433 1376
8 1373 1430 1433 1376 616 635 636 617
8 256 275 276 257 1374 1431 1434 1377
8 1374 1431 1434 1377 1375 1432 1435 1378
8 1375 1432 1435 1378 1376 1433 1436 1379
8 1376 1433 1436 1379 617 636 637 618
8 257 276 277 258 1377 1434 1437 1380
8 1377 1434 1437 1380 1378 1435 1438 1381
8 1378 1435 1438 1381 1379 1436 1439 1382
8 1379 1436 1439 1382 618 637 638 619
8 258 277 278 259 1380 1437 1440 1383
8 1380 1437 1440 1383 1381 1438 1441 1384
8 1381 1438 1441 1384 1382 1439 1442 1385
8 1382 1439 1442 1385 619 638 639 620
8 259 278 279 260 1383 1440 1443 1386
8 1383 1440 1443 1386 1384 1441 1444 1387
8 1384 1441 1444 1387 1385 1442 1445 1388
8 1385 1442 1445 1388 620 639 640 621
8 260 279 280 261 1386 1443 1446 1389
8 1386 1443 1446 1389 1387 1444 1447 1390
8 1387 1444 1447 1390 1388 1445 1448 1391
8 1388 1445 1448 1391 621 640 641 622
8 261 280 281 262 1389 1446 1449 1392
8 1389 1446 1449 1392 1390 1447 1450 1393
8 1390 1447 1450 1393 1391 1448 1451 1394
8 1391 1448 1451 1394 622 641 642 623
8 262 281 282 263 1392 1449 1452 1395
8 1392 1449 1452 1395 1393 1450 1453 1396
8 1393 1450 1453 1396 1394 1451 1454 1397
8 1394 1451 1454 1397 623 642 643 624
8 263 282 283 264 1395 1452 1455 1398
8 1395 1452 1455 1398 1396 1453 1456 1399
8 1396 1453 1456 1399 1397 1454 1457 1400
8 1397 1454 1457 1400 624 643 644 625
8 264 283 284 265 1398 1455 1458 1401
8 1398 1455 1458 1401 1399 1456 1459 1402
8 1399 1456 1459 1402 1400 1457 1460 1403
8 1400 1457 1460 1403 625 644 645 626
8 265 284 285 266 1401 1458 1461 1404
8 1401 1458 1461 1404 1402 1459 1462 1405
8 1402 1459 1462 1405 1403 1460 1463 1406
8 1403 1460 1463 1406 626 645 646 627
8 266 285 59 60 1404 1461 1047 1050
8 1404 1461 1047 1050 1405 1462 1048 1051
8 1405 1462 1048 1051 1406 1463 1049 1052
8 1406 1463 1049 1052 627 646 135 136
8 13 14 286 267 909 912 1464 1407
8 909 912 1464 1407 910 913 1465 1408
8 910 913 1465 1408 911 914 1466 1409
8 911 914 1466 1409 89 90 647 628
8 267 286 287 268 1407 1464 1467 1410
8 1407 1464 1467 1410 1408 1465 1468 1411
8 1408 1465 1468 1411 1409 1466 1469 1412
8 1409 1466 1469 1412 628 647 648 629
8 268 287 288 269 1410 1467 1470 1413
8 1410 1467 1470 1413 1411 1468 1471 1414
8 1411 1468 1471 1414 1412 1469 1472 1415
8 1412 1469 1472 1415 629 648 649 630
8 269 288 289 270 1413 1470 1473 1416
8 1413 1470 1473 1416 1414 1471 1474 1417
8 1414 1471 1474 1417 1415 1472 1475 1418
8 1415 1472 1475 1418 630 649 650 631
8 270 289 290 271 1416 1473 1476 1419
8 1416 1473 1476 1419 1417 1474 1477 1420
8 1417 1474 1477 1420 1418 1475 1478 1421
8 1418 1475 1478 1421 631 650 651 632
8 271 290 291 272 1419 1476 1479 1422
8 1419 1476 1479 1422 1420 1477 1480 1423
8 1420 1477 1480 1423 1421 1478 1481 1424
8 1421 1478 1481 1424 632 651 652 633
8 272 291 292 273 1422 1479 1482 1425
8 1422 1479 1482 1425 1423 1480 1483 1426
8 1423 1480 1483 1426 1424 1481 1484 1427
8 1424 1481 1484 1427 633 652 653 634
8 273 292 293 274 1425 1482 1485 1428
8 1425 1482 1485 1428 1426 1483 1486 1429
8 1426 1483 1486 1429 1427 1484 1487 1430
8 1427 1484 1487 1430 634 653 654 635
8 274 293 294 275 1428 1485 1488 1431
8 1428 1485 1488 1431 1429 1486 1489 1432
8 1429 1486 1489 1432 1430 1487 1490 1433
8 1430 1487 1490 1433 635 654 655 636
8 275 294 295 276 1431 1488 1491 1434
8 1431 1488 1491 1434 1432 1489 1492 1435
8 1432 1489 1492 1435 1433 1490 1493 1436
8 1433 1490 1493 1436 636 655 656 637
8 276 295 296 277 1434 1491 1494 1437
8 1434 1491 1494 1437 1435 1492 1495 1438
8 1435 1492 1495 1438 1436 1493 1496 1439
8 1436 1493 1496 1439 637 656 657 638
8 277 296 297 278 1437 1494 1497 1440
8 1437 1494 1497 1440 1438 1495 1498 1441
8 1438 1495 1498 1441 1439 1496 1499 1442
8 1439 1496 1499 1442 638 657 658 639
8 278 297 298 279 1440 1497 1500 1443
8 1440 1497 1500 1443 1441 1498 1501 1444
8 1441 1498 1501 1444 1442 1499 1502 1445
8 1442 1499 1502 1445 639 658 659 640
8 279 298 299 280 1443 1500 1503 1446
8 1443 1500 1503 1446 1444 1501 1504 1447
8 1444 1501 1504 1447 1445 1502 1505 1448
8 1445 1502 1505 1448 640 659 660 641
8 280 299 300 281 1446 1503 1506 1449
8 1446 1503 1506 1449 1447 1504 1507 1450
8 1447 1504 1507 1450 1448 1505 1508 1451
8 1448 1505 1508 1451 641 660 661 642
8 281 300 301 282 1449 1506 1509 1452
8 1449 1506 1509 1452 1450 1507 1510 1453
8 1450 1507 1510 1453 1451 1508 1511 1454
8 1451 1508 1511 1454 642 661 662 643
8 282 301 302 283 1452 1509 1512 1455
8 1452 1509 1512 1455 1453 1510 1513 1456
8 1453 1510 1513 1456 1454 1511 1514 1457
8 1454 1511 1514 1457 643 662 663 644
8 283 302 303 284 1455 1512 1515 1458
8 1455 1512 1515 1458 1456 1513 1516 1459
8 1456 1513 1516 1459 1457 1514 1517 1460
8 1457 1514 1517 1460 644 663 664 645
8 284 303 304 285 1458 1515 1518 1461
8 1458 1515 1518 1461 1459 1516 1519 1462
8 1459 1516 1519 1462 1460 1517 1520 1463
8 1460 1517 1520 1463 645 664 665 646
8 285 304 58 59 1461 1518 1044 1047
8 1461 1518 1044 1047 1462 1519 1045 1048
8 1462 1519 1045 1048 1463 1520 1046 1049
8 1463 1520 1046 1049 646 665 134 135
8 14 15 305 286 912 915 1521 1464
8 912 915 1521 1464 913 916 1522 1465
8 913 916 1522 1465 914 917 1523 1466
8 914 917 1523 1466 90 91 666 647
8 286 305 306 287 1464 1521 1524 1467
8 1464 1521 1524 1467 1465 1522 1525 1468
8 1465 1522 1525 1468 1466 1523 1526 1469
8 1466 1523 1526 1469 647 666 667 648
8 287 306 307 288 1467 1524 1527 1470
8 1467 1524 1527 1470 1468 1525 1528 1471
8 1468 1525 1528 1471 1469 1526 1529 1472
8 1469 1526 1529 1472 648 667 668 649
8 288 307 308 289 1470 1527 1530 1473
8 1470 1527 1530 1473 1471 1528 1531 1474
8 1471 1528 1531 1474 1472 1529 1532 1475
8 1472 1529 1532 1475 649 668 669 650
8 289 308 309 290 1473 1530 1533 1476
8 1473 1530 1533 1476 1474 1531 1534 1477
8 1474 1531 1534 1477 1475 1532 1535 1478
8 1475 1532 1535 1478 650 669 670 651
8 290 309 310 291 1476 1533 1536 1479
8 1476 1533 1536 1479 1477 1534 1537 1480
8 1477 1534 1537 1480 1478 1535 1538 1481
8 1478 1535 1538 1481 651 670 671 652
8 291 310 311 292 1479 1536 1539 1482
8 1479 1536 1539 1482 1480 1537 1540 1483
8 1480 1537 1540 1483 1481 1538 1541 1484
8 1481 1538 1541 1484 652 671 672 653
8 292 311 312 293 1482 1539 1542 1485
8 1482 1539 1542 1485 1483 1540 1543 1486
8 1483 1540 1543 1486 1484 1541 1544 1487
8 1484 1541 1544 1487 653 672 673 654
8 293 312 313 294 1485 1542 1545 1488
8 1485 1542 1545 1488 1486 1543 1546 1489
8 1486 1543 1546 1489 1487 1544 1547 1490
8 1487 1544 1547 1490 654 673 674 655
8 294 313 314 295 1488 1545 1548 1491
8 1488 1545 1548 1491 1489 1546 1549 1492
8 1489 1546 1549 1492 1490 1547 1550 1493
8 1490 1547 1550 1493 655 674 675 656
8 295 314 315 296 1491 1548 1551 1494
8 1491 1548 1551 1494 1492 1549 1552 1495
8 1492 1549 1552 1495 1493 1550 1553 1496
8 1493 1550 1553 1496 656 675 676 657
8 296 315 316 297 1494 1551 1554 1497
8 1494 1551 1554 1497 1495 1552 1555 1498
8 1495 1552 1555 1498 1496 1553 1556 1499
8 1496 1553 1556 1499 657 676 677 658
8 297 316 317 298 1497 1554 1557 1500
8 1497 1554 1557 1500 1498 1555 1558 1501
8 1498 1555 1558 1501 1499 1556 1559 1502
8 1499 1556 1559 1502 658 677 678 659
8 298 317 318 299 1500 1557 1560 1503
8 1500 1557 1560 1503 1501 1558 1561 1504
8 1501 1558 1561 1504 1502 1559 1562 1505
8 1502 1559 1562 1505 659 678 679 660
8 299 318 319 300 1503 1560 1563 1506
8 1503 1560 1563 1506 1504 1561 1564 1507
8 1504 1561 1564 1507 1505 1562 1565 1508
8 1505 1562 1565 1508 660 679 680 661
8 300 319 320 301 1506 1563 1566 1509
8 1506 1563 1566 1509 1507 1564 1567 1510
8 1507 1564 1567 1510 1508 1565 1568 1511
8 1508 1565 1568 1511 661 680 681 662
8 301 320 321 302 1509 1566 1569 1512
8 1509 1566 1569 1512 1510 1567 1570 1513
8 1510 1567 1570 1513 1511 1568 1571 1514
8 1511 1568 1571 1514 662 681 682 663
8 302 321 322 303 1512 1569 1572 1515
8 1512 1569 1572 1515 1513 1570 1573 1516
8 1513 1570 1573 1516 1514 1571 1574 1517
8 1514 1571 1574 1517 663 682 683 664
8 303 322 323 304 1515 1572 1575 1518
8 1515 1572 1575 1518 1516 1573 1576 1519
8 1516 1573 1576 1519 1517 1574 1577 1520
8 1517 1574 1577 1520 664 683 684 665
8 304 323 57 58 1518 1575 1041 1044
8 1518 1575 1041 1044 1519 1576 1042 1045
8 1519 1576 1042 1045 1520 1577 1043 1046
8 1520 1577 1043 1046 665 684 133 134
8 15 16 324 305 915 918 1578 1521
8 915 918 1578 1521 916 919 1579 1522
8 916 919 1579 1522 917 920 1580 1523
8 917 920 1580 1523 91 92 685 666
8 305 324 325 306 1521 1578 1581 1524
8 1521 1578 1581 1524 1522 1579 1582 1525
8 1522 1579 1582 1525 1523 1580 1583 1526
8 1523 1580 1583 1526 666 685 686 667
8 306 325 326 307 1524 1581 1584 1527
8 1524 1581 1584 1527 1525 1582 1585 1528
8 1525 1582 1585 1528 1526 1583 1586 1529
8 1526 1583 1586 1529 667 686 687 668
8 307 326 327 308 1527 1584 1587 1530
8 1527 1584 1587 1530 1528 1585 1588 1531
8 1528 1585 1588 1531 1529 1586 1589 1532
8 1529 1586 1589 1532 668 687 688 669
8 308 327 328 309 1530 1587 1590 1533
8 1530 1587 1590 1533 1531 1588 1591 1534
8 1531 1588 1591 1534 1532 1589 1592 1535
8 1532 1589 1592 1535 669 688 689 670
8 309 328 329 310 1533 1590 1593 1536
8 1533 1590 1593 1536 1534 1591 1594 1537
8 1534 1591 1594 1537 1535 1592 1595 1538
8 1535 1592 1595 1538 670 689 690 671
8 310 329 330 311 1536 1593 1596 1539
8 1536 1593 1596 1539 1537 1594 1597 1540
8 1537 1594 1597 1540 1538 1595 1598 1541
8 1538 1595 1598 1541 671 690 691 672
8 311 330 331 312 1539 1596 1599 1542
8 1539 1596 1599 1542 1540 1597 1600 1543
8 1540 1597 1600 1543 1541 1598 1601 1544
8 1541 1598 1601 1544 672 691 692 673
8 312 331 332 313 1542 1599 1602 1545
8 1542 1599 1602 1545 1543 1600 1603 1546
8 1543 1600 1603 1546 1544 1601 1604 1547
8 1544 1601 1604 1547 673 692 693 674
8 313 332 333 314 1545 1602 1605 1548
8 1545 1602 1605 1548 1546 1603 1606 1549
8 1546 1603 1606 1549 1547 1604 1607 1550
8 1547 1604 1607 1550 674 693 694 675
8 314 333 334 315 1548 1605 1608 1551
8 1548 1605 1608 1551 1549 1606 1609 1552
8 1549 1606 1609 1552 1550 1607 1610 1553
8 1550 1607 1610 1553 675 694 695 676
8 315 334 335 316 1551 1608 1611 1554
8 1551 1608 1611 1554 1552 1609 1612 1555
8 1552 1609 1612 1555 1553 1610 1613 1556
8 1553 1610 1613 1556 676 695 696 677
8 316 335 336 317 1554 1611 1614 1557
8 1554 1611 1614 1557 1555 1612 1615 1558
8 1555 1612 1615 1558 1556 1613 1616 1559
8 1556 1613 1616 1559 677 696 697 678
8 317 336 337 318 1557 1614 1617 1560
8 1557 1614 1617 1560 1558 1615 1618 1561
8 1558 1615 1618 1561 1559 1616 1619 1562
8 1559 1616 1619 1562 678 697 698 679
8 318 337 338 319 1560 1617 1620 1563
8 1560 1617 1620 1563 1561 1618 1621 1564
8 1561 1618 1621 1564 1562 1619 1622 1565
8 1562 1619 1622 1565 679 698 699 680
8 319 338 339 320 1563 1620 1623 1566
8 1563 1620 1623 1566 1564 1621 1624 1567
8 1564 1621 1624 1567 1565 1622 1625 1568
8 1565 1622 1625 1568 680 699 700 681
8 320 339 340 321 1566 1623 1626 1569
8 1566 1623 1626 1569 1567 1624 1627 1570
8 1567 1624 1627 1570 1568 1625 1628 1571
8 1568 1625 1628 1571 681 700 701 682
8 321 340 341 322 1569 1626 1629 1572
8 1569 1626 1629 1572 1570 1627 1630 1573
8 1570 1627 1630 1573 1571 1628 1631 1574
8 1571 1628 1631 1574 682 701 702 683
8 322 341 342 323 1572 1629 1632 1575
8 1572 1629 1632 1575 1573 1630 1633 1576
8 1573 1630 1633 1576 1574 1631 1634 1577
8 1574 1631 1634 1577 683 702 703 684
8 323 342 56 57 1575 1632 1038 1041
8 1575 1632 1038 1041 1576 1633 1039 1042
8 1576 1633 1039 1042 1577 1634 1040 1043
8 1577 1634 1040 1043 684 703 132 133
8 16 17 343 324 918 921 1635 1578
8 918 921 1635 1578 919 922 1636 1579
8 919 922 1636 1579 920 923 1637 1580
8 920 923 1637 1580 92 93 704 685
8 324 343 344 325 1578 1635 1638 1581
8 1578 1635 1638 1581 1579 1636 1639 1582
8 1579 1636 1639 1582 1580 1637 1640 1583
8 1580 1637 1640 1583 685 704 705 686
8 325 344 345 326 1581 1638 1641 1584
8 1581 1638 1641 1584 1582 1639 1642 1585
8 1582 1639 1642 1585 1583 1640 1643 1586
8 1583 1640 1643 1586 686 705 706 687
8 326 345 346 327 1584 1641 1644 1587
8 1584 1641 1644 1587 1585 1642 1645 1588
8 1585 1642 1645 1588 1586 1643 1646 1589
8 1586 1643 1646 1589 687 706 707 688
8 327 346 347 328 1587 1644 1647 1590
8 1587 1644 1647 1590 1588 1645 1648 1591
8 1588 1645 1648 1591 1589 1646 1649 1592
8 1589 1646 1649 1592 688 707 708 689
8 328 347 348 329 1590 1647 1650 1593
8 1590 1647 1650 1593 1591 1648 1651 1594
8 1591 1648 1651 1594 1592 1649 1652 1595
8 1592 1649 1652 1595 689 708 709 690
8 329 348 349 330 1593 1650 1653 1596
8 1593 1650 1653 1596 1594 1651 1654 1597
8 1594 1651 1654 1597 1595 1652 1655 1598
8 1595 1652 1655 1598 690 709 710 691
8 330 349 350 331 1596 1653 1656 1599
8 1596 1653 1656 1599 1597 1654 1657 1600
8 1597 1654 1657 1600 1598 1655 1658 1601
8 1598 1655 1658 1601 691 710 711 692
8 331 350 351 332 1599 1656 1659 1602
8 1599 1656 1659 1602 1600 1657 1660 1603
8 1600 1657 1660 1603 1601 1658 1661 1604
8 1601 1658 1661 1604 692 711 712 693
8 332 351 352 333 1602 1659 1662 1605
8 1602 1659 1662 1605 1603 1660 1663 1606
8 1603 1660 1663 1606 1604 1661 1664 1607
8 1604 1661 1664 1607 693 712 713 694
8 333 352 353 334 1605 1662 1665 1608
8 1605 1662 1665 1608 1606 1663 1666 1609
8 1606 1663 1666 1609 1607 1664 1667 1610
8 1607 1664 1667 1610 694 713 714 695
8 334 353 354 335 1608 1665 1668 1611
8 1608 1665 1668 1611 1609 1666 1669 1612
8 1609 1666 1669 1612 1610 1667 1670 1613
8 1610 1667 1670 1613 695 714 715 696
8 335 354 355 336 1611 1668 1671 1614
8 1611 1668 1671 1614 1612 1669 1672 1615
8 1612 1669 1672 1615 1613 1670 1673 1616
8 1613 1670 1673 1616 696 715 716 697
8 336 355 356 337 1614 1671 1674 1617
8 1614 1671 1674 1617 1615 1672 1675 1618
8 1615 1672 1675 1618 1616 1673 1676 1619
8 1616 1673 1676 1619 697 716 717 698
8 337 356 357 338 1617 1674 1677 1620
8 1617 1674 1677 1620 1618 1675 1678 1621
8 1618 1675 1678 1621 1619 1676 1679 1622
8 1619 1676 1679 1622 698 717 718 699
8 338 357 358 339 1620 1677 1680 1623
8 1620 1677 1680 1623 1621 1678 1681 1624
8 1621 1678 1681 1624 1622 1679 1682 1625
8 1622 1679 1682 1625 699 718 719 700
8 339 358 359 340 1623 1680 1683 1626
8 1623 1680 1683 1626 1624 1681 1684 1627
8 1624 1681 1684 1627 1625 1682 1685 1628
8 1625 1682 1685 1628 700 719 720 701
8 340 359 360 341 1626 1683 1686 1629
8 1626 1683 1686 1629 1627 1684 1687 1630
8 1627 1684 1687 1630 1628 1685 1688 1631
8 1628 1685 1688 1631 701 720 721 702
8 341 360 361 342 1629 1686 1689 1632
8 1629 1686 1689 1632 1630 1687 1690 1633
8 1630 1687 1690 1633 1631 1688 1691 1634
8 1631 1688 1691 1634 702 721 722 703
8 342 361 55 56 1632 1689 1035 1038
8 1632 1689 1035 1038 1633 1690 1036 1039
8 1633 1690 1036 1039 1634 1691 1037 1040
8 1634 1691 1037 1040 703 722 131 132
8 17 18 362 343 921 924 1692 1635
8 921 924 1692 1635 922 925 1693 1636
8 922 925 1693 1636 923 926 1694 1637
8 923 926 1694 1637 93 94 723 704
8 343 362 363 344 1635 1692 1695 1638
8 1635 1692 1695 1638 1636 1693 1696 1639
8 1636 1693 1696 1639 1637 1694 1697 1640
8 1637 1694 1697 1640 704 723 724 705
8 344 363 364 345 1638 1695 1698 1641
8 1638 1695 1698 1641 1639 1696 1699 1642
8 1639 1696 1699 1642 1640 1697 1700 1643
8 1640 1697 1700 1643 705 724 725 706
8 345 364 365 346 1641 1698 1701 1644
8 1641 1698 1701 1644 1642 1699 1702 1645
8 1642 1699 1702 1645 1643 1700 1703 1646
8 1643 1700 1703 1646 706 725 726 707
8 346 365 366 347 1644 1701 1704 1647
8 1644 1701 1704 1647 1645 1702 1705 1648
8 1645 1702 1705 1648 1646 1703 1706 1649
8 1646 1703 1706 1649 707 726 727 708
8 347 366 367 348 1647 1704 1707 1650
8 1647 1704 1707 1650 1648 1705 1708 1651
8 1648 1705 1708 1651 1649 1706 1709 1652
8 1649 1706 1709 1652 708 727 728 709
8 348 367 368 349 1650 1707 1710 1653
8 1650 1707 1710 1653 1651 1708 1711 1654
8 1651 1708 1711 1654 1652 1709 1712 1655
8 1652 1709 1712 1655 709 728 729 710
8 349 368 369 350 1653 1710 1713 1656
8 1653 1710 1713 1656 1654 1711 1714 1657
8 1654 1711 1714 1657 1655 1712 1715 1658
8 1655 1712 1715 1658 710 729 730 711
8 350 369 370 351 1656 1713 1716 1659
8 1656 1713 1716 1659 1657 1714 1717 1660
8 1657 1714 1717 1660 1658 1715 1718 1661
8 1658 1715 1718 1661 711 730 731 712
8 351 370 371 352 1659 1716 1719 1662
8 1659 1716 1719 1662 1660 1717 1720 1663
8 1660 1717 1720 1663 1661 1718 1721 1664
8 1661 1718 1721 1664 712 731 732 713
8 352 371 372 353 1662 1719 1722 1665
8 1662 1719 1722 1665 1663 1720 1723 1666
8 1663 1720 1723 1666 1664 1721 1724 1667
8 1664 1721 1724 1667 713 732 733 714
8 353 372 373 354 1665 1722 1725 1668
8 1665 1722 1725 1668 1666 1723 1726 1669
8 1666 1723 1726 1669 1667 1724 1727 1670
8 1667 1724 1727 1670 714 733 734 715
8 354 373 374 355 1668 1725 1728 1671
8 1668 1725 1728 1671 1669 1726 1729 1672
8 1669 1726 1729 1672 1670 1727 1730 1673
8 1670 1727 1730 1673 715 734 735 716
8 355 374 375 356 1671 1728 1731 1674
8 1671 1728 1731 1674 1672 1729 1732 1675
8 1672 1729 1732 1675 1673 1730 1733 1676
8 1673 1730 1733 1676 716 735 736 717
8 356 375 376 357 1674 1731 1734 1677
8 1674 1731 1734 1677 1675 1732 1735 1678
8 1675 1732 1735 1678 1676 1733 1736 1679
8 1676 1733 1736 1679 717 736 737 718
8 357 376 377 358 1677 1734 1737 1680
8 1677 1734 1737 1680 1678 1735 1738 1681
8 1678 1735 1738 1681 1679 1736 1739 1682
8 1679 1736 1739 1682 718 737 738 719
8 358 377 378 359 1680 1737 1740 1683
8 1680 1737 1740 1683 1681 1738 1741 1684
8 1681 1738 1741 1684 1682 1739 1742 1685
8 1682 1739 1742 1685 719 738 739 720
8 359 378 379 360 1683 1740 1743 1686
8 1683 1740 1743 1686 1684 1741 1744 1687
8 1684 1741 1744 1687 1685 1742 1745 1688
8 1685 1742 1745 1688 720 739 740 721
8 360 379 380 361 1686 1743 1746 1689
8 1686 1743 1746 1689 1687 1744 1747 1690
8 1687 1744 1747 1690 1688 1745 1748 1691
8 1688 1745 1748 1691 721 740 741 722
8 361 380 54 55 1689 1746 1032 1035
8 1689 1746 1032 1035 1690 1747 1033 1036
8 1690 1747 1033 1036 1691 1748 1034 1037
8 1691 1748 1034 1037 722 741 130 131
8 18 19 381 362 924 927 1749 1692
8 924 927 1749 1692 925 928 1750 1693
8 925 928 1750 1693 926 929 1751 1694
8 926 929 1751 1694 94 95 742 723
8 362 381 382 363 1692 1749 1752 1695
8 1692 1749 1752 1695 1693 1750 1753 1696
8 1693 1750 1753 1696 1694 1751 1754 1697
8 1694 1751 1754 1697 723 742 743 724
8 363 382 383 364 1695 1752 1755 1698
8 1695 1752 1755 1698 1696 1753 1756 1699
8 1696 1753 1756 1699 1697 1754 1757 1700
8 1697 1754 1757 1700 724 743 744 725
8 364 383 384 365 1698 1755 1758 1701
8 1698 1755 1758 1701 1699 1756 1759 1702
8 1699 1756 1759 1702 1700 1757 1760 1703
8 1700 1757 1760 1703 725 744 745 726
8 365 384 385 366 1701 1758 1761 1704
8 1701 1758 1761 1704 1702 1759 1762 1705
8 1702 1759 1762 1705 1703 1760 1763 1706
8 1703 1760 1763 1706 726 745 746 727
8 366 385 386 367 1704 1761 1764 1707
8 1704 1761 1764 1707 1705 1762 1765 1708
8 1705 1762 1765 1708 1706 1763 1766 1709
8 1706 1763 1766 1709 727 746 747 728
8 367 386 387 368 1707 1764 1767 1710
8 1707 1764 1767 1710 1708 1765 1768 1711
8 1708 1765 1768 1711 1709 1766 1769 1712
8 1709 1766 1769 1712 728 747 748 729
8 368 387 388 369 1710 1767 1770 1713
8 1710 1767 1770 1713 1711 1768 1771 1714
8 1711 1768 1771 1714 1712 1769 1772 1715
8 1712 1769 1772 1715 729 748 749 730
8 369 388 389 370 1713 1770 1773 1716
8 1713 1770 1773 1716 1714 1771 1774 1717
8 1714 1771 1774 1717 1715 1772 1775 1718
8 1715 1772 1775 1718 730 749 750 731
8 370 389 390 371 1716 1773 1776 1719
8 1716 1773 1776 1719 1717 1774 1777 1720
8 1717 1774 1777 1720 1718 1775 1778 1721
8 1718 1775 1778 1721 731 750 751 732
8 371 390 391 372 1719 1776 1779 1722
8 1719 1776 1779 1722 1720 1777 1780 1723
8 1720 1777 1780 1723 1721 1778 1781 1724
8 1721 1778 1781 1724 732 751 752 733
8 372 391 392 373 1722 1779 1782 1725
8 1722 1779 1782 1725 1723 1780 1783 1726
8 1723 1780 1783 1726 1724 1781 1784 1727
8 1724 1781 1784 1727 733 752 753 734
8 373 392 393 374 1725 1782 1785 1728
8 1725 1782 1785 1728 1726 1783 1786 1729
8 1726 1783 1786 1729 1727 1784 1787 1730
8 1727 1784 1787 1730 734 753 754 735
8 374 393 394 375 1728 1785 1788 1731
8 1728 1785 1788 1731 1729 1786 1789 1732
8 1729 1786 1789 1732 1730 1787 1790 1733
8 1730 1787 1790 1733 735 754 755 736
8 375 394 395 376 1731 1788 1791 1734
8 1731 1788 1791 1734 1732 1789 1792 1735
8 1732 1789 1792 1735 1733 1790 1793 1736
8 1733 1790 1793 1736 736 755 756 737
8 376 395 396 377 1734 1791 1794 1737
8 1734 1791 1794 1737 1735 1792 1795 1738
8 1735 1792 1795 1738 1736 1793 1796 1739
8 1736 1793 1796 1739 737 756 757 738
8 377 396 397 378 1737 1794 1797 1740
8 1737 1794 1797 1740 1738 1795 1798 1741
8 1738 1795 1798 1741 1739 1796 1799 1742
8 1739 1796 1799 1742 738 757 758 739
8 378 397 398 379 1740 1797 1800 1743
8 1740 1797 1800 1743 1741 1798 1801 1744
8 1741 1798 1801 1744 1742 1799 1802 1745
8 1742 1799 1802 1745 739 758 759 740
8 379 398 399 380 1743 1800 1803 1746
8 1743 1800 1803 1746 1744 1801 1804 1747
8 1744 1801 1804 1747 1745 1802 1805 1748
8 1745 1802 1805 1748 740 759 760 741
8 380 399 53 54 1746 1803 1029 1032
8 1746 1803 1029 1032 1747 1804 1030 1033
8 1747 1804 1030 1033 1748 1805 1031 1034
8 1748 1805 1031 1034 741 760 129 130
8 19 20 400 381 927 930 1806 1749
8 927 930 1806 1749 928 931 1807 1750
8 928 931 1807 1750 929 932 1808 1751
8 929 932 1808 1751 95 96 761 742
8 381 400 401 382 1749 1806 1809 1752
8 1749 1806 1809 1752 1750 1807 1810 1753
8 1750 1807 1810 1753 1751 1808 1811 1754
8 1751 1808 1811 1754 742 761 762 743
8 382 401 402 383 1752 1809 1812 1755
8 1752 1809 1812 1755 1753 1810 1813 1756
8 1753 1810 1813 1756 1754 1811 1814 1757
8 1754 1811 1814 1757 743 762 763 744
8 383 402 403 384 1755 1812 1815 1758
8 1755 1812 1815 1758 1756 1813 1816 1759
8 1756 1813 1816 1759 1757 1814 1817 1760
8 1757 1814 1817 1760 744 763 764 745
8 384 403 404 385 1758 1815 1818 1761
8 1758 1815 1818 1761 1759 1816 1819 1762
8 1759 1816 1819 1762 1760 1817 1820 1763
8 1760 1817 1820 1763 745 764 765 746
8 385 404 405 386 1761 1818 1821 1764
8 1761 1818 1821 1764 1762 1819 1822 1765
8 1762 1819 1822 1765 1763 1820 1823 1766
8 1763 1820 1823 1766 746 765 766 747
8 386 405 406 387 1764 1821 1824 1767
8 1764 1821 1824 1767 1765 1822 1825 1768
8 1765 1822 1825 1768 1766 1823 1826 1769
8 1766 1823 1826 1769 747 766 767 748
8 387 406 407 388 1767 1824 1827 1770
8 1767 1824 1827 1770 1768 1825 1828 1771
8 1768 1825 1828 1771 1769 1826 1829 1772
8 1769 1826 1829 1772 748 767 768 749
8 388 407 408 389 1770 1827 1830 1773
8 1770 1827 1830 1773 1771 1828 1831 1774
8 1771 1828 1831 1774 1772 1829 1832 1775
8 1772 1829 1832 1775 749 768 769 750
8 389 408 409 390 1773 1830 1833 1776
8 1773 1830 1833 1776 1774 1831 1834 1777
8 1774 1831 1834 1777 1775 1832 1835 1778
8 1775 1832 1835 1778 750 769 770 751
8 390 409 410 391 1776 1833 1836 1779
8 1776 1833 1836 1779 1777 1834 1837 1780
8 1777 1834 1837 1780 1778 1835 1838 1781
8 1778 1835 1838 1781 751 770 771 752
8 391 410 411 392 1779 1836 1839 1782
8 1779 1836 1839 1782 1780 1837 1840 1783
8 1780 1837 1840 1783 1781 1838 1841 1784
8 1781 1838 1841 1784 752 771 772 753
8 392 411 412 393 1782 1839 1842 1785
8 1782 1839 1842 1785 1783 1840 1843 1786
8 1783 1840 1843 1786 1784 1841 1844 1787
8 1784 1841 1844 1787 753 772 773 754
8 393 412 413 394 1785 1842 1845 1788
8 1785 1842 1845 1788 1786 1843 1846 1789
8 1786 1843 1846 1789 1787 1844 1847 1790
8 1787 1844 1847 1790 754 773 774 755
8 394 413 414 395 1788 1845 1848 1791
8 1788 1845 1848 1791 1789 1846 1849 1792
8 1789 1846 1849 1792 1790 1847 1850 1793
8 1790 1847 1850 1793 755 774 775 756
8 395 414 415 396 1791 1848 1851 1794
8 1791 1848 1851 1794 1792 1849 1852 1795
8 1792 1849 1852 1795 1793 1850 1853 1796
8 1793 1850 1853 1796 756 775 776 757
8 396 415 416 397 1794 1851 1854 1797
8 1794 1851 1854 1797 1795 1852 1855 1798
8 1795 1852 1855 1798 1796 1853 1856 1799
8 1796 1853 1856 1799 757 776 777 758
8 397 416 417 398 1797 1854 1857 1800
8 1797 1854 1857 1800 1798 1855 1858 1801
8 1798 1855 1858 1801 1799 1856 1859 1802
8 1799 1856 1859 1802 758 777 778 759
8 398 417 418 399 1800 1857 1860 1803
8 1800 1857 1860 1803 1801 1858 1861 1804
8 1801 1858 1861 1804 1802 1859 1862 1805
8 1802 1859 1862 1805 759 778 779 760
8 399 418 52 53 1803 1860 1026 1029
8 1803 1860 1026 1029 1804 1861 1027 1030
8 1804 1861 1027 1030 1805 1862 1028 1031
8 1805 1862 1028 1031 760 779 128 129
8 20 21 419 400 930 933 1863 1806
8 930 933 1863 1806 931 934 1864 1807
8 931 934 1864 1807 932 935 1865 1808
8 932 935 1865 1808 96 97 780 761
8 400 419 420 401 1806 1863 1866 1809
8 1806 1863 1866 1809 1807 1864 1867 1810
8 1807 1864 1867 1810 1808 1865 1868 1811
8 1808 1865 1868 1811 761 780 781 762
8 401 420 421 402 1809 1866 1869 1812
8 1809 1866 1869 1812 1810 1867 1870 1813
8 1810 1867 1870 1813 1811 1868 1871 1814
8 1811 1868 1871 1814 762 781 782 763
8 402 421 422 403 1812 1869 1872 1815
8 1812 1869 1872 1815 1813 1870 1873 1816
8 1813 1870 1873 1816 1814 1871 1874 1817
8 1814 1871 1874 1817 763 782 783 764
8 403 422 423 404 1815 1872 1875 1818
8 1815 1872 1875 1818 1816 1873 1876 1819
8 1816 1873 1876 1819 1817 1874 1877 1820
8 1817 1874 1877 1820 764 783 784 765
8 404 423 424 405 1818 1875 1878 1821
8 1818 1875 1878 1821 1819 1876 1879 1822
8 1819 1876 1879 1822 1820 1877 1880 1823
8 1820 1877 1880 1823 765 784 785 766
8 405 424 425 406 1821 1878 1881 1824
8 1821 1878 1881 1824 1822 1879 1882 1825
8 1822 1879 1882 1825 1823 1880 1883 1826
8 1823 1880 1883 1826 766 785 786 767
8 406 425 426 407 1824 1881 1884 1827
8 1824 1881 1884 1827 1825 1882 1885 1828
8 1825 1882 1885 1828 1826 1883 1886 1829
8 1826 1883 1886 1829 767 786 787 768
8 407 426 427 408 1827 1884 1887 1830
8 1827 1884 1887 1830 1828 1885 1888 1831
8 1828 1885 1888 1831 1829 1886 1889 1832
8 1829 1886 1889 1832 768 787 788 769
8 408 427 428 409 1830 1887 1890 1833
8 1830 1887 1890 1833 1831 1888 1891 1834
8 1831 1888 1891 1834 1832 1889 1892 1835
8 1832 1889 1892 1835 769 788 789 770
8 409 428 429 410 1833 1890 1893 1836
8 1833 1890 1893 1836 1834 1891 1894 1837
8 1834 1891 1894 1837 1835 1892 1895 1838
8 1835 1892 1895 1838 770 789 790 771
8 410 429 430 411 1836 1893 1896 1839
8 1836 1893 1896 1839 1837 1894 1897 1840
8 1837 1894 1897 1840 1838 1895 1898 1841
8 1838 1895 1898 1841 771 790 791 772
8 411 430 431 412 1839 1896 1899 1842
8 1839 1896 1899 1842 1840 1897 1900 1843
8 1840 1897 1900 1843 1841 1898 1901 1844
8 1841 1898 1901 1844 772 791 792 773
8 412 431 432 413 1842 1899 1902 1845
8 1842 1899 1902 1845 1843 1900 1903 1846
8 1843 1900 1903 1846 1844 1901 1904 1847
8 1844 1901 1904 1847 773 792 793 774
8 413 432 433 414 1845 1902 1905 1848
8 1845 1902 1905 1848 1846 1903 1906 1849
8 1846 1903 1906 1849 1847 1904 1907 1850
8 1847 1904 1907 1850 774 793 794 775
8 414 433 434 415 1848 1905 1908 1851
8 1848 1905 1908 1851 1849 1906 1909 1852
8 1849 1906 1909 1852 1850 1907 1910 1853
8 1850 1907 1910 1853 775 794 795 776
8 415 434 435 416 1851 1908 1911 1854
8 1851 1908 1911 1854 1852 1909 1912 1855
8 1852 1909 1912 1855 1853 1910 1913 1856
8 1853 1910 1913 1856 776 795 796 777
8 416 435 436 417 1854 1911 1914 1857
8 1854 1911 1914 1857 1855 1912 1915 1858
8 1855 1912 1915 1858 1856 1913 1916 1859
8 1856 1913 1916 1859 777 796 797 778
8 417 436 437 418 1857 1914 1917 1860
8 1857 1914 1917 1860 1858 1915 1918 1861
8 1858 1915 1918 1861 1859 1916 1919 1862
8 1859 1916 1919 1862 778 797 798 779
8 418 437 51 52 1860 1917 1023 1026
8 1860 1917 1023 1026 1861 1918 1024 1027
8 1861 1918 1024 1027 1862 1919 1025 1028
8 1862 1919 1025 1028 779 798 127 128
8 21 22 438 419 933 936 1920 1863
8 933 936 1920 1863 934 937 1921 1864
8 934 937 1921 1864 935 938 1922 1865
8 935 938 1922 1865 97 98 799 780
8 419 438 439 420 1863 1920 1923 1866
8 1863 1920 1923 1866 1864 1921 1924 1867
8 1864 1921 1924 1867 1865 1922 1925 1868
8 1865 1922 1925 1868 780 799 800 781
8 420 439 440 421 1866 1923 1926 1869
8 1866 1923 1926 1869 1867 1924 1927 1870
8 1867 1924 1927 1870 1868 1925 1928 1871
8 1868 1925 1928 1871 781 800 801 782
8 421 440 441 422 1869 1926 1929 1872
8 1869 1926 1929 1872 1870 1927 1930 1873
8 1870 1927 1930 1873 1871 1928 1931 1874
8 1871 1928 1931 1874 782 801 802 783
8 422 441 442 423 1872 1929 1932 1875
8 1872 1929 1932 1875 1873 1930 1933 1876
8 1873 1930 1933 1876 1874 1931 1934 1877
8 1874 1931 1934 1877 783 802 803 784
8 423 442 443 424 1875 1932 1935 1878
8 1875 1932 1935 1878 1876 1933 1936 1879
8 1876 1933 1936 1879 1877 1934 1937 1880
8 1877 1934 1937 1880 784 803 804 785
8 424 443 444 425 1878 1935 1938 1881
8 1878 1935 1938 1881 1879 1936 1939 1882
8 1879 1936 1939 1882 1880 1937 1940 1883
8 1880 1937 1940 1883 785 804 805 786
8 425 444 445 426 1881 1938 1941 1884
8 1881 1938 1941 1884 1882 1939 1942 1885
8 1882 1939 1942 1885 1883 1940 1943 1886
8 1883 1940 1943 1886 786 805 806 787
8 426 445 446 427 1884 1941 1944 1887
8 1884 1941 1944 1887 1885 1942 1945 1888
8 1885 1942 1945 1888 1886 1943 1946 1889
8 1886 1943 1946 1889 787 806 807 788
8 427 446 447 428 1887 1944 1947 1890
8 1887 1944 1947 1890 1888 1945 1948 1891
8 1888 1945 1948 1891 1889 1946 1949 1892
8 1889 1946 1949 1892 788 807 808 789
8 428 447 448 429 1890 1947 1950 1893
8 1890 1947 1950 1893 1891 1948 1951 1894
8 1891 1948 1951 1894 1892 1949 1952 1895
8 1892 1949 1952 1895 789 808 809 790
8 429 448 449 430 1893 1950 1953 1896
8 1893 1950 1953 1896 1894 1951 1954 1897
8 1894 1951 1954 1897 1895 1952 1955 1898
8 1895 1952 1955 1898 790 809 810 791
8 430 449 450 431 1896 1953 1956 1899
8 1896 1953 1956 1899 1897 1954 1957 1900
8 1897 1954 1957 1900 1898 1955 1958 1901
8 1898 1955 1958 1901 791 810 811 792
8 431 450 451 432 1899 1956 1959 1902
8 1899 1956 1959 1902 1900 1957 1960 1903
8 1900 1957 1960 1903 1901 1958 1961 1904
8 1901 1958 1961 1904 792 811 812 793
8 432 451 452 433 1902 1959 1962 1905
8 1902 1959 1962 1905 1903 1960 1963 1906
8 1903 1960 1963 1906 1904 1961 1964 1907
8 1904 1961 1964 1907 793 812 813 794
8 433 452 453 434 1905 1962 1965 1908
8 1905 1962 1965 1908 1906 1963 1966 1909
8 1906 1963 1966 1909 1907 1964 1967 1910
8 1907 1964 1967 1910 794 813 814 795
8 434 453 454 435 1908 1965 1968 1911
8 1908 1965 1968 1911 1909 1966 1969 1912
8 1909 1966 1969 1912 1910 1967 1970 1913
8 1910 1967 1970 1913 795 814 815 796
8 435 454 455 436 1911 1968 1971 1914
8 1911 1968 1971 1914 1912 1969 1972 1915
8 1912 1969 1972 1915 1913 1970 1973 1916
8 1913 1970 1973 1916 796 815 816 797
8 436 455 456 437 1914 1971 1974 1917
8 1914 1971 1974 1917 1915 1972 1975 1918
8 1915 1972 1975 1918 1916 1973 1976 1919
8 1916 1973 1976 1919 797 816 817 798
8 437 456 50 51 1917 1974 1020 1023
8 1917 1974 1020 1023 1918 1975 1021 1024
8 1918 1975 1021 1024 1919 1976 1022 1025
8 1919 1976 1022 1025 798 817 126 127
8 22 23 457 438 936 939 1977 1920
8 936 939 1977 1920 937 940 1978 1921
8 937 940 1978 1921 938 941 1979 1922
8 938 941 1979 1922 98 99 818 799
8 438 457 458 439 1920 1977 1980 1923
8 1920 1977 1980 1923 1921 1978 1981 1924
8 1921 1978 1981 1924 1922 1979 1982 1925
8 1922 1979 1982 1925 799 818 819 800
8 439 458 459 440 1923 1980 1983 1926
8 1923 1980 1983 1926 1924 1981 1984 1927
8 1924 1981 1984 1927 1925 1982 1985 1928
8 1925 1982 1985 1928 800 819 820 801
8 440 459 460 441 1926 1983 1986 1929
8 1926 1983 1986 1929 1927 1984 1987 1930
8 1927 1984 1987 1930 1928 1985 1988 1931
8 1928 1985 1988 1931 801 820 821 802
8 441 460 461 442 1929 1986 1989 1932
8 1929 1986 1989 1932 1930 1987 1990 1933
8 1930 1987 1990 1933 1931 1988 1991 1934
8 1931 1988 1991 1934 802 821 822 803
8 442 461 462 443 1932 1989 1992 1935
8 1932 1989 1992 1935 1933 1990 1993 1936
8 1933 1990 1993 1936 1934 1991 1994 1937
8 1934 1991 1994 1937 803 822 823 804
8 443 462 463 444 1935 1992 1995 1938
8 1935 1992 1995 1938 1936 1993 1996 1939
8 1936 1993 1996 1939 1937 1994 1997 1940
8 1937 1994 1997 1940 804 823 824 805
8 444 463 464 445 1938 1995 1998 1941
8 1938 1995 1998 1941 1939 1996 1999 1942
8 1939 1996 1999 1942 1940 1997 2000 1943
8 1940 1997 2000 1943 805 824 825 806
8 445 464 465 446 1941 1998 2001 1944
8 1941 1998 2001 1944 1942 1999 2002 1945
8 1942 1999 2002 1945 1943 2000 2003 1946
8 1943 2000 2003 1946 806 825 826 807
8 446 465 466 447 1944 2001 2004 1947
8 1944 2001 2004 1947 1945 2002 2005 1948
8 1945 2002 2005 1948 1946 2003 2006 1949
8 1946 2003 2006 1949 807 826 827 808
8 447 466 467 448 1947 2004 2007 1950
8 1947 2004 2007 1950 1948 2005 2008 1951
8 1948 2005 2008 1951 1949 2006 2009 1952
8 1949 2006 2009 1952 808 827 828 809
8 448 467 468 449 1950 2007 2010 1953
8 1950 2007 2010 1953 1951 2008 2011 1954
8 1951 2008 2011 1954 1952 2009 2012 1955
8 1952 2009 2012 1955 809 828 829 810
8 449 468 469 450 1953 2010 2013 1956
8 1953 2010 2013 1956 1954 2011 2014 1957
8 1954 2011 2014 1957 1955 2012 2015 1958
8 1955 2012 2015 1958 810 829 830 811
8 450 469 470 451 1956 2013 2016 1959
8 1956 2013 2016 1959 1957 2014 2017 1960
8 1957 2014 2017 1960 1958 2015 2018 1961
8 1958 2015 2018 1961 811 830 831 812
8 451 470 471 452 1959 2016 2019 1962
8 1959 2016 2019 1962 1960 2017 2020 1963
8 1960 2017 2020 1963 1961 2018 2021 1964
8 1961 2018 2021 1964 812 831 832 813
8 452 471 472 453 1962 2019 2022 1965
8 1962 2019 2022 1965 1963 2020 2023 1966
8 1963 2020 2023 1966 1964 2021 2024 1967
8 1964 2021 2024 1967 813 832 833 814
8 453 472 473 454 1965 2022 2025 1968
8 1965 2022 2025 1968 1966 2023 2026 1969
8 1966 2023 2026 1969 1967 2024 2027 1970
8 1967 2024 2027 1970 814 833 834 815
8 454 473 474 455 1968 2025 2028 1971
8 1968 2025 2028 1971 1969 2026 2029 1972
8 1969 2026 2029 1972 1970 2027 2030 1973
8 1970 2027 2030 1973 815 834 835 816
8 455 474 475 456 1971 2028 2031 1974
8 1971 2028 2031 1974 1972 2029 2032 1975
8 1972 2029 2032 1975 1973 2030 2033 1976
8 1973 2030 2033 1976 816 835 836 817
8 456 475 49 50 1974 2031 1017 1020
8 1974 2031 1017 1020 1975 2032 1018 1021
8 1975 2032 1018 1021 1976 2033 1019 1022
8 1976 2033 1019 1022 817 836 125 126
8 23 24 476 457 939 942 2034 1977
8 939 942 2034 1977 940 943 2035 1978
8 940 943 2035 1978 941 944 2036 1979
8 941 944 2036 1979 99 100 837 818
8 457 476 477 458 1977 2034 2037 1980
8 1977 2034 2037 1980 1978 2035 2038 1981
8 1978 2035 2038 1981 1979 2036 2039 1982
8 1979 2036 2039 1982 818 837 838 819
8 458 477 478 459 1980 2037 2040 1983
8 1980 2037 2040 1983 1981 2038 2041 1984
8 1981 2038 2041 1984 1982 2039 2042 1985
8 1982 2039 2042 1985 819 838 839 820
8 459 478 479 460 1983 2040 2043 1986
8 1983 2040 2043 1986 1984 2041 2044 1987
8 1984 2041 2044 1987 1985 2042 2045 1988
8 1985 2042 2045 1988 820 839 840 821
8 460 479 480 461 1986 2043 2046 1989
8 1986 2043 2046 1989 1987 2044 2047 1990
8 1987 2044 2047 1990 1988 2045 2048 1991
8 1988 2045 2048 1991 821 840 841 822
8 461 480 481 462 1989 2046 2049 1992
8 1989 2046 2049 1992 1990 2047 2050 1993
8 1990 2047 2050 1993 1991 2048 2051 1994
8 1991 2048 2051 1994 822 841 842 823
8 462 481 482 463 1992 2049 2052 1995
8 1992 2049 2052 1995 1993 2050 2053 1996
8 1993 2050 2053 1996 1994 2051 2054 1997
8 1994 2051 2054 1997 823 842 843 824
8 463 482 483 464 1995 2052 2055 1998
8 1995 2052 2055 1998 1996 2053 2056 1999
8 1996 2053 2056 1999 1997 2054 2057 2000
8 1997 2054 2057 2000 824 843 844 825
8 464 483 484 465 1998 2055 2058 2001
8 1998 2055 2058 2001 1999 2056 2059 2002
8 1999 2056 2059 2002 2000 2057 2060 2003
8 2000 2057 2060 2003 825 844 845 826
8 465 484 485 466 2001 2058 2061 2004
8 2001 2058 2061 2004 2002 2059 2062 2005
8 2002 2059 2062 2005 2003 2060 2063 2006
8 2003 2060 2063 2006 826 845 846 827
8 466 485 486 467 2004 2061 2064 2007
8 2004 2061 2064 2007 2005 2062 2065 2008
8 2005 2062 2065 2008 2006 2063 2066 2009
8 2006 2063 2066 2009 827 846 847 828
8 467 486 487 468 2007 2064 2067 2010
8 2007 2064 2067 2010 2008 2065 2068 2011
8 2008 2065 2068 2011 2009 2066 2069 2012
8 2009 2066 2069 2012 828 847 848 829
8 468 487 488 469 2010 2067 2070 2013
8 2010 2067 2070 2013 2011 2068 2071 2014
8 2011 2068 2071 2014 2012 2069 2072 2015
8 2012 2069 2072 2015 829 848 849 830
8 469 488 489 470 2013 2070 2073 2016
8 2013 2070 2073 2016 2014 2071 2074 2017
8 2014 2071 2074 2017 2015 2072 2075 2018
8 2015 2072 2075 2018 830 849 850 831
8 470 489 490 471 2016 2073 2076 2019
8 2016 2073 2076 2019 2017 2074 2077 2020
8 2017 2074 2077 2020 2018 2075 2078 2021
8 2018 2075 2078 2021 831 850 851 832
8 471 490 491 472 2019 2076 2079 2022
8 2019 2076 2079 2022 2020 2077 2080 2023
8 2020 2077 2080 2023 2021 2078 2081 2024
8 2021 2078 2081 2024 832 851 852 833
8 472 491 492 473 2022 2079 2082 2025
8 2022 2079 2082 2025 2023 2080 2083 2026
8 2023 2080 2083 2026 2024 2081 2084 2027
8 2024 2081 2084 2027 833 852 853 834
8 473 492 493 474 2025 2082 2085 2028
8 2025 2082 2085 2028 2026 2083 2086 2029
8 2026 2083 2086 2029 2027 2084 2087 2030
8 2027 2084 2087 2030 834 853 854 835
8 474 493 494 475 2028 2085 2088 2031
8 2028 2085 2088 2031 2029 2086 2089 2032
8 2029 2086 2089 2032 2030 2087 2090 2033
8 2030 2087 2090 2033 835 854 855 836
8 475 494 48 49 2031 2088 1014 1017
8 2031 2088 1014 1017 2032 2089 1015 1018
8 2032 2089 1015 1018 2033 2090 1016 1019
8 2033 2090 1016 1019 836 855 124 125
8 24 25 495 476 942 945 2091 2034
8 942 945 2091 2034 943 946 2092 2035
8 943 946 2092 2035 944 947 2093 2036
8 944 947 2093 2036 100 101 856 837
8 476 495 496 477 2034 2091 2094 2037
8 2034 2091 2094 2037 2035 2092 2095 2038
8 2035 2092 2095 2038 2036 2093 2096 2039
8 2036 2093 2096 2039 837 856 857 838
8 477 496 497 478 2037 2094 2097 2040
8 2037 2094 2097 2040 2038 2095 2098 2041
8 2038 2095 2098 2041 2039 2096 2099 2042
8 2039 2096 2099 2042 838 857 858 839
8 478 497 498 479 2040 2097 2100 2043
8 2040 2097 2100 2043 2041 2098 2101 2044
8 2041 2098 2101 2044 2042 2099 2102 2045
8 2042 2099 2102 2045 839 858 859 840
8 479 498 499 480 2043 2100 2103 2046
8 2043 2100 2103 2046 2044 2101 2104 2047
8 2044 2101 2104 2047 2045 2102 2105 2048
8 2045 2102 2105 2048 840 859 860 841
8 480 499 500 481 2046 2103 2106 2049
8 2046 2103 2106 2049 2047 2104 2107 2050
8 2047 2104 2107 2050 2048 2105 2108 2051
8 2048 2105 2108 2051 841 860 861 842
8 481 500 501 482 2049 2106 2109 2052
8 2049 2106 2109 2052 2050 2107 2110 2053
8 2050 2107 2110 2053 2051 2108 2111 2054
8 2051 2108 2111 2054 842 861 862 843
8 482 501 502 483 2052 2109 2112 2055
8 2052 2109 2112 2055 2053 2110 2113 2056
8 2053 2110 2113 2056 2054 2111 2114 2057
8 2054 2111 2114 2057 843 862 863 844
8 483 502 503 484 2055 2112 2115 2058
8 2055 2112 2115 2058 2056 2113 2116 2059
8 2056 2113 2116 2059 2057 2114 2117 2060
8 2057 2114 2117 2060 844 863 864 845
8 484 503 504 485 2058 2115 2118 2061
8 2058 2115 2118 2061 2059 2116 2119 2062
8 2059 2116 2119 2062 2060 2117 2120 2063
8 2060 2117 2120 2063 845 864 865 846
8 485 504 505 486 2061 2118 2121 2064
8 2061 2118 2121 2064 2062 2119 2122 2065
8 2062 2119 2122 2065 2063 2120 2123 2066
8 2063 2120 2123 2066 846 865 866 847
8 486 505 506 487 2064 2121 2124 2067
8 2064 2121 2124 2067 2065 2122 2125 2068
8 2065 2122 2125 2068 2066 2123 2126 2069
8 2066 2123 2126 2069 847 866 867 848
8 487 506 507 488 2067 2124 2127 2070
8 2067 2124 2127 2070 2068 2125 2128 2071
8 2068 2125 2128 2071 2069 2126 2129 2072
8 2069 2126 2129 2072 848 867 868 849
8 488 507 508 489 2070 2127 2130 2073
8 2070 2127 2130 2073 2071 2128 2131 2074
8 2071 2128 2131 2074 2072 2129 2132 2075
8 2072 2129 2132 2075 849 868 869 850
8 489 508 509 490 2073 2130 2133 2076
8 2073 2130 2133 2076 2074 2131 2134 2077
8 2074 2131 2134 2077 2075 2132 2135 2078
8 2075 2132 2135 2078 850 869 870 851
8 490 509 510 491 2076 2133 2136 2079
8 2076 2133 2136 2079 2077 2134 2137 2080
8 2077 2134 2137 2080 2078 2135 2138 2081
8 2078 2135 2138 2081 851 870 871 852
8 491 510 511 492 2079 2136 2139 2082
8 2079 2136 2139 2082 2080 2137 2140 2083
8 2080 2137 2140 2083 2081 2138 2141 2084
8 2081 2138 2141 2084 852 871 872 853
8 492 511 512 493 2082 2139 2142 2085
8 2082 2139 2142 2085 2083 2140 2143 2086
8 2083 2140 2143 2086 2084 2141 2144 2087
8 2084 2141 2144 2087 853 872 873 854
8 493 512 513 494 2085 2142 2145 2088
8 2085 2142 2145 2088 2086 2143 2146 2089
8 2086 2143 2146 2089 2087 2144 2147 2090
8 2087 2144 2147 2090 854 873 874 855
8 494 513 47 48 2088 2145 1011 1014
8 2088 2145 1011 1014 2089 2146 1012 1015
8 2089 2146 1012 1015 2090 2147 1013 1016
8 2090 2147 1013 1016 855 874 123 124
8 25 26 514 495 945 948 2148 2091
8 945 948 2148 2091 946 949 2149 2092
8 946 949 2149 2092 947 950 2150 2093
8 947 950 2150 2093 101 102 875 856
8 495 514 515 496 2091 2148 2151 2094
8 2091 2148 2151 2094 2092 2149 2152 2095
8 2092 2149 2152 2095 2093 2150 2153 2096
8 2093 2150 2153 2096 856 875 876 857
8 496 515 516 497 2094 2151 2154 2097
8 2094 2151 2154 2097 2095 2152 2155 2098
8 2095 2152 2155 2098 2096 2153 2156 2099
8 2096 2153 2156 2099 857 876 877 858
8 497 516 517 498 2097 2154 2157 2100
8 2097 2154 2157 2100 2098 2155 2158 2101
8 2098 2155 2158 2101 2099 2156 2159 2102
8 2099 2156 2159 2102 858 877 878 859
8 498 517 518 499 2100 2157 2160 2103
8 2100 2157 2160 2103 2101 2158 2161 2104
8 2101 2158 2161 2104 2102 2159 2162 2105
8 2102 2159 2162 2105 859 878 879 860
8 499 518 519 500 2103 2160 2163 2106
8 2103 2160 2163 2106 2104 2161 2164 2107
8 2104 2161 2164 2107 2105 2162 2165 2108
8 2105 2162 2165 2108 860 879 880 861
8 500 519 520 501 2106 2163 2166 2109
8 2106 2163 2166 2109 2107 2164 2167 2110
8 2107 2164 2167 2110 2108 2165 2168 2111
8 2108 2165 2168 2111 861 880 881 862
8 501 520 521 502 2109 2166 2169 2112
8 2109 2166 2169 2112 2110 2167 2170 2113
8 2110 2167 2170 2113 2111 2168 2171 2114
8 2111 2168 2171 2114 862 881 882 863
8 502 521 522 503 2112 2169 2172 2115
8 2112 2169 2172 2115 2113 2170 2173 2116
8 2113 2170 2173 2116 2114 2171 2174 2117
8 2114 2171 2174 2117 863 882 883 864
8 503 522 523 504 2115 2172 2175 2118
8 2115 2172 2175 2118 2116 2173 2176 2119
8 2116 2173 2176 2119 2117 2174 2177 2120
8 2117 2174 2177 2120 864 883 884 865
8 504 523 524 505 2118 2175 2178 2121
8 2118 2175 2178 2121 2119 2176 2179 2122
8 2119 2176 2179 2122 2120 2177 2180 2123
8 2120 2177 2180 2123 865 884 885 866
8 505 524 525 506 2121 2178 2181 2124
8 2121 2178 2181 2124 2122 2179 2182 2125
8 2122 2179 2182 2125 2123 2180 2183 2126
8 2123 2180 2183 2126 866 885 886 867
8 506 525 526 507 2124 2181 2184 2127
8 2124 2181 2184 2127 2125 2182 2185 2128
8 2125 2182 2185 2128 2126 2183 2186 2129
8 2126 2183 2186 2129 867 886 887 868
8 507 526 527 508 2127 2184 2187 2130
8 2127 2184 2187 2130 2128 2185 2188 2131
8 2128 2185 2188 2131 2129 2186 2189 2132
8 2129 2186 2189 2132 868 887 888 869
8 508 527 528 509 2130 2187 2190 2133
8 2130 2187 2190 2133 2131 2188 2191 2134
8 2131 2188 2191 2134 2132 2189 2192 2135
8 2132 2189 2192 2135 869 888 889 870
8 509 528 529 510 2133 2190 2193 2136
8 2133 2190 2193 2136 2134 2191 2194 2137
8 2134 2191 2194 2137 2135 2192 2195 2138
8 2135 2192 2195 2138 870 889 890 871
8 510 529 530 511 2136 2193 2196 2139
8 2136 2193 2196 2139 2137 2194 2197 2140
8 2137 2194 2197 2140 2138 2195 2198 2141
8 2138 2195 2198 2141 871 890 891 872
8 511 530 531 512 2139 2196 2199 2142
8 2139 2196 2199 2142 2140 2197 2200 2143
8 2140 2197 2200 2143 2141 2198 2201 2144
8 2141 2198 2201 2144 872 891 892 873
8 512 531 532 513 2142 2199 2202 2145
8 2142 2199 2202 2145 2143 2200 2203 2146
8 2143 2200 2203 2146 2144 2201 2204 2147
8 2144 2201 2204 2147 873 892 893 874
8 513 532 46 47 2145 2202 1008 1011
8 2145 2202 1008 1011 2146 2203 1009 1012
8 2146 2203 1009 1012 2147 2204 1010 1013
8 2147 2204 1010 1013 874 893 122 123
8 26 1 27 514 948 163 951 2148
8 948 163 951 2148 949 164 952 2149
8 949 164 952 2149 950 165 953 2150
8 950 165 953 2150 102 5 103 875
8 514 27 28 515 2148 951 954 2151
8 2148 951 954 2151 2149 952 955 2152
8 2149 952 955 2152 2150 953 956 2153
8 2150 953 956 2153 875 103 104 876
8 515 28 29 516 2151 954 957 2154
8 2151 954 957 2154 2152 955 958 2155
8 2152 955 958 2155 2153 956 959 2156
8 2153 956 959 2156 876 104 105 877
8 516 29 30 517 2154 957 960 2157
8 2154 957 960 2157 2155 958 961 2158
8 2155 958 961 2158 2156 959 962 2159
8 2156 959 962 2159 877 105 106 878
8 517 30 31 518 2157 960 963 2160
8 2157 960 963 2160 2158 961 964 2161
8 2158 961 964 2161 2159 962 965 2162
8 2159 962 965 2162 878 106 107 879
8 518 31 32 519 2160 963 966 2163
8 2160 963 966 2163 2161 964 967 2164
8 2161 964 967 2164 2162 965 968 2165
8 2162 965 968 2165 879 107 108 880
8 519 32 33 520 2163 966 969 2166
8 2163 966 969 2166 2164 967 970 2167
8 2164 967 970 2167 2165 968 971 2168
8 2165 968 971 2168 880 108 109 881
8 520 33 34 521 2166 969 972 2169
8 2166 969 972 2169 2167 970 973 2170
8 2167 970 973 2170 2168 971 974 2171
8 2168 971 974 2171 881 109 110 882
8 521 34 35 522 2169 972 975 2172
8 2169 972 975 2172 2170 973 976 2173
8 2170 973 976 2173 2171 974 977 2174
8 2171 974 977 2174 882 110 111 883
8 522 35 36 523 2172 975 978 2175
8 2172 975 978 2175 2173 976 979 2176
8 2173 976 979 2176 2174 977 980 2177
8 2174 977 980 2177 883 111 112 884
8 523 36 37 524 2175 978 981 2178
8 2175 978 981 2178 2176 979 982 2179
8 2176 979 982 2179 2177 980 983 2180
8 2177 980 983 2180 884 112 113 885
8 524 37 38 525 2178 981 984 2181
8 2178 981 984 2181 2179 982 985 2182
8 2179 982 985 2182 2180 983 986 2183
8 2180 983 986 2183 885 113 114 886
8 525 38 39 526 2181 984 987 2184
8 2181 984 987 2184 2182 985 988 2185
8 2182 985 988 2185 2183 986 989 2186
8 2183 986 989 2186 886 114 115 887
8 526 39 40 527 2184 987 990 2187
8 2184 987 990 2187 2185 988 991 2188
8 2185 988 991 2188 2186 989 992 2189
8 2186 989 992 2189 887 115 116 888
8 527 40 41 528 2187 990 993 2190
8 2187 990 993 2190 2188 991 994 2191
8 2188 991 994 2191 2189 992 995 2192
8 2189 992 995 2192 888 116 117 889
8 528 41 42 529 2190 993 996 2193
8 2190 993 996 2193 2191 994 997 2194
8 2191 994 997 2194 2192 995 998 2195
8 2192 995 998 2195 889 117 118 890
8 529 42 43 530 2193 996 999 2196
8 2193 996 999 2196 2194 997 1000 2197
8 2194 997 1000 2197 2195 998 1001 2198
8 2195 998 1001 2198 890 118 119 891
8 530 43 44 531 2196 999 1002 2199
8 2196 999 1002 2199 2197 1000 1003 2200
8 2197 1000 1003 2200 2198 1001 1004 2201
8 2198 1001 1004 2201 891 119 120 892
8 531 44 45 532 2199 1002 1005 2202
8 2199 1002 1005 2202 2200 1003 1006 2203
8 2200 1003 1006 2203 2201 1004 1007 2204
8 2201 1004 1007 2204 892 120 121 893
8 532 45 2 46 2202 1005 166 1008
8 2202 1005 166 1008 2203 1006 167 1009
8 2203 1006 167 1009 2204 1007 168 1010
8 2204 1007 168 1010 893 121 6 122
CELL_TYPES 1600
12
12
12
12
12
12
12
12
12
12
12
12
12
12
12
12
12
12
12
12
12
12
12
12
12
12
12
12
12
12
12
12
12
12
12
12
12
12
12
12
12
12
12
12
12
12
12
12
12
12
12
12
12
12
12
12
12
12
12
12
12
12
12
12
12
12
12
12
12
12
12
12
12
12
12
12
12
12
12
12
12
12
12
12
12
12
12
12
12
12
12
12
12
12
12
12
12
12
12
12
12
12
12
12
12
12
12
12
12
12
12
12
12
12
12
12
12
12
12
12
12
12
12
12
12
12
12
12
12
12
12
12
12
12
12
12
12
12
12
12
12
12
12
12
12
12
12
12
12
12
12
12
12
12
12
12
12
12
12
12
12
12
12
12
12
12
12
12
12
12
12
12
12
12
12
12
12
12
12
12
12
12
12
12
12
12
12
12
12
12
12
12
12
12
12
12
12
12
12
12
12
12
12
12
12
12
12
12
12
12
12
12
12
12
12
12
12
12
12
12
12
12
12
12
12
12
12
12
12
12
12
12
12
12
12
12
12
12
12
12
12
12
12
12
12
12
12
12
12
12
12
12
12
12
12
12
12
12
12
12
12
12
12
12
12
12
12
12
12
12
12
12
12
12
12
12
12
12
12
12
12
12
12
12
12
12
12
12
12
12
12
12
12
12
12
12
12
12
12
12
12
12
12
12
12
12
12
12
12
12
12
12
12
12
12
12
12
12
12
12
12
12
12
12
12
12
12
12
12
12
12
12
12
12
12
12
12
12
12
12
12
12
12
12
12
12
12
12
12
12
12
12
12
12
12
12
12
12
12
12
12
12
12
12
12
12
12
12
12
12
12
12
12
12
12
12
12
12
12
12
12
12
12
12
12
12
12
12
12
12
12
12
12
12
12
12
12
12
12
12
12
12
12
12
12
12
12
12
12
12
12
12
12
12
12
12
12
12
12
12
12
12
12
12
12
12
12
12
12
12
12
12
12
12
12
12
12
12
12
12
12
12
12
12
12
12
12
12
12
12
12
12
12
12
12
12
12
12
12
12
12
12
12
12
12
12
12
12
12
12
12
12
12
12
12
12
12
12
12
12
12
12
12
12
12
12
12
12
12
12
12
12
12
12
12
12
12
12
12
12
12
12
12
12
12
12
12
12
12
12
12
12
12
12
12
12
12
12
12
12
12
12
12
12
12
12
12
12
12
12
12
12
12
12
12
12
12
12
12
12
12
12
12
12
12
12
12
12
12
12
12
12
12
12
12
12
12
12
12
12
12
12
12
12
12
12
12
12
12
12
12
12
12
12
12
12
12
12
12
12
12
12
12
12
12
12
12
12
12
12
12
12
12
12
12
12
12
12
12
12
12
12
12
12
12
12
12
12
12
12
12
12
12
12
12
12
12
12
12
12
12
12
12
12
12
12
12
12
12
12
12
12
12
12
12
12
12
12
12
12
12
12
12
12
12
12
12
12
12
12
12
12
12
12
12
12
12
12
12
12
12
12
12
12
12
12
12
12
12
12
12
12
12
12
12
12
12
12
12
12
12
12
12
12
12
12
12
12
12
12
12
12
12
12
12
12
12
12
12
12
12
12
12
12
12
12
12
12
12
12
12
12
12
12
12
12
12
12
12
12
12
12
12
12
12
12
12
12
12
12
12
12
12
12
12
12
12
12
12
12
12
12
12
12
12
12
12
12
12
12
12
12
12
12
12
12
12
12
12
12
12
12
12
12
12
12
12
12
12
12
12
12
12
12
12
12
12
12
12
12
12
12
12
12
12
12
12
12
12
12
12
12
12
12
12
12
12
12
12
12
12
12
12
12
12
12
12
12
12
12
12
12
12
12
12
12
12
12
12
12
12
12
12
12
12
12
12
12
12
12
12
12
12
12
12
12
12
12
12
12
12
12
12
12
12
12
12
12
12
12
12
12
12
12
12
12
12
12
12
12
12
12
12
12
12
12
12
12
12
12
12
12
12
12
12
12
12
12
12
12
12
12
12
12
12
12
12
12
12
12
12
12
12
12
12
12
12
12
12
12
12
12
12
12
12
12
12
12
12
12
12
12
12
12
12
12
12
12
12
12
12
12
12
12
12
12
12
12
12
12
12
12
12
12
12
12
12
12
12
12
12
12
12
12
12
12
12
12
12
12
12
12
12
12
12
12
12
12
12
12
12
12
12
12
12
12
12
12
12
12
12
12
12
12
12
12
12
12
12
12
12
12
12
12
12
12
12
12
12
12
12
12
12
12
12
12
12
12
12
12
12
12
12
12
12
12
12
12
12
12
12
12
12
12
12
12
12
12
12
12
12
12
12
12
12
12
12
12
12
12
12
12
12
12
12
12
12
12
12
12
12
12
12
12
12
12
12
12
12
12
12
12
12
12
12
12
12
12
12
12
12
12
12
12
12
12
12
12
12
12
12
12
12
12
12
12
12
12
12
12
12
12
12
12
12
12
12
12
12
12
12
12
12
12
12
12
12
12
12
12
12
12
12
12
12
12
12
12
12
12
12
12
12
12
12
12
12
12
12
12
12
12
12
12
12
12
12
12
12
12
12
12
12
12
12
12
12
12
12
12
12
12
12
12
12
12
12
12
12
12
12
12
12
12
12
12
12
12
12
12
12
12
12
12
12
12
12
12
12
12
12
12
12
12
12
12
12
12
12
12
12
12
12
12
12
12
12
12
12
12
12
12
12
12
12
12
12
12
12
12
12
12
12
12
12
12
12
12
12
12
12
12
12
12
12
12
12
12
12
12
12
12
12
12
12
12
12
12
12
12
12
12
12
12
12
12
12
12
12
12
12
12
12
12
12
12
12
12
12
12
12
12
12
12
12
12
12
12
12
12
12
12
12
12
12
12
12
12
12
12
12
12
12
12
12
12
12
12
12
12
12
12
12
12
12
12
12
12
12
12
12
12
12
12
12
12
12
12
12
12
12
12
12
12
12
12
12
12
12
12
12
12
12
12
12
12
12
12
12
12
12
12
12
12
12
12
12
12
12
12
12
12
12
12
12
12
12
12
12
12
12
12
12
12
12
12
12
12
12
12
12
12
12
12
12
12
12
12
12
12
12
12
12
12
12
12
12
12
12
12
12
12
12
12
12
12
12
12
12
12
12
12
12
12
12
12
12
12
12
12
12
12
12
12
12
12
12
12
12
12
12
12
12
12
12
12
12
12
12
12
12
12
12
12
12
12
12
12
12
12
12
12
12
12
12
12
12
12
12
12
12
12
12
12
12
12
12
12
12
12
12
12
12
12
12
12
12
12
12
12
12
12
12
12
12
12
12
12
12
12
12
12
12
12
12
12
12
12
12
12
12
12
12
12
12
12
12
12
12
12
12
12
12
12
12
12
12
12
12
12
12
12
12
12
12
12
12
12
12
12
12
12
12
12
12
12
12
12
12
12
12
12
12
12
12
12
12
12
12
12
12
12
12
12
12
12
12
12
12
12
12
12
12
12
12
12
12
12
12
12
12
12
12
12
12
12
12
12
12
12
12
12
12
12
12
12
12
12
12
12
12
12
12
12
12
12
12
12
12
12
12
12
12
12
12
12
12
12
12
12
12
12
12
12
12
12
12
12
12
12
12
12
12
12
12
12
12
12
12
12
POINT_DATA 2205
SCALARS stress11 float
LOOKUP_TABLE default
-8041987764.0
-9832580964.0
-8686131718.640625
-8445414885.0
7194572811.0
9359284701.0
8140875133.25
7772511609.0
-6538508769.0
-11766037513.0
-17837080712.0
-26883653286.0
-36630144939.0
-46389313677.0
-56599682633.0
-64359043408.0
-71396615342.0
-68934986057.0
-69932355846.0
-64864351742.0
-57848087220.0
-47183240395.0
-38080060756.0
-26033487032.0
-18734226358.0
-10570474204.0
-6766069479.0
-6584688644.5
-10810704055.0
-18029521992.5
-28196166993.5
-38539548385.0
-47893420475.5
-55937374400.0
-64355275904.0
-69792900337.0
-70172704025.5
-69175966630.5
-64614068487.25
-56975078652.25
-48200754338.25
-37003179268.75
-28599495415.5
-18834417781.0
-10085114929.3125
-6023414422.3125
-6154964197.625
-11704145331.25
-17013469606.25
-27741894852.375
-39905071330.0
-48692906696.75
-56622614099.5
-63178251511.0
-67791815061.75
-69725726264.5
-66478895851.0
-62837572741.5
-56856667344.5
-47954046068.0
-38390084876.0
-27853457478.5
-17579669287.0
-10602695904.5
-6388201831.0
-6988808446.0
-11761617756.0
-16663426326.0
-26880423689.0
-38469794190.0
-49137079091.0
-56367974396.0
-63738378231.0
-69136650359.0
-70109162818.0
-68635565329.0
-62528747684.0
-57549855080.0
-48439742492.0
-37167543709.0
-26606557320.0
-17378306791.0
-10150577591.0
-4893208931.0
5284330756.0
10492669994.0
17604243796.0
25903805534.0
36515841706.0
46238141190.0
56426688192.0
63906917207.0
70131270669.0
68295543147.0
68648127566.0
63439891793.0
57423800343.0
46733121962.0
37717551648.0
26242874729.0
17774241354.0
9539077975.0
6471051611.0
5098158585.0
11304300151.5
17008633412.0
27054522994.0
38763629210.0
47454368037.5
56896308542.5
65061198060.5
68930389920.0
69741123279.5
69865976217.75
64766045596.0
57977636848.0
49084201900.0
37733157187.5
28367145008.125
18681310074.875
9419545334.8125
4772662075.0625
6665438473.34375
11710049102.125
17606060713.0
27961503053.875
38734038384.25
49099384406.5
56290628586.0
63543518433.5
68274537968.75
69985161469.0
68327537048.0
63639541556.0
57773528899.0
48135976408.0
37643047119.0
27481956991.5
18413866171.5
10601012397.0
5836291738.0
5831763701.0
11310158326.0
17160154204.0
26763627145.0
37242099254.0
49281908455.0
56518118185.0
64280003373.0
67831275801.0
70661209003.0
68727869504.0
63651046332.0
57684543665.0
47680133191.0
37583289057.0
26668064585.0
17625432981.0
10382729712.0
5820373608.0
-4197723473.0
-412956832.0
3366279645.0
-4997702538.0
-227952493.0
4537253128.0
-4445438028.0
-264953902.34375
3911531343.578125
-4355901636.0
-327042866.0
3697020883.0
-4431972857.0
-7802631280.0
-13904514596.0
-20211897900.0
-27531775688.0
-35510523995.0
-42594790964.0
-48217020507.0
-50169147431.0
-52554166438.0
-50284019766.0
-48008229460.0
-42051683243.0
-34685498618.0
-28585740816.0
-19800003982.0
-12753426287.0
-8366545208.0
-5164662168.5
-8489765670.0
-11688813775.0
-15529633506.0
-19418315289.0
-22701335685.0
-29256937907.0
-33027607298.0
-36614074634.0
-39678441558.0
-40682929360.0
-40409933706.0
-37585513826.0
-32697045855.0
-29143634486.0
-24051232122.5
-18733673344.5
-15037060042.5
-11208844995.0
-7808323767.0
-12062816047.0
-15234228098.0
-16207346848.0
-16720376381.0
-17937956604.0
-19067813610.0
-21395360764.0
-22759304207.0
-24971044902.0
-24648468520.0
-24534493039.0
-23133117002.5
-21388947808.0
-20976843781.0
-17774385286.0
-16522906292.0
-16404770125.0
-15108718118.0
-14530540254.5
-21434939249.0
-18698551395.0
-16515566067.0
-13023502829.0
-10920226162.0
-8184202793.0
-6029412126.0
-4872543978.0
-5566353242.0
-5158087313.0
-5096806850.0
-5811006487.5
-6463888211.5
-6973399562.0
-9620485790.5
-14023220411.0
-16979023290.5
-18215015283.0
-20833165706.0
-28357384781.0
-23915728858.0
-18081600268.0
-11627197440.0
-1445635507.0
7262861713.0
11535930392.0
15819422456.0
18046038008.5
16417027195.0
17749189272.0
15862845694.5
13834623745.0
5287827125.5
-896619697.0
-10526653430.5
-16665216520.0
-24670252472.0
-28019624262.0
-35553420284.0
-28943115870.0
-19053532171.0
-7618194642.0
6645681870.0
22005309311.0
34615227063.5
40771087713.5
42878063675.0
44917271732.5
44060538923.0
40337981623.0
33128292574.0
21440471604.5
6702997952.0
-8133788256.0
-19636437709.0
-29582770328.0
-34399700161.5
-42427680203.0
-32216630193.0
-20995989336.0
-5738498280.0
12600287303.0
33300629877.5
54481927328.0
69678984359.0
74003012248.0
76630304885.0
74817210509.0
69404283143.5
53825030085.0
33788764336.0
12789583178.0
-5297234145.0
-22265691086.0
-32946076761.0
-41395403407.0
-46065705658.0
-37207684664.0
-23733652160.0
-5534508049.0
14331840277.0
39729137732.5
69405416787.0
99020784620.0
115045490567.5
110600716070.5
114623638731.0
98873923228.5
69609681399.0
39126086494.0
15224942790.0
-5694894004.0
-22709707168.5
-37983417780.5
-45924976137.5
-51179088052.0
-39333821877.0
-26327437696.0
-6121607840.0
16527194856.0
43573419645.5
73741730260.0
113929727902.0
163589593640.0
193304085521.0
162350496413.0
115682239378.5
74738597341.5
43487732239.5
17016395539.0
-5503541019.0
-24635447470.5
-40637764513.0
-50864921986.0
-51205761535.0
-40333570884.0
-25229340093.0
-5212269210.0
17798501227.0
44650824955.0
77976220739.0
109754668540.5
192420312142.0
213706276876.5
192042596261.0
110442550686.0
78484546786.5
43385955628.5
16926697409.0
-5531780361.0
-24466490012.0
-40022323364.5
-51300310435.5
-50459336096.0
-39171182809.0
-24613279250.0
-5717433129.5
16473913716.0
43517811929.0
74583761602.0
114052112694.0
163035083622.5
193391083000.0
162184773833.0
113873732647.5
73263378528.0
43649224281.0
17426390961.0
-6209379788.5
-25027577900.25
-39761122739.75
-50725734558.5
-47808444349.0
-37497314006.0
-23241832568.5
-6183830689.5
16501295313.5
41721323153.5
69722634891.0
99231303877.0
115010738769.0
109894646305.0
114422252142.5
98056145675.5
69390866955.5
39812680084.5
15170309294.75
-6464470056.5
-22866291803.75
-36755823033.75
-47189845989.75
-42043939528.0
-32534360960.0
-22037098724.0
-6096509417.0
12783494212.5
33636683449.5
54860297724.5
68583901448.0
73846403153.5
78210092186.0
74385780231.0
68781619737.5
54130683615.0
33105781952.5
12657792677.5
-5691624938.25
-22545720414.25
-33383969679.5
-41519318867.25
-35658915188.0
-28892720898.0
-19486367711.0
-7550010561.0
6690435095.5
20884935775.5
33124516183.5
41041601548.0
43217423941.5
43880801447.0
43746203001.5
40524821110.0
34223382414.75
20961224929.5
6347559629.0
-7042691304.25
-18532792178.25
-28886047755.75
-35390296151.0
-27399344890.0
-23546332733.5
-17786485006.0
-10489312598.0
24274690.0
6323324281.0
12220201483.5
15486313753.5
16270011465.0
17191773849.0
16846548352.5
15196301319.25
12289554880.0
6479905022.0
-839061202.0
-8273258013.75
-19290951556.25
-24366231504.75
-27084205943.0
-20456779128.0
-18710427328.5
-17644705144.0
-12957007296.5
-10021197593.0
-7501879962.0
-6446316245.0
-6866648653.5
-6442479107.5
-5270223833.5
-5839065747.0
-7488977802.0
-5833898895.5
-7626121022.25
-10029522632.0
-13247926580.5
-16024421656.25
-18805447392.75
-20605030932.125
-13699653585.0
-14669323960.5
-15476779565.5
-17167670685.5
-17985470992.0
-18641757904.5
-22799752285.0
-22635269151.0
-24778998858.0
-25484614313.5
-23399670635.5
-23301126667.25
-21700875521.5
-20211371339.0
-17990494170.5
-17368974153.875
-14950535169.5
-15434176762.5
-13829634648.5
-8291530109.0
-11892389515.5
-15292896153.5
-19813592596.5
-23749288049.5
-29161060093.5
-34213736671.0
-36959954160.5
-39565215915.5
-40187814814.5
-39819968819.25
-37754797484.25
-33073154002.5
-28921162188.5
-24261584273.75
-19801130397.375
-16206790564.875
-11301020145.0
-8694348465.875
-3728947140.0
-9349431985.0
-12683177426.0
-20693606527.0
-26106194594.0
-35443733155.0
-41898789471.5
-46197134350.5
-49391108433.5
-51820903607.5
-51419845642.5
-47131706776.5
-42611506736.5
-34978560729.5
-28618687542.75
-21427986597.25
-13278879457.5
-9016163081.5
-4192882402.5625
4163035237.0
7973251918.0
14005421837.0
20002219923.0
27541957051.0
35585319306.0
42596686969.0
47886128763.0
50239852311.0
52146028202.0
50491087981.0
48253555188.0
41837185562.0
34796988775.0
29099942262.0
19691991629.0
12735130287.0
8057257590.0
5107306980.5
8297952146.0
11330696351.0
15274698243.0
18974168242.0
22557121601.0
28665493480.0
33610060459.0
36981149453.0
39837236946.0
41301362100.0
40304971092.0
37993270533.0
32632311555.0
29028496805.5
23953518914.0
18817516929.5
15017792495.0
11195515163.5
7590175556.5
12462879072.0
14862298857.0
16495061766.0
16895905359.0
17982611854.0
19625917686.0
21312920088.0
22872531759.0
24589415608.0
24246904111.0
24436545644.0
22936355404.5
21438275064.5
21280535680.0
17535638198.0
16282716443.5
16380535966.0
15397938450.0
14076729847.5
21429886189.0
18857347243.0
16601602532.0
13321070043.0
10683827481.0
7890345987.0
6378263009.0
4808564515.0
5392681820.0
5513260739.5
5066912913.0
6177814736.5
6315751035.5
7145507089.5
9671098137.5
14175383514.5
17242708681.0
18853689195.0
20541329407.0
28338731417.0
23858295730.0
18490879404.0
11661039462.0
1420636724.0
-7049145076.0
-11734787273.0
-15473046086.0
-17752037475.5
-16546992372.5
-17556206823.0
-15689984249.5
-13446896129.5
-5544876547.0
853384206.0
10642452393.0
16753407154.5
24813859924.0
27996549185.5
35637741962.0
28689196236.0
18664111332.0
7729082816.0
-6502842016.0
-21806609597.0
-34591547700.5
-40615889914.5
-43281261360.0
-44635458453.5
-44355297029.0
-40511019660.5
-33026658984.5
-21142303776.5
-6576873398.0
8124902586.5
19143404731.0
29632663767.5
34595411404.0
42094780822.0
32826177003.0
20969319236.0
6086120761.0
-12471425622.0
-33584855323.5
-54469219241.5
-69490275491.5
-74272439161.5
-76506639355.5
-74697564646.0
-69458964062.5
-53828891274.5
-33625008884.5
-12857111141.0
5342009094.0
22442335629.0
32732049609.0
41288340308.5
46547883363.0
37206971852.0
23575803255.0
5672802563.0
-14526762678.0
-39752656097.0
-69344497306.5
-98941685486.0
-115124879089.5
-110562427375.0
-114976905802.5
-98571135105.5
-69467472880.5
-39745224680.5
-15021699143.5
5459699896.0
22671750338.0
38283427303.0
46251947416.5
51127298435.0
39482335333.0
26234170847.0
6247973566.0
-16176226485.5
-43693339489.0
-74163676787.5
-113701230968.0
-163775965431.5
-193133495448.5
-162277361969.5
-115749766534.0
-74780104127.0
-43360074417.5
-17332571931.5
5439770329.0
25247055468.5
40445703404.5
50356815148.5
51507858556.0
40450125621.0
25207774856.0
5098588448.5
-18088063438.5
-44069065405.0
-77768969824.0
-109885826161.5
-192757526639.5
-213669108237.5
-192341744611.0
-110093726924.0
-78226529496.5
-43388982858.5
-16697376062.0
5253097588.0
24473402968.0
39754871981.5
51382011863.0
50388729000.0
39228625689.0
25098624337.0
6256195231.5
-16836057294.5
-43824513878.5
-74468654805.0
-114588849687.0
-163147092407.0
-193392925819.5
-162236359602.5
-113760870969.0
-73429420220.5
-43987258153.0
-17083245033.0
6432869253.0
24880354991.75
39690071353.0
50645004936.75
47841477286.0
37080180084.0
23396741073.5
6034525589.0
-16196381112.5
-41355035050.5
-69754677983.5
-98595813217.5
-114684841209.0
-110187959068.0
-114559239641.0
-98003316459.5
-69460185162.5
-39773050745.5
-15050030698.75
6341586539.0
22876284132.25
36655390580.25
47373041103.0
42329615329.0
32965934021.0
21586696973.5
6200236823.0
-12784927118.5
-33860779764.5
-54596166649.5
-69001710603.0
-73706703009.5
-78220194776.5
-74576030317.5
-68830857765.0
-53954857454.0
-33209562957.25
-12441630032.5
5788861054.5
22864129813.5
33739270071.25
41702278408.0
36005500799.0
29259405118.5
19356427184.0
7808568501.5
-6669448152.0
-21117941570.5
-33375678216.0
-40776066777.0
-43340234552.0
-43804464608.5
-43772767801.0
-40075982914.0
-34042647658.25
-21002852034.25
-6259247763.25
6961681346.75
18720017758.75
28951030702.0
35269714816.25
27031660631.0
23554015806.0
17911592840.0
10527100785.5
479310155.0
-6501185777.0
-12154411190.5
-15466061743.5
-16309455892.5
-17266949724.0
-16775232362.0
-15308352386.25
-12208272311.75
-6698906226.0
823676983.5
8778152435.5
19199074194.25
23749482070.5
27289898052.5
19760648072.0
18910467377.5
17566236674.5
13709961507.5
9933786088.5
7470223709.5
6758026391.0
6898973286.5
6414042956.5
5557394089.0
5966001668.0
7853329176.75
5863931057.5
7562202928.0
9543569231.25
13213308521.75
16071882652.625
19142154140.75
20189568672.875
13954857550.0
14604660353.0
15108851452.5
16972653194.5
18047030625.0
18798446699.5
22785528103.0
23138348889.0
24551076397.5
25505719952.5
23672349531.75
23343854767.5
22107307027.75
20029573294.25
18256034430.75
17563426857.0
14627609557.625
15571763236.0
13743288698.125
7921836214.0
12325311579.5
15321216369.0
19753399881.0
23399263458.5
29591586248.5
33888366400.0
36806928854.5
39861910626.0
40085924943.5
39908963070.0
37533110827.25
33011106120.5
29020360576.25
24281385639.5
20065670611.125
16116264748.75
10846311972.5
8588962366.4375
3797959266.0
8939509904.5
12633915223.5
20853986527.5
26307026761.0
35430168440.5
41333432145.0
46319328998.5
49608006017.5
51851952690.5
51361885349.0
47573180571.0
42188909130.25
35063501398.75
28705596828.5
21190087952.375
13578439458.625
9094705372.375
3867966381.4375
-3504772283.0
-591608197.0
2303540779.0
-6082384956.0
-594358294.0
4872173648.0
-8843122306.0
-116775221.0
8609852465.0
-13460524800.0
-458149087.0
12528307940.0
-18066382554.0
-54210881.0
17956497996.0
-22879375500.0
-64300352.0
22744941288.0
-27926514679.0
-83041788.0
27758756066.0
-31827149691.0
-226690677.0
31374068645.0
-35490794562.0
-611834388.0
34256643735.0
-34122270950.0
-320397359.0
33481870234.0
-34760973691.0
-610111614.0
33524879035.0
-32291093591.0
-674997258.0
30922510237.0
-28611894250.0
-215151731.0
28183327811.0
-23352307217.0
-219544437.0
22910473873.0
-18844012832.0
-169001523.0
18500099947.0
-12765976912.0
103571722.0
12973936154.0
-9445719798.0
-450470326.0
8529919505.0
-5427495410.0
-474423139.0
4457718795.0
-3389809452.0
-131238372.0
3119153860.0
-3579566071.0
-699330138.5
2158633717.5
-5204052061.5
231976170.5
5675610136.0
-9109425032.0
-476577643.5
8139103266.5
-14154977344.0
-540793421.0
13058324789.0
-18941753305.0
100319943.0
19148294291.5
-23693921904.0
-202268073.0
23280609785.5
-27329721817.0
460586971.0
28260617173.0
-31542654555.0
340392344.0
32229838378.5
-34596974354.5
-411489911.0
33764141271.5
-34678782796.5
-209395954.0
34256735240.5
-33926732456.25
324357949.5
34586093115.25
-31798036668.75
77538855.5
31952419820.0
-27834555367.0
477956539.25
28802452843.75
-23552749670.25
405669610.75
24382486406.5
-18066113741.25
331470925.25
18746263108.75
-14138765223.75
-105588905.625
13922398654.25
-9304526132.125
-65161388.625
9168662223.0
-5109802541.5
-309775259.875
4478675022.3125
-3248674653.3125
-587881945.5
2054192670.53125
-2900887806.53125
248934235.0625
3402094940.28125
-5747391713.3125
19333154.375
5777844220.625
-8229070556.0
288466826.625
8809877437.125
-13606059303.25
114671800.125
13833144114.5
-19931869199.75
-548231575.5
18816671242.0
-23892503265.75
194713604.0
24286510062.25
-27968091182.5
-150172483.25
27659940632.5
-31038067973.0
177166932.75
31395141065.5
-33282655240.0
233991336.5
33754468161.25
-34286886053.0
133410643.5
34551904133.0
-32321255040.0
874238907.5
34095146269.0
-30769090251.5
383733145.5
31545479412.5
-27795658734.5
441039877.5
28686786480.5
-23582094544.0
89114205.5
23761488308.5
-19091970100.5
-359462758.5
18366203705.5
-13804746465.0
-175128868.0
13449335956.5
-8453723068.5
401672325.0
9264829337.5
-5209129851.5
9455983.5
5222887342.0
-3258937823.0
-248824206.5
2747521960.5
-3694351829.0
-534026042.0
2603954404.0
-5892940573.0
-210929793.0
5463746858.0
-8091341387.0
228317700.0
8558133234.0
-13268564789.0
-58776761.0
13151377784.0
-19239699680.0
-585355868.0
18054715829.0
-24186139760.0
57350783.0
24308551456.0
-27736056846.0
69169476.0
27877469579.0
-31283244599.0
248231423.0
31791137251.0
-34370376804.0
-619245719.0
33114967977.0
-34417304954.0
258939792.0
34943919970.0
-33792620409.0
50271101.0
33891203354.0
-30542417758.0
532258862.0
31621689057.0
-28330717663.0
56941216.0
28450115583.0
-24042560219.0
-358918385.0
23314295992.0
-18208836303.0
201287114.0
18615012788.0
-13082947354.0
38828778.0
13156733035.0
-8493525154.0
121303659.0
8737260804.0
-4929531936.0
121687638.0
5169941772.0
-2178253598.0
448230089.0
3082561463.0
-2138390549.0
-90018669.0
1935864977.0
-3661606370.0
106480620.0
3864073197.0
-6641634693.0
55544821.0
6750241700.0
-9750736847.0
-90533668.0
9562440722.0
-13233936105.0
774180.0
13237832016.0
-17073386827.0
24317304.0
17128869337.0
-20504033237.0
-8251840.0
20492178911.0
-23274771784.0
-135812507.0
22988407158.0
-24104999998.0
57131842.0
24208567661.0
-25395590970.0
-190648022.0
25007501211.0
-24165559844.0
73379827.0
24327810874.0
-23081188779.0
79539700.0
23261968720.0
-20290042079.0
-110196740.0
20071264264.0
-16668279604.0
26902634.0
16736763304.0
-13643100233.0
227961023.0
14113940277.0
-9526013672.0
-42948128.0
9434587546.0
-6121311307.0
-23543090.0
6081565954.0
-4047347430.0
-119068643.0
3791444596.0
-2438897892.5
19907442.5
2454321158.5
-4086927704.0
-66501306.0
3939115532.0
-5667598181.0
-149906920.0
5353267443.0
-7494001162.0
-96963047.0
7284702847.0
-9408748016.0
-187209277.0
9016834284.0
-10925491170.0
-70105647.0
10784344594.0
-14192249096.0
-260700553.0
13653189378.0
-15758696893.0
247986548.0
16276699813.0
-17529354478.0
150146779.0
17846773126.0
-19067656869.0
46140124.0
19176878513.0
-19468904345.0
230900501.0
19970291590.0
-19484451151.0
-72514185.0
19349573958.0
-18013066245.0
153119875.0
18345076801.0
-15730089233.0
-36741692.0
15658707045.0
-14044297886.5
-64968827.5
13918190314.5
-11573283149.0
-41738456.0
11486337467.0
-8971627122.0
34790201.5
9045080516.0
-7220735668.0
-17650662.0
7189411860.5
-5351089832.0
12656268.0
5366864198.5
-3750562976.0
-70839793.5
3589660281.5
-5690637711.0
160871598.0
6032195906.0
-7391639980.0
-174123813.0
7037710728.0
-7727641969.0
112091827.0
7968038378.0
-7995191179.0
66837465.0
8139675472.0
-8620449650.0
-2165138.0
8628670003.0
-9041406832.0
243188642.0
9545956649.0
-10315645816.0
-47442187.0
10223900388.0
-10937620467.0
28224627.0
11008481283.0
-12111478792.0
-182585341.0
11742105201.0
-11943213772.0
-182872190.0
11568556767.0
-11830337260.0
-48990986.0
11732452073.0
-11183135728.5
-106486242.0
10974257202.0
-10292779367.0
-6183406.5
10296100207.0
-10058202278.0
98386422.5
10281987352.0
-8584564579.0
-107382744.0
8363773352.0
-7976298726.0
-106954653.0
7755935368.5
-7886595585.0
-22673283.0
7846688413.5
-7187556165.0
119451218.5
7439272230.0
-7059347939.0
-186623961.0
6665932422.5
-10308293032.0
-3627454.0
10301684909.0
-8951484928.0
48984650.0
9064757729.0
-7912229483.0
24236269.0
7970248724.0
-6185158214.0
124792308.0
6447000065.0
-5310556099.0
-118051593.0
5074448133.0
-4011517704.0
-142175950.0
3724759586.0
-2851527746.0
131366435.0
3136002853.0
-2392275624.0
-60342137.0
2285953651.0
-2745339774.0
-91007721.0
2565447988.0
-2436828569.0
138295927.0
2733398635.0
-2494967987.5
-40732549.5
2426512287.0
-2775209530.5
113059196.0
3036902779.5
-3181489314.5
-102474939.5
2990985736.0
-3318377427.5
61703706.0
3454119199.0
-4601698059.0
21242732.0
4646388950.5
-6712904302.5
50563976.0
6827243976.0
-8113825032.0
90980305.5
8316398976.5
-8614605487.5
254053329.0
9155834669.5
-10061357051.5
-120295511.5
9808027356.0
-13638583322.0
-5830125.0
13625247150.0
-11509970238.0
-40744491.0
11434687819.0
-8598880085.0
175627724.0
8964892928.0
-5588645113.0
14369459.0
5618824613.0
-702923470.0
-19295319.0
667831187.0
3530777239.0
82072243.0
-3354068327.0
5468931011.0
-102004690.0
-5671605544.0
7631467831.0
127479028.0
-7353340175.0
8699845549.5
113646332.5
-8455639499.5
7803355306.0
-70158296.0
-7941055341.0
8525529891.5
60403074.5
-8386602254.0
7606744858.0
37619262.5
-7506868113.5
6709374786.5
137158555.0
-6406519606.0
2455900162.5
-136015393.0
-2724038840.0
-436220680.0
-30069410.0
380332238.0
-5038942708.0
43782633.5
5133721009.0
-7975725410.0
29241942.5
8041896628.5
-11837482437.5
49366600.5
11947507246.5
-13475720058.0
-13282603.0
13450174039.0
-17082880078.0
43790262.0
17169782704.0
-13976951582.0
-126226139.0
13724104051.0
-9234797183.0
-176708387.0
8872348876.0
-3640577365.0
42900335.0
3732795144.0
3216801835.0
54195792.0
-3099546732.0
10617261306.0
79835674.0
-10447686855.0
16635661105.0
-4086813.0
-16635772943.0
19584646368.5
47855473.0
-19473870406.0
20470149471.5
-173573297.0
-20831482548.0
21613750018.0
142753286.0
-21329037483.5
21076742118.5
-128533762.5
-21343326161.5
19311314032.0
-90795499.5
-19490680016.5
15933415328.0
46562062.5
-15838145736.0
10349579540.0
107809307.5
-10113112209.0
3212725249.0
10922460.5
-3164674036.0
-3936240527.5
-27390555.0
3893153438.5
-9560705627.0
-245331904.5
9069414602.0
-14235173223.0
-6268314.5
14238548345.5
-16497751491.0
81211279.5
16668663467.0
-20493767684.0
-151052120.0
20183857931.0
-15382549368.0
224526774.0
15872180732.0
-10109876060.0
-30008991.0
10058342525.0
-2707485148.0
126136466.0
2983964702.0
6056834743.0
29358793.0
-5980367068.0
15929843188.0
-135974106.0
-16204913363.5
26175402606.5
-8944322.5
-26185646000.0
33505026795.0
70749015.0
-33351653107.0
35460062181.5
-103155890.0
-35682259122.0
36812359499.5
65224107.0
-36683501082.0
35922414631.5
43923615.0
-35826510251.0
33310910651.0
-52402895.0
-33403099929.5
25854754640.5
-9306055.0
-25869584063.0
16260932820.5
58863560.0
-16131579731.5
6105760764.0
-57130380.0
-6208140342.0
-2552084312.0
-3574338.0
2558002850.5
-10691069722.0
58177041.5
10822685758.0
-15869122335.0
-86742140.0
15685502498.0
-19927438667.0
-36692153.5
19845793046.5
-22062665957.0
199997112.0
22483573254.0
-17907644815.0
-21254250.0
17875822661.0
-11458315639.0
-78647756.0
11300796276.0
-2659636159.0
35695324.0
2748005692.0
6801136153.0
-102154540.0
-7003055210.0
19053554131.5
-12239043.5
-19077661890.0
33344087465.0
9548338.5
-33314358915.5
47617665109.5
26252269.0
-47558397601.5
55274734414.0
-12178379.0
-55312879815.0
53015821209.0
28387276.0
-52963673366.0
54984834554.0
-165137845.5
-55320984169.0
47581539344.0
110407981.0
-47339980286.0
33471076910.0
54897932.5
-33353029462.5
18637200094.5
-272067400.5
-19200277072.0
7330378583.0
84677184.5
-7152449928.0
-2801374070.0
-99464238.0
2593344766.5
-10926241681.5
-21881584.0
10883951342.0
-18211721210.0
130440005.0
18482574680.0
-22014961513.5
148867532.5
22320441002.5
-24667060488.0
-51425808.0
24577077462.0
-18905606528.0
30006938.0
18988007988.0
-12723776507.0
-72147252.0
12592327729.0
-2970922673.0
6284607.0
3012187296.0
7975148914.0
143059071.0
-7672607953.0
20875282618.5
-54080147.5
-20986383413.0
35288238120.0
-187819585.5
-35675619653.5
54766391229.0
83485933.5
-54583813932.0
78702400360.5
-55565915.5
-78832524171.5
93229517929.0
105407194.0
-93028786403.0
78128684291.5
32924579.0
-78061045509.0
55565042902.5
-39273783.5
-55640826545.0
35862977997.5
-8878054.5
-35886686267.5
20888996801.5
60458421.0
-20766268634.5
8072257023.5
-151576370.5
-8378719697.0
-2683906113.5
-35418605.5
2614909602.0
-11736533400.0
252973701.0
12269380033.0
-19599600531.0
-93312141.0
19411742046.0
-24596035707.5
-231391767.0
24121951067.5
-24597862211.0
100790715.0
24825018064.0
-19409382824.0
472555.0
19439622372.0
-12161154227.0
-32565966.0
12107006325.0
-2568742053.0
-87348966.5
2409457392.0
8448059613.5
-149997065.0
-8745515655.0
21515832974.0
232623241.5
-21021040385.0
37480053187.0
84479814.5
-37301394255.5
52553594786.5
-66528475.0
-52686137488.5
92681839681.5
-129011761.5
-92959835176.0
102974209785.0
43302110.5
-102899999654.0
92505559009.5
-114386202.0
-92752104936.5
52987806662.0
140604465.0
-52689417481.5
37746872097.5
117123793.5
-37506439787.0
20791134546.0
-888373.5
-20793178747.0
8138074617.5
88215016.5
-7948245794.0
-2735961450.0
-125338767.5
2478260365.0
-11770504674.0
-5469513.0
11764156560.5
-19313380929.5
-136322885.0
19042144245.0
-24683400384.0
16378163.5
24728687607.0
-24299113242.0
-35568430.0
24228203453.0
-18831308773.0
8774089.0
18859053523.0
-11765610501.0
175728149.0
12151009740.0
-2678164733.5
205799231.5
3121957459.0
7790742914.0
-174679951.5
-8143325951.0
20800057727.5
-140713845.0
-21087827915.0
35816901336.5
54950232.0
-35705646154.0
54694009782.0
-210163447.0
-55143692393.5
78433326547.0
-41767101.5
-78523975438.0
93217999780.5
4319453.5
-93211922202.0
78029253125.0
-16635227.0
-78067109733.0
54723949668.5
45422613.0
-54627521160.0
35121159051.0
-58895457.5
-35251032628.0
20879020757.5
-140666306.5
-21174719064.0
8404260501.5
124043112.5
-8132189479.0
-2979622042.0
73142693.0
3145425219.5
-12087630147.25
-81824553.5
11928152122.25
-19150161789.25
-49160414.5
19058796137.25
-24450745700.0
-63460193.5
24335480672.0
-22996880200.0
24189094.0
23041475332.0
-18122570859.0
-186466505.0
17738525878.0
-11162817363.5
41585057.0
11264063879.0
-3032319101.5
-73758348.5
2884415609.0
7964664774.5
112199243.5
-7719846865.0
20097702281.0
142449269.5
-19792206075.0
33490362876.0
-13916015.5
-33519243496.5
47853895097.5
290025714.5
-47259629977.5
55334799465.0
154984486.0
-55020698522.5
52592634863.5
-127199194.5
-52856834940.5
54948440778.5
-53162535.0
-55062404239.5
47141936885.0
18239100.0
-47101255797.5
33312864445.5
-49331453.5
-33404154018.0
19097496055.0
-3098280.0
-19092150232.0
7268105524.0
22644347.5
-7203780924.25
-3174879907.75
-79489803.75
3024967036.5
-11011362207.25
-23920866.5
10978253140.25
-17708396640.25
-67780219.0
17581682335.5
-22693966867.5
50699894.0
22816169939.5
-20171333603.0
117901152.0
20419918256.0
-15557004953.0
164758279.0
15912380316.0
-10719874783.0
-231646061.5
10259795315.0
-2932969184.5
22581663.5
2993015842.0
6121528907.0
-17350222.0
-6147809271.0
16098819154.0
-112465689.5
-16323515002.0
26417084536.5
106879055.0
-26190532312.5
32859738140.0
-173294006.5
-33224288278.0
35464729101.0
71884995.0
-35321922720.5
37539003056.0
-18988289.0
-37569910034.5
35646091665.5
-92756323.0
-35832838903.5
33021498200.5
-32724055.5
-33082777036.5
26028246679.5
48925135.0
-25910621088.0
15868914002.75
-60189371.25
-15985093632.75
6098254247.25
63851623.0
-5948188996.5
-2738170555.75
15420880.5
2785785238.5
-10809730208.0
110644614.5
11055619649.25
-16002572892.75
120301141.5
16272153583.25
-19938414685.25
73700428.5
20095016548.5
-17085504269.0
148302955.0
17394807663.0
-13830540462.0
130198895.0
14117880416.0
-9411962370.0
-89480599.5
9245381461.5
-3592126237.5
89164462.5
3790636473.0
3199091054.5
-18929878.0
-3222127568.0
9971532825.0
-117197088.5
-10205576144.5
15844793742.0
-125629897.0
-16096076733.0
19748203362.5
99878626.0
-19531791683.5
20700772269.0
-53607783.5
-20811946447.0
21042571808.5
26941502.5
-20982956935.5
20961509696.0
-36800448.0
-21023309640.5
19530127273.0
174845870.5
-19155288297.0
16479120579.0
65998641.0
-16334860254.0
10053136171.25
-29105412.25
-10107116536.75
3046191633.0
16391048.75
-2999446542.0
-3420880784.0
-65496221.25
3302576089.75
-8852269540.75
83534751.5
9024532943.25
-13878952976.5
15187832.25
13918134298.25
-17046726044.5
-57441226.0
16930515250.0
-13237061243.0
-151696135.0
12917350643.0
-11321936713.0
-18451268.5
11296349652.0
-8529127162.0
32430962.0
8609232027.0
-5055609050.5
-16582039.5
5040355162.5
107838356.0
182195115.5
291802768.0
2980156699.0
-101771776.0
-3177219704.5
5866808995.5
18233374.0
-5822986874.0
7413530947.0
-11738477.0
-7425926841.5
7764744456.5
-31370040.0
-7821529301.5
8209295951.0
-36478148.0
-8282775131.5
8078106724.5
29279985.5
-8016270825.5
7252268225.5
-54256176.25
-7361567385.25
5898590551.5
20523432.75
-5847343760.0
3054511892.0
-111787524.75
-3276810205.25
-412017245.0
-27525358.5
367025316.0
-3864271772.0
199071041.25
4289516348.75
-9284592014.0
-19963733.75
9231780010.75
-11832796106.25
-270000900.75
11273383586.5
-12962010580.75
90846992.25
13150004121.25
-9957389771.0
-283830273.0
9357407308.0
-8942791487.5
77036001.0
9108706619.5
-8510112447.0
-56079700.5
8406509387.5
-6096231670.5
273000344.0
6694570655.5
-4874323374.0
-97073296.5
4706992278.0
-3640408756.0
-51189779.0
3555825577.0
-3064850932.0
106767611.5
3303278660.5
-3335125614.0
-3301841.5
3338401943.5
-3142584775.0
-32345186.5
3087067799.0
-2501982652.5
107926180.0
2735923571.0
-2823280711.5
27938696.5
2897100375.5
-3569498458.75
145772063.0
3879350432.25
-2825687252.25
-17996031.0
2806278354.25
-3687274529.75
-39040508.75
3612795944.75
-4911274963.25
-209241768.48388672
4475677648.393555
-6384876112.203125
-42751193.0
6312240661.0
-7682505730.5
7803482.25
7706144486.75
-8954672065.375
141599580.25
9251527874.0
-9965688822.75
-161123172.875
9620095766.0
-6496840557.0
135602625.0
6764141413.0
-7033351601.5
-16671535.0
6992138929.5
-7491744703.5
-159381937.5
7160671360.5
-8312333128.5
-122813625.5
8079631449.0
-8648884475.5
-4045900.5
8658437598.5
-8948978150.5
20917880.0
9019814475.0
-10997800144.5
-31600468.0
10947010914.5
-10803645315.0
182341754.5
11203329043.5
-11987901996.0
-124388435.5
11744419952.5
-12269726220.5
1825722.5
12277897127.0
-11202495793.75
101515682.5
11423242622.5
-11203662485.25
12648874.5
11233540289.25
-10365761198.0
158457678.75
10705481167.25
-9758639178.0
-85208293.5
9585536867.0
-8599424258.25
92556990.75
8804978353.5
-8329031175.5
48301537.25
8450374000.5
-7229173725.0
-146344628.625
6928950202.5
-7350533909.5
92503818.375
7523867586.25
-6617563188.75
4331025.375
6602292269.375
-4011642507.0
-125591435.0
3730626832.0
-5599824671.0
203219427.5
6013150400.0
-7325171155.5
15333531.0
7355499684.5
-9532653740.0
-31062330.0
9470927710.0
-11491457643.0
-168161087.0
11151707193.5
-13950916786.0
159156734.5
14297854255.0
-16519218981.0
-134639180.0
16235808148.301758
-17826737515.828125
-99811330.81152344
17639017026.0
-18977650851.5
114227666.5
19223392955.0
-19354571408.0
-55966721.0
19245183254.0
-19143353267.0
25061094.5
19203473810.25
-18205120546.25
-93355458.25
18009662868.0
-15903674538.75
-21965250.5
15855254242.0
-13880439398.75
37258002.5
13961217061.0
-11666244178.5
-14001283.5
11650224837.0
-9466676642.0
92469036.0
9671827177.25
-7804272449.0
-41979609.125
7718934088.875
-5461906611.0
-152227448.0
5119620361.5
-4137971991.6875
5871917.4375
4120300778.4375
-1708358960.0
72872871.0
1834861222.5
-4549177793.0
-157074763.0
4210814468.0
-6059165802.5
3419082.0
6052134161.0
-9900186710.5
84992908.5
10067840423.5
-12498412480.5
74956583.5
12661360833.0
-17059676893.0
-12270077.0
17038014032.0
-20275966611.0
-244524674.0
19767776453.0
-22194237397.5
57874728.5
22311656510.0
-23708858099.5
99943364.5
23913184673.0
-24937115423.0
10538160.0
24960700519.0
-24777458364.75
-42666429.75
24699074095.75
-22595794689.75
177901817.25
22973472562.25
-20594786669.5
-182431370.0
20215518030.25
-16827487484.25
2374059.75
16852579234.75
-13772615373.25
2312211.75
13797875940.0
-10351946018.625
-115887794.75
10118656074.5
-6282895662.875
142453377.75
6571493779.5
-4267243394.6875
79215986.75
4405705392.625
-2022754118.9776611
-106410193.19750977
1782038108.6212158
SCALARS stress22 float
LOOKUP_TABLE default
-8033181621.0
-9832472424.0
-8685972983.375
-8447776411.0
7195374686.0
9359227252.0
8140886117.0625
7775981026.0
-6553308111.0
-11784690196.0
-17864331416.0
-26928406533.0
-36700221964.0
-46475004391.0
-56703061008.0
-64474403225.0
-71521454386.0
-69064855857.0
-70058926541.0
-64979454276.0
-57950580636.0
-47269539086.0
-38146422954.0
-26079893147.0
-18763007332.0
-10584918509.0
-6771673781.0
-6579021043.0
-10796122630.5
-18000858776.0
-28149452628.0
-38472907084.0
-47807444457.0
-55834065141.0
-64238336873.0
-69667376506.0
-70044428217.0
-69050435764.5
-64497022588.75
-56871709631.0
-48114715508.0
-36936624084.5
-28552759924.0
-18805767151.5
-10070479927.25
-6017943126.375
-6160256602.75
-11718658051.9375
-17042140502.25
-27788520239.875
-39971485330.25
-48778692509.0
-56725821261.25
-63295056559.25
-67916784367.0
-69854270025.0
-66604206493.5
-62953713345.5
-56960569504.0
-48039804454.0
-38457407177.0
-27900109156.5
-17606390812.0
-10614334610.0
-6394855951.0
-6982776940.0
-11746187126.0
-16635977482.0
-26842740720.0
-38405505012.0
-49047142317.0
-56262338538.0
-63625134061.0
-69004324414.0
-69985371568.0
-68516530978.0
-62431206714.0
-57444912872.0
-48336134311.0
-37093648721.0
-26542891629.0
-17355098494.0
-10140036981.0
-4888914297.0
5294111511.0
10509538049.0
17634110349.0
25947897949.0
36584146040.0
46324143218.0
56531411366.0
64024281517.0
70255781054.0
68423668865.0
68773079974.0
63557562728.0
57526393081.0
46819152866.0
37784089473.0
26289092601.0
17802893906.0
9553464840.0
6476644160.0
5092619137.0
11289915735.0
16980093662.0
27008110270.5
38697296450.5
47368619380.0
56793152557.0
64944470130.5
68805082475.0
69613096953.0
69740686233.0
64649318713.75
57874496918.75
48998386660.5
37666728037.5
28320686776.375
18652721567.125
9405072223.1875
4767121121.15625
6670838944.5
11724628616.125
17634691033.875
28008206067.5
38800287436.25
49185175013.5
56394027532.5
63660468499.75
68399452705.0
70113367430.5
68453469767.0
63755854556.5
57876917910.0
48221039145.0
37709622837.0
27528031472.5
18442852704.0
10611461684.5
5843142655.5
5824758020.0
11294742038.0
17127908124.0
26728949745.0
37175363811.0
49197430204.0
56416841874.0
64173555810.0
67684043118.0
70529659947.0
68614050031.0
63541508815.0
57587873709.0
47576357244.0
37515168372.0
26607261438.0
17604571038.0
10374462878.0
5799662433.0
-4190927587.0
-408179506.0
3369116999.0
-4997649122.0
-227956824.0
4537246639.0
-4445266336.765625
-264835386.40625
3911674332.375
-4356872533.0
-326493187.0
3699002719.0
-4426694254.0
-7797162428.0
-13880852514.0
-20175075493.0
-27453372653.0
-35418954937.0
-42479286241.0
-48088589696.0
-50024510665.0
-52404522430.0
-50146964994.0
-47875719613.0
-41933778604.0
-34603399344.0
-28511650894.0
-19750248037.0
-12729568300.0
-8354096378.0
-5166495952.5
-8500283123.0
-11688556635.0
-15512354122.0
-19381868246.0
-22639410617.0
-29169778946.0
-32920470077.0
-36492281745.0
-39545316367.0
-40545132465.0
-40279528168.0
-37465533627.0
-32591172442.0
-29056461656.5
-23989021586.0
-18696276180.0
-15020678092.5
-11208539063.5
-7817470286.0
-12086569089.0
-15250679340.0
-16208185260.0
-16696905958.0
-17891174507.0
-18996244527.0
-21298607900.0
-22647112559.0
-24851230883.0
-24519260454.0
-24412106771.0
-23019317898.0
-21294520163.0
-20904612783.0
-17728248858.0
-16499693386.5
-16405159698.0
-15123590688.5
-14556394671.5
-21479937303.0
-18739118550.0
-16537374844.0
-13023463715.0
-10890591311.0
-8133813684.0
-5949790557.0
-4772315337.0
-5453893817.0
-5038587265.0
-4985270229.5
-5708173673.5
-6384570109.5
-6920036647.0
-9593694263.0
-14023650262.0
-17000368189.0
-18254403740.5
-20879301211.5
-28428621478.0
-23977052726.0
-18126524538.0
-11653413690.0
-1445825876.0
7291303359.0
11598130973.0
15905021381.0
18147800054.5
16530852380.0
17850057652.0
15949020841.5
13894845647.0
5318431758.0
-897631737.0
-10552445169.0
-16711877341.5
-24732391201.5
-28089694105.5
-35647522963.0
-29029953129.0
-19126108256.0
-7672024557.0
6617108094.0
22006047451.0
34649225055.0
40837586354.5
42971395485.5
45014742449.0
44152883598.5
40406578072.0
33160889406.5
21438710783.5
6673359644.5
-8187084439.0
-19708376265.5
-29667947481.5
-34493134404.5
-42541920300.0
-32319970177.0
-21091921745.0
-5817611265.0
12537840081.0
33267261404.0
54482956386.5
69719374675.5
74075642045.0
76721651425.0
74890192296.0
69442024373.5
53825630145.0
33754788529.5
12728847514.5
-5376254774.5
-22360147839.5
-33052818184.0
-41510076754.0
-46195229925.0
-37329171506.0
-23846097869.0
-5635233372.0
14243555317.0
39661129117.5
69366270506.5
99023006136.0
115089597455.5
110667221878.5
114668342357.5
98874739225.5
69570060408.0
39058026755.0
15139733811.5
-5796142827.0
-22821594269.5
-38105343947.0
-46054784419.0
-51319416843.0
-39465959561.0
-26449363823.0
-6236194742.0
16425146704.0
43483157662.5
73664867461.0
113886691755.5
163589974418.0
193323713062.0
162351162409.5
115638091808.5
74664813156.0
43396992511.5
16913486856.0
-5615936729.0
-24758622852.5
-40770529760.5
-51005054787.5
-51349084906.0
-40468232717.0
-25356978145.0
-5329809766.0
17688520878.5
44553771348.0
77885134921.0
109687886309.5
192399101849.0
213706749952.0
192021692644.0
110375612289.0
78392428953.0
43288628400.0
16817481730.0
-5649958106.5
-24593455963.0
-40158044964.0
-51443349925.5
-50599837875.0
-39304183162.0
-24736745603.0
-5830523502.0
16371007070.5
43427427548.0
74508384859.5
114008357496.5
163035357879.5
193412304574.5
162184192926.0
113829974794.5
73189051695.0
43558552921.5
17323635124.0
-6322299365.0
-25149808600.5
-39893594461.0
-50865757886.25
-47938308748.0
-37619153291.0
-23354215449.5
-6285585137.5
16415206405.0
41654207256.0
69683109342.0
99231089359.5
115054996018.5
109961105463.0
114466657512.5
98056763656.0
69351679825.5
39745465869.5
15083595661.75
-6565722216.75
-22978954543.5
-36877687852.75
-47319637142.25
-42158256345.0
-32640597506.0
-22131528468.0
-6175765538.0
12722188798.5
33602960901.0
54860295679.0
68622894467.5
73920506759.5
78302254117.0
74460108808.0
68820884208.5
54130498666.0
33072014364.0
12596540124.25
-5771643987.75
-22640452173.0
-33490092306.0
-41633464149.0
-35752356628.0
-28978247826.5
-19558259008.0
-7604602952.0
6660778219.0
20884503105.5
33159621892.5
41109519564.5
43308549235.0
43977667531.0
43836966859.5
40592858865.0
34257912343.0
20960877679.75
6317535968.5
-7096756011.25
-18605148326.5
-28971074221.75
-35483454520.0
-27469494837.0
-23608316554.0
-17833167038.5
-10515352563.5
23591576.5
6353969040.5
12280313014.5
15572907872.5
16372636528.0
17300429599.5
16950504703.0
15281466448.75
12349246709.75
6511527976.5
-838933096.5
-8299784792.5
-19338058022.75
-24428206036.25
-27154527057.25
-20503406817.0
-18748500115.0
-17666974542.0
-12956596476.5
-9994610054.5
-7448387682.0
-6366631363.0
-6765829830.5
-6328811690.5
-5151558422.0
-5725543678.5
-7388220402.5
-5753645036.75
-7572015318.5
-10003105002.75
-13247906288.25
-16046629069.75
-18843240497.0
-20651646975.0
-13725093507.0
-14685727798.5
-15476646336.5
-17145646502.5
-17938254792.0
-18568620458.5
-22705452406.0
-22523121032.0
-24656059086.5
-25357627029.0
-23276023685.5
-23189042518.25
-21606017404.5
-20139158050.25
-17943198510.75
-17346851234.875
-14950402977.875
-15450433765.625
-13854905648.25
-8300530490.0
-11892559477.5
-15276529509.0
-19775483248.0
-23687399285.5
-29075792964.0
-34107596273.0
-36837891898.5
-39432857046.5
-40052091180.5
-39687704220.75
-37632788984.75
-32967109270.0
-28836010113.5
-24199736428.0
-19763131887.25
-16190479640.125
-11301020280.125
-8703413747.375
-3728965052.5
-9340464874.0
-12657798504.5
-20646745506.0
-26035928866.0
-35350191257.0
-41784745820.0
-46067232019.0
-49251000824.5
-51677300824.0
-51279754145.5
-47001812202.25
-42497425761.5
-34885033520.75
-28548321611.25
-21381074035.5
-13253452576.125
-9006994936.875
-4192801679.90625
4157034241.0
7971659450.0
13981523459.0
19964792786.0
27461517149.0
35497257246.0
42485779111.0
47755809224.0
50089147040.0
52005645062.0
50350309794.0
48123461871.0
41725083658.0
34709474737.0
29024079628.0
19642722582.0
12711470538.0
8045771153.0
5108611349.0
8310350828.0
11330379945.0
15257034016.0
18937124886.0
22495518847.0
28578907103.0
33503782990.0
36858916045.0
39704524914.0
41163914361.0
40173698913.0
37871532436.0
32526780482.0
28941608131.0
23891880402.0
18779773877.0
15002339687.5
11194787813.0
7599827005.5
12485126576.0
14879181629.0
16496315441.0
16872156756.0
17936799150.0
19554437825.0
21216848415.0
22759172826.0
24471355807.0
24118338829.0
24313595416.0
22823891085.5
21344948607.0
21207905438.0
17489321094.5
16259442791.5
16381097592.5
15413370437.5
14102606744.0
21474193356.0
18897500049.0
16623832554.0
13321196063.0
10652271307.0
7840662261.0
6297906435.0
4709817238.0
5280108374.0
5394419782.0
4954719585.0
6075559842.5
6236369561.5
7092359990.0
9644002951.5
14175349852.5
17264461658.5
18892642860.0
20588116871.5
28410610419.0
23921871866.0
18535501884.0
11686910912.0
1420115214.0
-7077880703.0
-11795656397.0
-15558348393.0
-17853274712.5
-16661184585.0
-17656433009.0
-15775759803.0
-13507349141.5
-5575462751.5
854948873.5
10668915478.5
16800299550.0
24876051711.0
28066240145.5
35730877741.0
28775468020.0
18736268898.0
7783180040.0
-6473485708.0
-21807965048.0
-34625276012.0
-40682400027.0
-43374145946.0
-44730953011.0
-44445088743.5
-40578403274.5
-33059008010.5
-21141982251.0
-6547397082.0
8178504409.5
19215705554.5
29717925345.5
34689140621.5
42208434115.0
32929585196.0
21064973042.0
6165181657.0
-12409386613.0
-33551622415.5
-54470252599.5
-69530383015.0
-74343926741.5
-76598070151.5
-74772563789.5
-69497745091.5
-53827661059.5
-33591670985.0
-12796216646.0
5420927617.0
22536707880.0
32838533404.0
41403182484.0
46677445472.0
37328301112.0
23687958384.0
5773476031.0
-14439364185.0
-39685373737.5
-69304502034.0
-98944316812.5
-115168021243.0
-110625187724.0
-115021642345.5
-98572457084.5
-69427377891.0
-39677524574.5
-14936444503.5
5561492074.0
22783851457.5
38404852585.0
46382006605.0
51267053013.0
39614454975.0
26356521104.0
6362227979.0
-16074499346.0
-43603092613.5
-74087663128.0
-113658211797.5
-163775912657.0
-193152993533.0
-162277863920.0
-115705832073.0
-74707081705.5
-43269133504.0
-17229921316.0
5552261425.5
25370135612.0
40578227451.5
50496739866.0
51650989655.0
40584554492.0
25335540342.0
5216199876.5
-17978716912.5
-43972665610.5
-77678794009.0
-109822905890.0
-192736456106.5
-213670047117.5
-192320646002.0
-110030655027.5
-78134884990.0
-43292095110.5
-16588590220.5
5370596661.0
24600860583.0
39890260579.5
51524876199.0
50529956075.0
39361399572.0
25221338543.0
6369095192.5
-16733848458.0
-43734409349.0
-74394101196.0
-114544951593.0
-163147284285.5
-193413952233.5
-162235547482.5
-113717187444.0
-73355676764.5
-43896967071.5
-16980704183.0
6545591790.5
25002743990.0
39822491483.25
50785232040.25
47970606779.0
37201879340.0
23509483150.0
6136027873.0
-16110357352.0
-41288237608.0
-69715313504.5
-98595604134.5
-114729194224.0
-110250063267.5
-114603308809.5
-98003803897.0
-69421208933.0
-39706030342.5
-14963583012.75
6442829713.5
22988842273.5
36777369919.75
47502495639.25
42444276427.0
33071862029.0
21681222366.0
6279779908.5
-12723468464.5
-33827102126.5
-54596193760.5
-69040188067.0
-73779981278.5
-78311791022.5
-74649797562.5
-68870011355.5
-53954898736.5
-33175682605.5
-12380921355.5
5868906759.25
22959001193.75
33845590077.5
41816499449.25
36098930215.0
29344961923.0
19428369901.0
7863027729.0
-6639555662.0
-21117862310.0
-33410417372.0
-40843865439.5
-43431328528.5
-43900946466.0
-43863199970.5
-40143697865.5
-34076911393.25
-21002503768.75
-6229074504.25
7015852137.0
18792388671.0
29036052589.5
35362664634.5
27101767228.0
23615831515.0
17958514754.0
10552855998.0
480091834.5
-6531256772.0
-12214455578.5
-15552273589.0
-16411653911.0
-17375470027.5
-16878264761.5
-15393303938.0
-12268204715.5
-6730326536.0
823646891.75
8804704348.25
19246199163.25
23811291599.5
27360395428.25
19807162061.0
18948443567.0
17588540380.0
13709656437.0
9907159033.5
7416689813.0
6678616627.5
6798230432.0
6301170502.5
5439074024.0
5852528931.0
7752499549.75
5783832598.0
7508238427.0
9517120320.75
13213332883.25
16094064405.25
19180002014.75
20236341797.625
13980191944.0
14620934326.5
15108808675.5
16950636089.5
17999848512.5
18725575566.0
22691293508.0
23026301585.5
24428329106.5
25378887238.5
23548846124.5
23232068892.5
22012593491.0
19957510780.25
18208844822.75
17541418982.375
14627568530.375
15588044314.375
13768699957.5
7930855806.0
12325476068.5
15304908031.5
19715384345.0
23337460595.5
29506401373.0
33782368180.5
36684949002.5
39729731753.0
39950482081.0
39776905433.5
37411319257.25
32905189394.0
28935352806.25
24219646471.25
20027821736.625
16099997304.125
10846336822.5
8598186179.25
3797956831.0
8930507356.5
12608528910.5
20807185674.0
26236852923.5
35336688801.5
41219519416.0
46189498844.0
49468084587.0
51708516140.0
51221954499.0
47443473299.75
42074973923.75
34970155438.25
28635308678.0
21143308399.375
13553080077.375
9085673747.5625
3867907052.40625
-3513281708.0
-593974542.0
2307275834.0
-6092186072.0
-595246895.0
4880152492.0
-8856092764.0
-115531736.0
8625356220.0
-13483168514.0
-458455564.0
12550146794.0
-18101871510.0
-55017585.0
17990373399.0
-22922111087.0
-64119724.0
22788173389.0
-27978021424.0
-82362833.0
27811546216.0
-31884518100.0
-225751188.0
31433381957.0
-35553422332.0
-611937583.0
34318930106.0
-34187780171.0
-321229096.0
33545714656.0
-34824743205.0
-610859431.0
33587091057.0
-32348168833.0
-673798935.0
30982016664.0
-28663245530.0
-215056419.0
28234732227.0
-23395676647.0
-219627107.0
22953522390.0
-18877221531.0
-168929253.0
18533405084.0
-12789258938.0
103443663.0
12997062189.0
-9460142412.0
-450528534.0
8544199045.0
-5434727825.0
-474437491.0
4464886277.0
-3392588140.0
-131298853.0
3121936722.0
-3576715364.5
-699286587.5
2155903406.0
-5196775615.5
232050288.0
5668418233.0
-9094971674.0
-476476435.5
8124948141.0
-14131568877.5
-540699047.0
13035108012.0
-18908368643.5
100449738.0
19115139349.0
-23650777904.5
-202216662.5
23237643063.5
-27277969758.0
460708300.5
28208970834.0
-31483998354.0
340530735.5
32171427198.5
-34534051954.5
-411439014.5
33701460915.5
-34614398927.0
-209311035.5
34192634653.5
-33863875115.5
324531811.0
34523379214.0
-31739466874.25
77545995.75
31893960080.25
-27782707377.25
478057290.0
28750874907.75
-23509616893.5
405866230.25
24339577300.5
-18032749748.25
331535597.5
18713053428.75
-14115301674.625
-105477431.375
13899145777.5
-9290177935.0
-65111909.125
9154393225.0
-5102484531.6875
-309702434.125
4471467370.4375
-3245879247.6875
-587878529.46875
2051456106.9375
-2903573093.3125
248932852.90625
3404813208.71875
-5754687396.625
19312092.5
5785028254.3125
-8243326654.0
288463456.25
8824274268.5
-13629352320.625
114696661.25
13856515398.125
-19965186830.5
-548337758.0
18849812244.25
-23935440839.75
194641061.75
24329432045.5
-28019804382.25
-150075613.0
27711732926.0
-31096562348.5
177154917.0
31453728111.25
-33345257962.75
234018803.75
33817063406.0
-34351374095.0
133295535.5
34616079671.5
-32383867422.0
874583978.0
34158385603.0
-30827174824.0
383844874.0
31603729464.5
-27847860858.5
440767288.0
28738475001.0
-23625098409.5
88830215.5
23803999483.5
-19125818445.0
-359778675.0
18399363521.5
-13828203757.5
-175390268.5
13472249708.0
-8466641739.5
402683398.5
9279827662.5
-5215273747.0
8901224.0
5227890265.0
-3262254783.5
-248821733.0
2750933812.0
-3691566921.0
-534457909.0
2600252029.0
-5885245363.0
-210962393.0
5455983190.0
-8078752071.0
226062140.0
8540984486.0
-13249162374.0
-57521292.0
13134535803.0
-19208079119.0
-586468258.0
18020768203.0
-24139756184.0
60050833.0
24267559448.0
-27682184304.0
71196435.0
27827706064.0
-31224893625.0
251452235.0
31739305827.0
-34307456451.0
-626180791.0
33037945505.0
-34357174676.0
255136923.0
34876051997.0
-33731782826.0
52738535.0
33835361354.0
-30496223528.0
526577088.0
31564057734.0
-28276387257.0
60661174.0
28403464978.0
-23990690582.0
-358991557.0
23262463123.0
-18170493272.0
204078006.0
18582232643.0
-13050472069.0
40298253.0
13126967814.0
-8481368513.0
122378162.0
8727340145.0
-4923909374.0
122539040.0
5166260566.0
-2179828185.0
440627684.0
3068529357.0
-2135882063.0
-90223215.0
1932883383.0
-3658180670.0
107987608.0
3863887993.0
-6629687612.0
55480539.0
6738267035.0
-9732209386.0
-90708215.0
9543586810.0
-13195228984.0
-193906.0
13197161253.0
-17026618938.0
26130658.0
17085641556.0
-20445384990.0
-6449603.0
20437459142.0
-23210895690.0
-136791791.0
22922636363.0
-24033768520.0
54631717.0
24132031341.0
-25319019511.0
-186898586.0
24938945123.0
-24097710212.0
71839334.0
24256568551.0
-23014242838.0
80764558.0
23197434095.0
-20229783357.0
-107650495.0
20016338388.0
-16628307686.0
24447446.0
16691659647.0
-13606473409.0
227137405.0
14075556485.0
-9501046119.0
-42870970.0
9409947487.0
-6109366016.0
-23517990.0
6069758416.0
-4040939042.0
-118615480.0
3785864898.0
-2439857879.5
19621524.5
2454849961.5
-4091736420.0
-65682279.0
3945706858.0
-5667536798.0
-149984538.0
5353035452.0
-7485423680.0
-97152688.0
7275751909.0
-9390615538.0
-187552252.0
8998071726.0
-10894381353.0
-69955315.0
10753575267.0
-14148467270.0
-260403604.0
13609991137.0
-15704794523.0
248378602.0
16223726891.0
-17468464112.0
149950602.0
17785442050.0
-19000933880.0
46298146.0
19110519494.0
-19399894121.0
231078161.0
19901589154.0
-19419303346.0
-72851248.0
19283693925.0
-17953372265.0
152348080.0
18283764973.0
-15677032871.0
-36640468.0
15605920847.0
-14000631046.5
-64765775.0
13874855561.5
-11541996401.5
-41477205.5
11455590962.5
-8952854506.5
34736503.0
9026180285.5
-7212213899.5
-17221355.5
7181876588.5
-5351032501.5
12436330.0
5366408485.0
-3755102283.5
-70659237.5
3594542745.5
-5702816207.0
160251510.0
6043084635.0
-7399808410.0
-173877338.0
7046214545.0
-7728068976.0
112286686.0
7968750595.0
-7983510801.0
66723306.0
8127782236.0
-8596802151.0
-1680257.0
8605918181.0
-9005553139.0
243240723.0
9510167268.0
-10267123456.0
-47111664.0
10175955447.0
-10881720381.0
27692760.0
10951499076.0
-12051153646.0
-181939132.0
11683273398.0
-11878418339.0
-182557432.0
11504358007.0
-11769200518.0
-49186291.0
11670824306.0
-11125935660.5
-105910224.5
10918262502.0
-10245272197.5
-5653148.0
10249634272.5
-10022141416.0
98176233.0
10245555535.0
-8561488354.5
-107453011.5
8340569826.5
-7964676734.0
-106947406.5
7744318331.0
-7886677326.5
-22583762.5
7847024938.0
-7194830062.5
119796199.0
7447179998.0
-7072330245.0
-186661081.0
6678846824.5
-10331044309.0
-3962444.0
10323703263.0
-8971873619.0
48764638.0
9084750957.0
-7923050193.0
24420485.0
7981488335.0
-6185144435.0
124801471.0
6447064685.0
-5296089955.0
-118834781.0
5058339610.0
-3986155176.0
-141920864.0
3699967905.0
-2811787128.0
131010499.0
3095635700.0
-2341809625.0
-59664472.0
2236827347.0
-2689052282.0
-91038204.0
2509049524.0
-2376791807.5
138662806.5
2674030930.0
-2439215241.0
-40976610.0
2370260031.0
-2723650102.5
113273221.0
2985809807.0
-3141819435.5
-102484035.5
2951243881.5
-3291637162.5
61816324.0
3427577925.5
-4588348121.5
21151705.5
4632799191.5
-6713231102.5
50392075.0
6827062873.0
-8124344548.5
91172327.0
8327433586.0
-8634371868.0
253957268.0
9175349506.0
-10084290389.0
-119975478.5
9831630310.0
-13674126051.0
-5541099.0
13661479003.0
-11540254623.0
-39794824.0
11466923529.0
-8621456995.0
175426379.0
8987174788.0
-5601846924.0
14151620.0
5631700371.0
-703140713.0
-19626065.0
667422724.0
3544895233.0
81908226.0
-3368610659.0
5500384173.0
-101409759.0
-5701815059.0
7674407803.0
127647670.0
-7395992276.0
8750932627.0
113889583.0
-8506221614.0
7860279372.0
-70254795.0
-7998160519.5
8576204512.5
60702680.0
-8436641346.0
7649959072.5
37727802.5
-7549767111.0
6739544208.5
137050649.0
-6436843164.5
2471201245.5
-136008859.0
-2739402954.0
-436576840.0
-29834012.5
381223659.5
-5051712570.0
44018741.0
5147073396.5
-7999083442.0
29315606.0
8065398272.0
-11868509545.5
49418759.5
11978756011.5
-13510899893.5
-13445334.5
13484920811.0
-17130105882.0
43465459.0
17216215338.0
-14020539516.0
-126494432.0
13767202738.0
-9271163355.0
-176899219.0
8908370876.0
-3667551915.0
42988505.0
3759912563.0
3202599315.0
54585728.0
-3084686050.0
10617455669.0
79553613.0
-10448509884.0
16652787485.5
-3970355.5
-16652622284.0
19617976305.0
47845533.0
-19507221692.5
20517031658.0
-173353397.5
-20877895765.5
21663043790.0
143646445.5
-21376508241.5
21123491684.0
-127480779.5
-21387835535.5
19345919426.0
-90295696.5
-19524238259.5
15949775796.5
46621629.5
-15854365930.0
10348452120.5
107240565.5
-10113208388.0
3197796588.0
10814699.5
-3149954997.5
-3962836778.0
-27265172.5
3920031444.5
-9596629735.0
-245178514.5
9105746163.5
-14277858240.0
-6258420.5
14281220288.5
-16544470572.5
81386187.0
16715692591.0
-20551068729.0
-151311502.0
20240654752.0
-15434327409.0
224531561.0
15923955306.0
-10157996350.0
-30161571.0
10106144691.0
-2747146636.0
126135703.0
3023526787.0
6025525309.0
29231071.0
-5949349369.0
15913100999.5
-136057391.0
-16188280431.0
26175927990.5
-8987221.0
-26186206893.5
33525310127.5
70826284.0
-33371743445.5
35496768597.0
-102644690.5
-35717888982.5
36858128998.0
65268852.5
-36729279292.0
35958652403.0
43057504.0
-35864550106.0
33329749556.0
-52798826.0
-33422761904.5
25855409266.5
-8506371.5
-25868566191.5
16243785031.0
58601187.0
-16114959061.5
6075346762.0
-57075582.5
-6177693356.0
-2591652704.0
-3597699.0
2597480973.0
-10738368602.5
58123114.0
10869959523.5
-15922605086.0
-86798849.5
15738804672.0
-19984821229.5
-36602515.0
19903293743.5
-22127524972.0
199999627.0
22548428250.0
-17968506399.0
-21299927.0
17936609552.0
-11514598706.0
-78731165.0
11356928420.0
-2710107105.0
35651637.0
2798396595.0
6756740872.0
-102522897.0
-6959448034.0
19019279642.0
-12622141.0
-19044112162.0
33324636372.0
9902382.0
-33294101858.5
47618729429.5
26105597.0
-47559724633.5
55297149293.5
-11784588.0
-55334485033.0
53050425353.0
30335072.5
-52994420945.5
55007345875.5
-165187877.5
-55343518299.5
47581836793.5
110176186.0
-47340738985.0
33451299178.0
55125945.0
-33332784958.0
18603009095.5
-272246726.0
-19166422209.5
7287692606.5
84636307.5
-7109726408.5
-2851936310.5
-99260192.0
2644411876.5
-10982228634.5
-21835277.5
10940147555.0
-18272908827.0
130184456.5
18543316699.0
-22079889418.5
148945345.5
22385579701.0
-24737410641.0
-51659992.0
24646952214.0
-18971750900.0
30004945.0
19054136368.0
-12784744236.0
-72006166.0
12653722145.0
-3028350147.0
6129404.0
3069273111.0
7923970708.0
142936043.0
-7621719998.0
20830059185.5
-54142039.5
-20941222863.0
35249453142.0
-188281246.5
-35637703091.0
54744654546.0
83439634.0
-54562157771.0
78702677873.0
-55392368.5
-78832456382.0
93239645471.5
105493147.0
-93038747163.5
78129076392.0
33017462.5
-78061231780.0
55542748477.5
-39406825.5
-55618736636.5
35825754332.5
-9251119.0
-35850232983.0
20843544602.5
60528777.0
-20720645913.0
8020646251.0
-151768752.0
-8327424411.0
-2740197169.0
-35401538.0
2671260530.5
-11798267879.0
252898014.0
12330947517.0
-19666121089.5
-93409092.0
19478044569.5
-24666308037.5
-231456891.5
24191916487.0
-24669678357.0
100685474.0
24896653538.0
-19476909252.0
376035.0
19506842582.0
-12225022009.0
-32536924.0
12170990718.0
-2627540258.5
-87326183.5
2468360945.5
8392889554.5
-150296556.0
-8690857041.5
21467014077.5
232313291.5
-20972931578.5
37434254715.5
84076787.5
-37256414365.5
52518890754.0
-68496092.5
-52655305139.5
92670958571.0
-129110874.5
-92949094254.0
102974374440.5
43108192.0
-102900564308.0
92494907734.5
-114277217.0
-92741271040.0
52952984989.0
138667339.5
-52658483639.0
37700624060.0
116898883.0
-37460682930.0
20742236925.0
-1139563.0
-20744714129.5
8083293618.0
87993627.5
-7893856677.0
-2795274017.0
-125628524.5
2536927503.0
-11833929405.0
-5272074.5
11828078656.5
-19381392417.0
-136413523.0
19109866443.0
-24755036060.0
16349670.0
24800249605.0
-24369339886.0
-35241451.0
24299085020.0
-18897885060.0
8715177.0
18925448169.0
-11827607121.0
175372358.0
12212224170.0
-2734869720.5
205705507.0
3178470013.5
7739053131.0
-174992721.5
-8092287419.5
20754660143.0
-140889700.0
-21042740797.5
35778896248.0
54550339.5
-35668442368.5
54671967075.5
-210138890.0
-55121556966.5
78433481959.0
-41715536.0
-78524045828.0
93228880378.0
4411792.5
-93222616370.5
78029021463.0
-16535674.0
-78066654435.5
54701867596.5
45383713.0
-54605537862.0
35083730963.0
-59178168.5
-35214169499.0
20833496223.5
-140864209.5
-21129587483.5
8352746150.0
123919004.0
-8080875971.5
-3036219773.5
73055294.0
3201782859.5
-12148780468.75
-81709343.0
11989468110.0
-19216522174.25
-49180383.5
19125027172.5
-24520809473.25
-63343799.75
24405829761.25
-23062093287.0
23867476.0
23105982591.0
-18183557554.0
-186490070.0
17799458983.0
-11219032577.0
41688962.0
11320543626.0
-3083337839.0
-73957772.0
2935188560.0
7921588764.0
112190391.0
-7676788913.5
20063979868.5
142289905.0
-19758800085.5
33470523323.5
-13956705.0
-33499511525.0
47853782408.5
290025992.5
-47259572006.0
55357060185.0
154955036.5
-55043046698.5
52627319051.0
-125032246.5
-52887184051.0
54970907237.5
-52980497.0
-55084537320.0
47142252574.5
18277753.5
-47101480674.0
33293158302.0
-49440788.0
-33384629794.5
19063791847.0
-3193947.0
-19058586777.5
7224597759.0
22499450.25
-7160542914.25
-3225615032.75
-79467956.75
3075674811.0
-11067758201.5
-24008050.0
11034516558.5
-17769401554.25
-67747144.75
17642773629.0
-22759077664.25
50563301.5
22880993969.25
-20228533865.0
118051078.0
20477451646.0
-15610278129.0
164611225.0
15965382417.0
-10767171252.0
-231637639.5
10307113800.0
-2972658957.5
22675116.0
3032852430.5
6090822483.5
-17309163.5
-6116983670.0
16081841427.0
-112500672.5
-16306660988.0
26417079616.0
106883775.0
-26190526110.5
32879425700.5
-173037378.5
-33243504752.5
35502099842.5
72288265.5
-35358532364.0
37585298107.5
-18697205.5
-37615627383.0
35683565976.5
-92446346.0
-35869688311.5
33041258025.5
-32649360.0
-33102439811.5
26028100425.0
48835558.0
-25910683741.5
15852000418.75
-60144510.25
-15968091380.5
6067460654.25
63589053.0
-5917912733.5
-2778237114.0
15455681.5
2825869747.25
-10857154168.25
110694887.25
11103112212.0
-16055662610.0
120377004.0
16325380873.5
-19995581412.5
73757596.0
20152175471.75
-17132287759.0
148316688.0
17441581439.0
-13873337533.5
130190396.5
14160755810.5
-9447970628.0
-89488155.0
9281405300.0
-3619502008.5
89115739.0
3817928373.5
3184284663.5
-18858110.5
-3207086364.0
9971221705.5
-117369640.0
-10205602039.5
15862513658.5
-125409712.5
-16113350285.5
19782270938.5
99939372.0
-19565737805.0
20746471192.0
-53598616.0
-20857585216.0
21091194554.5
27114039.0
-21031194085.0
21007022430.0
-36683832.0
-21068537931.0
19564252430.0
175010384.5
-19189152762.5
16496450497.5
66103890.5
-16351994111.5
10053015969.0
-29110545.25
-10106940159.0
3031164393.5
16465644.75
-2984296127.5
-3447968795.25
-65466687.0
3329715881.25
-8888491104.5
83549913.0
9060812809.75
-13921574844.25
15152897.5
13960688702.0
-17093377009.0
-57550050.75
16977037680.25
-13272129061.0
-151723400.0
12952492799.0
-11353006233.5
-18537478.0
11327279214.0
-8552492385.5
32516902.5
8632752766.5
-5068655330.0
-16685240.5
5053149043.0
107471292.5
182215948.0
292200248.5
2995612054.0
-101532519.5
-3192202853.0
5896946765.5
18262513.5
-5853061532.5
7456963496.0
-11556838.5
-7469072010.5
7816206362.5
-31177692.0
-7872665524.5
8263698818.0
-36405611.0
-8337094523.0
8130388833.5
29690562.0
-8067649346.0
7294984059.25
-54166863.25
-7404095159.5
5928439046.25
20409029.5
-5877500892.25
3070355130.0
-111722191.25
-3292498640.0
-411949924.25
-27433602.5
367020655.0
-3877593406.5
199058306.25
4302795599.0
-9308194802.25
-20000686.0
9255395842.75
-11863899159.25
-270063323.25
11304356048.5
-12997072137.75
90951603.0
13185362791.75
-9980731091.0
-283840690.0
9380679510.0
-8961818513.0
77058867.0
9127741685.5
-8521273803.0
-56041328.0
8417724096.5
-6095982155.5
273060202.5
6694482309.0
-4861013787.0
-97077049.0
4693722345.0
-3613599402.0
-51225245.5
3528969429.0
-3024871786.5
106934180.5
3263569933.5
-3284593236.0
-3260816.5
3287998697.0
-3085453660.0
-31938075.0
3030751799.0
-2442469219.0
108116064.5
2676769637.0
-2766425619.5
27981610.5
2840290151.0
-3519012165.25
145798783.75
3828905248.25
-2785424085.25
-17974007.75
2766199164.5
-3660096966.25
-38927457.75
3585876823.25
-4898045464.5
-209235943.375
4462432141.618164
-6384828745.980469
-42740788.25
6312261358.25
-7693592993.375
7788874.75
7717262725.25
-8973606932.625
141593701.875
9270540256.25
-9989061681.125
-161123502.75
9643553071.125
-6509518586.0
135595336.0
6776815979.0
-7041590863.5
-16671483.5
7000239809.0
-7491636124.0
-159293486.5
7160657152.0
-8301317078.0
-122815596.0
8068529824.5
-8625237843.5
-4043745.0
8634808555.0
-8912290071.5
21027878.5
8983292070.0
-10950514652.5
-31534440.0
10899854642.5
-10747453818.0
182404784.5
11147290080.0
-11926321854.5
-124281541.0
11683060608.5
-12206098665.5
1881736.5
12214412209.0
-11140535837.25
101641157.0
11361460440.25
-11147401223.25
12790880.0
11177606767.0
-10318213058.0
158573294.75
10658125641.0
-9722517005.0
-85097618.75
9549431740.5
-8575677482.0
92633035.0
8781444083.75
-8317978661.25
48313671.75
8439338213.375
-7229042496.125
-146266044.25
6928934340.625
-7358706055.5
92589596.5
7532097772.375
-6630140081.25
4364127.875
6614959318.125
-4016157823.0
-125601948.0
3735175403.0
-5599950857.5
203209941.0
6013283349.5
-7316993527.5
15348254.5
7347329905.0
-9513574452.5
-31138392.5
9451926292.5
-11460435987.5
-168126597.0
11120766615.0
-13908274068.0
159201712.0
14255237303.0
-16466061187.5
-134601352.0
16182761478.53711
-17765547323.106445
-99719348.93652344
17577933466.0
-18911324663.5
114362512.5
19157340369.5
-19286610880.0
-55854310.0
19177460430.5
-19077075316.5
25125014.0
19137347386.25
-18143965437.25
-93270049.25
17948755535.5
-15850491624.5
-21851232.0
15802293152.0
-13837768684.0
37364302.5
13918702397.5
-11635256723.25
-14028835.0
11619277172.25
-9447655768.25
92568295.0
9652875287.25
-7796129521.75
-41967198.5
7710796384.5
-5461869199.5
-152230190.375
5119678022.125
-4142476574.375
5905789.375
4124873486.25
-1708328147.5
72861013.0
1834836197.0
-4544671123.0
-157123883.5
4206363298.5
-6046401022.0
3445727.5
6039437848.0
-9876718794.5
84999162.5
10044398244.0
-12463139152.0
75007453.5
12626191016.0
-17012798551.5
-12221608.5
16991202955.0
-20218817512.5
-244429368.5
19710747014.0
-22129129495.0
57895437.5
22246644426.5
-23638662057.5
100023427.5
23843171594.5
-24865120524.5
10600712.5
24888890629.0
-24707243381.25
-42579842.0
24629115358.75
-22530758786.25
177973522.75
22908466455.25
-20537647418.25
-182399661.75
20158452636.75
-16780646081.25
2433977.75
16805834768.75
-13737345809.25
2353900.25
13762678418.25
-10328492304.875
-115823223.375
10095254022.125
-6270135568.375
142430366.375
6558844078.0
-4262641943.0
79216663.9375
4401239936.1875
-2022716085.1202393
-106357996.39880371
1781938860.387329
SCALARS stress33 float
LOOKUP_TABLE default
-18756844556.0
-22921289548.0
-20246304885.28125
-19680314638.0
16779861830.0
21817064472.0
18973883048.125
18114149394.0
-15244552698.0
-27432623548.0
-41577520688.0
-62671353606.0
-85407294466.0
-108154969602.0
-131962515302.0
-150050927690.0
-166473177116.0
-160732242070.0
-163057429530.0
-151233724778.0
-134879256126.0
-110010803180.0
-88785701882.0
-60693789422.0
-43677260010.0
-24640738102.0
-15771251076.0
-15335591512.0
-25167280468.0
-41966306482.0
-65631748004.0
-89702975051.0
-111466121001.0
-130179559048.0
-149778723208.0
-162439201453.0
-163315747243.0
-160999041399.0
-150382143908.0
-132601205404.5
-112183273092.0
-86117633059.0
-66572608625.0
-43844687496.5
-23474123146.75
-14026088536.0625
-14345530381.1875
-27285767913.75
-39662453918.25
-64680411215.75
-93044355996.0
-113531943818.0
-132019581859.5
-147303473865.5
-158061551814.0
-162572739178.0
-155000000094.0
-146510543403.0
-132565885364.0
-111809921382.0
-89513217906.0
-64939415834.0
-40980832222.0
-24718949740.0
-14887967096.0
-16266796884.0
-27405880960.0
-38758261438.0
-62585991454.0
-89556775074.0
-114353807448.0
-131164970210.0
-148332827692.0
-160893718462.0
-163154737412.0
-159771182150.0
-145488124720.0
-133929985296.0
-112803073690.0
-86483080020.0
-61885761878.0
-40476569720.0
-23632562040.0
-11385222356.0
12314107308.0
24456161308.0
41043425128.0
60382173492.0
85141463006.0
107804929778.0
131561556606.0
149006817882.0
163519413150.0
159233879306.0
160059995286.0
147917413064.0
133887478808.0
108960057884.0
87940667660.0
61181699404.0
41437726598.0
22234603434.0
15083227494.0
11866983788.0
26319150208.0
39584362004.0
62968132259.0
90226218619.0
110442153087.0
132417584045.0
151426386281.0
160426803975.0
162308844818.0
162609786338.0
150737205407.0
134941095131.5
114244716492.5
87821200116.0
66029848153.5
43486805228.75
21920775498.625
11107126010.6875
15536193077.0625
27299379532.75
41044782300.0
65192416207.0
90310332466.0
114480179526.0
131245809287.5
148156179420.5
159188068432.0
163177788904.0
159311940689.0
148381717499.0
134705615780.0
112229964639.0
87767801583.0
64072622354.0
42931841772.0
24715845760.0
13600118450.0
13572428124.0
26343935838.0
39924075744.0
62306883652.0
86680411446.0
114685740132.0
131544088484.0
149608303008.0
157837300104.0
164432453162.0
159988969482.0
148139193826.0
134180241798.0
110997403644.0
87453827500.0
62030555086.0
41046203522.0
24192881306.0
13558734282.0
-9790712034.0
-963273114.0
7851210292.0
-11650517080.0
-531808588.0
10576614774.0
-10361929877.03125
-618198041.46875
9116397034.96875
-10150114306.0
-761089772.0
8616716730.0
-10317985954.0
-18138571432.0
-32344378356.0
-46989607968.0
-64011515544.0
-82532306286.0
-99043693650.0
-112118476064.0
-116617848876.0
-122169756080.0
-116903722704.0
-111604415084.0
-97767130244.0
-80642117568.0
-66462748396.0
-46031147062.0
-29662185398.0
-19457529664.0
-12024360162.0
-19778126722.0
-27210052466.0
-36132236798.0
-45158942650.0
-52766350738.0
-68002195026.0
-76757524174.0
-85086588426.0
-92208230798.0
-94545480612.0
-93912918420.0
-87360599086.0
-75991349676.0
-67738869798.0
-55914426906.0
-43560339384.0
-34983747392.0
-26092461984.0
-18180494004.0
-28096576914.0
-35479937536.0
-37726916784.0
-38894885558.0
-41703846932.0
-44295920202.0
-49690120674.0
-52846844880.0
-57987817152.0
-57224190500.0
-56976505974.0
-53709870632.0
-49679064184.0
-48756282266.0
-41322358092.0
-38433972346.0
-38190862182.0
-35180698202.0
-33857774860.0
-49956751646.0
-43568309136.0
-38472586374.0
-30315892224.0
-25388990642.0
-18993798722.0
-13942544464.0
-11216770500.0
-12826127102.0
-11869457028.0
-11731225306.0
-13409353994.0
-14956177756.0
-16164360300.0
-22361239788.0
-32646933734.0
-39550270384.0
-42437703807.0
-48552035883.0
-66098045782.0
-55742593988.0
-42142466602.0
-27104765472.0
-3371539682.0
16949531224.0
26919262448.0
36924920912.0
42135153688.0
38345971720.0
41441342572.0
37029172718.0
32284248294.0
12337213516.0
-2086431598.0
-24539163139.0
-38843418286.0
-57503551307.0
-65309655885.0
-82871912292.0
-67479249710.0
-44434861332.0
-17794637718.0
15438759398.0
51231254856.0
80629505842.0
94990544486.0
99924070828.0
104668257264.0
102675734830.0
93974338263.0
77160402838.0
49911568177.0
15573428441.0
-18997910496.0
-45795532122.0
-68967423654.0
-80181567580.0
-98903150806.0
-75109001128.0
-48984575900.0
-13448940816.0
29260676786.0
77481208730.0
126834618528.0
162252583472.0
172347484832.0
178502778884.0
174248691899.0
161617189922.0
125299781944.0
78621852122.0
29701670358.0
-12419454385.0
-51944156652.0
-76814270206.0
-96494633750.0
-107382439696.0
-86753701330.0
-55382044974.0
-12998972848.0
33252060762.0
92401094132.0
161522948642.0
230526343664.0
267868412966.0
257485563102.0
266880277525.0
230183482091.0
162003193709.0
90993350122.0
35343065372.0
-13375050832.0
-52992014701.0
-88566953995.0
-107054926293.0
-119308763682.0
-91716041994.0
-61439868412.0
-14388063138.0
38353945984.0
101325721040.0
171561691032.0
265163983949.0
380852800263.0
450084355597.0
377963881123.0
269248638179.0
173890456810.0
101122625593.0
39492863256.0
-12942766070.0
-57491524575.0
-94758913399.0
-118575442341.0
-119365653078.0
-94052123010.0
-58878877396.0
-12266775316.0
41308053202.0
103823914006.0
181428331604.0
255356391024.0
447975507149.0
497534163611.0
447094760244.0
256958558547.0
182614364529.0
100872582021.0
39272427879.0
-13014526553.0
-57098376168.0
-93321692513.0
-119587987425.0
-117629608262.0
-91337975734.0
-57439874004.0
-13441845138.0
38227395176.0
101197529702.0
173528861337.0
265445747585.0
379559256708.0
450289627928.0
377573892032.0
265028447109.0
170448701943.0
101503764114.0
40447449047.0
-14589696054.0
-58406158124.0
-92712265362.0
-118250533183.0
-111450664604.0
-87431007906.0
-54233292300.0
-14516820678.0
38317078372.0
97050750965.0
162265932299.0
231018307381.0
267786039696.0
255836890409.0
266411209904.0
228275502098.0
161491531095.0
92597094390.0
35211393254.0
-15168862539.0
-53357723624.0
-85702689506.5
-110006644935.0
-98007227000.0
-75854444816.0
-51412294968.0
-14281668860.0
29689747806.0
78265762707.0
127717488861.0
159699688051.0
171984026740.0
182187798460.0
173240924244.0
160160584810.0
126015024150.0
77027558895.0
29397258827.0
-13339867778.5
-52599342355.0
-77835803342.5
-96784815928.5
-83121703280.0
-67356727610.0
-45442456698.0
-17639547042.0
15539889476.0
48617431324.0
77151158455.0
95622116614.0
100708604083.0
102253330215.0
101942520367.0
94415834515.0
79716534979.0
48794930318.0
14739926069.0
-16453922759.0
-43219532873.5
-67341130107.0
-82494350370.5
-63860976772.0
-54880238058.0
-41457373588.0
-24449352874.0
62863076.0
14755432819.0
28516587495.0
36153489965.0
37988989493.0
40147922185.0
39335321951.0
35472186461.0
28678179974.0
15121029418.0
-1950628035.5
-19279468517.5
-44968010287.0
-56794782312.0
-63125724864.0
-47673845552.0
-43594914398.0
-41103688606.0
-30157949480.0
-23295909968.0
-17399001297.0
-14916694418.0
-15872119413.0
-14869313420.0
-12126577924.0
-13460670257.0
-17325322760.0
-13484636891.0
-17689918500.5
-23315124349.5
-30837581973.5
-37322955067.0
-43816904564.0
-48020242425.25
-31918655678.0
-34163701136.0
-36023281642.0
-39939048065.0
-41811193988.0
-43304993286.0
-52970350019.0
-52556796408.0
-57538935850.0
-59179431565.0
-54319281674.0
-54110303992.0
-50406556907.5
-46967537787.0
-41823082891.5
-40408783921.0
-34795000959.25
-35948028163.75
-32221971391.0
-19309773578.0
-27685134786.0
-35579758552.0
-46080417996.0
-55210083100.0
-67783446539.0
-79523716561.0
-85893138271.0
-91946626589.0
-93391305915.0
-92541711567.0
-87747820509.5
-76863028309.0
-67223759824.0
-56405660035.0
-46051841002.0
-37713005547.5
-26305838317.25
-20250049989.75
-8673954570.0
-21756899810.0
-29487124764.0
-48117356351.0
-60679536310.0
-82401002808.0
-97402960834.0
-107386367806.0
-114809110342.0
-120468546336.0
-119542841839.0
-109566907564.5
-99066479135.5
-81315413020.5
-66542569836.0
-49831248100.25
-30876935850.5
-20979458650.875
-9756227843.25
9686712732.0
18540180282.0
32576773722.0
46504602958.0
64036122674.0
82694139836.0
99051312238.0
111346771420.0
116786289982.0
121225143098.0
117381723428.0
112179953294.0
97267853572.0
80901490296.0
67658271232.0
45777230352.0
29617671336.0
18740646238.0
11889498534.0
19333926058.0
26374305272.0
35538564330.0
44119912292.0
52430300234.0
66622695190.0
78119126454.0
85945281478.0
92572442660.0
95988917202.0
93666467956.0
88308361472.0
75841295030.0
67468637246.0
55686016016.0
43756658628.0
34938360670.0
26060940840.0
17671504720.0
29032518476.0
34610103550.0
38397920988.0
39304269012.0
41809659888.0
45598450346.0
49498272086.0
53109764124.0
57097238378.0
56287334348.0
56746359776.0
53252458666.0
49795994634.0
49463654438.0
40764761044.0
37873571722.0
38133364190.0
35856347338.0
32796443242.0
49942806288.0
43938908350.0
38674386722.0
31010536670.0
24834958836.0
18309367450.0
14757363388.0
11065328222.0
12422451224.0
12698879484.0
11659898784.0
14266825802.0
14609809198.0
16565790698.0
22478351220.0
33001588086.0
40166049571.0
43928723255.0
47870709326.0
66057159428.0
55614759872.0
43097411782.0
27181910866.0
3310926068.0
-16450575202.0
-27383560938.0
-36115173482.0
-41446483202.0
-38649643248.0
-40989760640.0
-36624675604.0
-31381496712.0
-12937202777.0
1985522433.0
24809586256.0
39047042539.0
57838895774.0
65254562455.0
83068970410.0
66884567672.0
43525859950.0
18053795432.0
-15107176266.0
-50766895662.0
-80574021966.0
-94628074754.0
-100864146384.0
-104008731488.0
-103361058456.0
-94378140112.0
-76924582214.0
-49220048305.0
-15280985957.0
18979741665.0
44645570483.0
69083218376.0
80638705190.0
98126529420.0
76532562906.0
48921715902.0
14259604932.0
-28960395676.0
-78144975680.0
-126804516266.0
-161813240992.0
-172976148306.0
-178211037654.0
-173972404165.0
-161751169241.0
-125304968919.0
-78239077000.0
-29858300215.0
12522259263.0
52356678602.0
76314309851.0
96244782137.0
108507205986.0
86752157584.0
55013547130.0
13321730890.0
-33708821946.0
-92456149950.0
-161377740194.0
-230343002336.0
-268052095978.0
-257388628108.0
-267705318433.0
-229477805509.0
-161672150480.0
-92439253126.0
-34868109847.0
12826996731.0
52903024788.0
89266497982.0
107817624225.0
119187670516.0
92063022872.0
61221750120.0
14681993238.0
-37535161494.0
-101605302564.0
-172547885178.0
-264630231975.0
-381292084705.0
-449691241344.0
-377796216436.0
-269407910301.0
-173988880471.0
-100823945597.0
-40231139397.0
12793175914.0
58917913718.0
94310538506.0
117389541173.0
120071316396.0
94324572614.0
58828247370.0
12002033762.0
-41984631272.0
-102466770108.0
-180945126790.0
-255663040458.0
-448765482149.0
-497480313945.0
-447796270813.0
-256145260698.0
-182012931012.0
-100879790213.0
-38737902147.0
12363160099.0
57114911452.0
92697388625.0
119777600972.0
117465904032.0
91472688996.0
58570523654.0
14699480254.0
-39074113310.0
-101913365212.0
-173261229782.0
-266699372361.0
-379823977902.0
-450296840868.0
-377698067655.0
-264766468738.0
-170836764328.0
-102293344288.0
-39647500389.0
15110169679.0
58063439480.0
92545493941.0
118062519180.0
111525878294.0
86457499498.0
54595752520.0
14168305052.0
-37604474750.0
-96196834232.0
-162341201981.0
-229535296306.0
-267026122938.0
-256512526080.0
-266732426533.0
-228152044245.0
-161653776153.0
-92505565440.0
-34931316601.0
14883039437.0
53381210807.0
85468520985.0
110433212652.5
98674575350.0
76861450540.0
50362030572.0
14525863116.0
-29693677292.0
-78789022900.0
-127101411120.0
-160672404539.0
-171657945769.0
-182210872496.0
-173683927213.0
-160275837407.0
-125605412853.0
-77269155078.0
-28893277759.0
13566581796.5
53342157941.0
78664527917.0
97211414050.0
83930460068.0
68212629838.0
45139813434.0
18242862830.0
-15490980580.0
-49161647336.0
-77737418186.0
-95002485002.0
-100994871041.0
-102074359118.0
-102004056884.0
-93368096322.0
-79294774106.0
-48892509048.0
-14533722110.0
16265008889.5
43656100038.5
67492812264.5
82212581710.5
63003077610.0
54898664828.0
41749954658.0
24536985704.0
1112675165.0
-15169758739.0
-28362854211.0
-36106183023.0
-38080264311.0
-40322720610.0
-39167471801.0
-35733451172.0
-28489010498.0
-15631917074.0
1914144573.5
20457728124.5
44753543062.0
55355048011.0
63606103544.0
46049643088.0
44061622268.0
40920415004.0
31915286016.0
23091961181.0
17326521648.0
15643284066.0
15948217675.0
14803709651.0
12797256843.0
13756326118.0
18175405838.0
13554935603.0
17540976627.0
22181153567.0
30756337288.5
37433493260.0
44602669161.5
47050874451.0
32514112062.0
34012752502.0
35164950144.0
39484166592.0
41955242867.0
43670957590.0
52937365009.0
53731105962.0
57007495289.0
59228665304.0
54955829689.0
54210433282.0
51355128155.5
46543296118.0
42443017758.5
40862469910.0
34041519818.5
36268742280.5
32020349375.75
18447327034.0
28695672636.0
35646222048.0
45940163898.0
54393379382.0
68788307798.0
78765049870.0
85536274454.0
92639166471.0
93153893182.0
92749647644.0
87230740251.5
76718225687.5
67455336680.5
56452074155.0
46669198589.0
37501666646.5
25244479461.75
20004191189.125
8834971882.0
20800611138.0
29372350098.0
48491894716.0
61148528418.0
82369431271.0
96083978048.0
107671531686.0
115315565866.0
120541390922.0
119407910714.0
110597232442.0
98080459345.0
81513774104.0
66745450643.5
49276057215.0
31576119654.75
21162812698.25
8998019711.375
-8172989098.0
-1382519094.0
5366021700.0
-14182822048.0
-1389478434.0
11353711894.0
-20610792464.0
-268177146.0
20075246934.0
-31380009098.0
-1070353820.0
29201993156.0
-42123131700.0
-126078916.0
41867736382.0
-53340891534.0
-148758164.0
53030160298.0
-65109444710.0
-192506532.0
64720694802.0
-74200710758.0
-523944644.0
73153779462.0
-82752474002.0
-1428173670.0
79871714844.0
-79561905084.0
-750433468.0
78061682532.0
-81049940530.0
-1423977382.0
78164790506.0
-75285913162.0
-1571594812.0
72099405392.0
-66711563894.0
-502788556.0
65709904988.0
-54446992934.0
-512595814.0
53415660404.0
-43935243722.0
-393857772.0
43133521376.0
-29761857302.0
241257024.0
30246575482.0
-22021974250.0
-1050906974.0
19885664508.0
-12652207836.0
-1106774928.0
10389975580.0
-7901444602.0
-306109642.0
7270387496.0
-8338138982.0
-1631867494.0
5022544754.0
-12114052876.0
541431620.0
13214381138.0
-21204016168.0
-1112102206.0
18940188194.0
-32948632064.0
-1261734056.0
30389719348.0
-44085815659.0
234257101.0
44568116379.0
-55142816557.0
-471716785.0
54178917592.0
-63598413550.0
1075025070.0
65770836283.0
-73406973708.0
794597428.0
75011289532.0
-80520370388.0
-960065721.0
78577153309.0
-80706324936.0
-488494903.0
79721604426.0
-78956129537.0
757261003.0
80495184622.0
-74003035928.5
181080603.5
74363615507.5
-64776339033.0
1115315883.5
67035391730.0
-54813557418.5
946840967.5
56749840085.5
-42042530846.5
773516968.0
43629668730.0
-32910835679.25
-246725762.5
32405337437.25
-21659560606.0
-152097054.5
21341999783.5
-11894092997.0
-722850367.0
10420913596.625
-7566053515.0625
-1371818857.0
4778559615.5
-6760985547.0625
580602505.25
7929979606.0
-13398886531.75
44897987.625
13469416771.625
-19183232110.75
672925590.75
20538453656.75
-31722122519.5
267321409.0
32251644228.25
-46474298508.0
-1280119338.0
43870623999.0
-55706771002.5
454186841.0
56625796423.0
-65208616577.5
-350018770.5
64490376191.5
-72365776322.5
413344762.5
73199174552.0
-77599817708.0
545991751.0
78700636595.0
-79942451720.0
311246959.0
80560475962.0
-75357594268.0
2039227322.0
79495193322.0
-71739253327.0
895143696.0
73550532920.0
-64806746800.0
1029103090.0
66886117765.0
-54984224654.0
205789299.0
55398702091.0
-44516543317.0
-839694133.0
42820913165.0
-32185059626.0
-408725227.0
31355555619.0
-19705166084.0
939325542.0
21602179518.0
-12144153036.0
22473062.0
12177078740.0
-7595503722.0
-580672714.0
6401784324.0
-8598936520.0
-1243512116.0
6059740410.0
-13733445562.0
-496242664.0
12723503168.0
-18817008566.0
535903528.0
19912699292.0
-30893932538.0
-140358848.0
30614007290.0
-44792072242.0
-1371235422.0
42015965764.0
-56285793264.0
130868414.0
56565758058.0
-64530339008.0
175040494.0
64887839466.0
-72796113224.0
584896952.0
73992436032.0
-79987077390.0
-1449928626.0
77047502228.0
-80092356942.0
599006214.0
81310943062.0
-78659155970.0
118386880.0
78891347580.0
-71051937726.0
1256859106.0
73600793748.0
-65942783358.0
102779064.0
66160337768.0
-55994706314.0
-852838770.0
54264280912.0
-42366507068.0
469843124.0
43314642196.0
-30428625986.0
91102854.0
30601779652.0
-19783162088.0
279879956.0
20345424322.0
-11471968838.0
292660532.0
12050733778.0
-5064194960.0
1050716802.0
7184087370.0
-4978515144.0
-211451980.0
4502960234.0
-8509280262.0
250126784.0
8985029016.0
-15448077820.0
128327792.0
15698640264.0
-22665034054.0
-209491702.0
22229602014.0
-30764123968.0
2204894.0
30773997742.0
-39676994886.0
52170338.0
39796186608.0
-47669379460.0
-17629576.0
47645140754.0
-54113465588.0
-316764486.0
53445243276.0
-56022004964.0
134997040.0
56267024134.0
-59026535140.0
-442099464.0
58127019470.0
-56174280742.0
168839278.0
56547898194.0
-53647742570.0
187046666.0
54072432132.0
-47165863596.0
-256568108.0
46656701358.0
-38747470064.0
62356284.0
38906225180.0
-31715968084.0
530187644.0
32810797724.0
-22143189294.0
-101282806.0
21928169076.0
-14235633744.0
-55756362.0
14141079460.0
-9410531688.0
-275418864.0
8817836958.0
-5677786990.0
45887458.0
5712922534.0
-9519819468.0
-153622606.0
9177999746.0
-13192451682.0
-349745604.0
12459004646.0
-17433764102.0
-225569366.0
16946716074.0
-21878953188.0
-438071190.0
20962094306.0
-25390780940.0
-163282416.0
25061953728.0
-32983094208.0
-608319812.0
31725444460.0
-36615904148.0
579671696.0
37826978768.0
-40727638600.0
351572788.0
41470781116.0
-44304742210.0
104992248.0
44553971314.0
-45236583808.0
538704334.0
46406655526.0
-45275014132.0
-169661354.0
44959364382.0
-41861525444.0
355664150.0
42632823894.0
-36552361488.0
-85624654.0
36386475440.0
-32638776850.0
-152155648.0
32343241560.0
-26901693108.0
-97470394.0
26698504064.0
-20857731012.0
81680470.0
21029797088.0
-16796933568.0
-41396782.0
16723692122.0
-12455317422.0
29282014.0
12491693568.0
-8731939896.0
-165268544.0
8356436078.0
-13252721992.0
376377370.0
14051840850.0
-17214331370.0
-407047640.0
16386506612.0
-17986327782.0
261348904.0
18546590252.0
-18595782968.0
155772186.0
18932616786.0
-20038113620.0
-4253848.0
20058847988.0
-20998484430.0
567611580.0
22176163950.0
-23953386940.0
-110496504.0
23739719424.0
-25391951978.0
65389074.0
25556283806.0
-28120867754.0
-426091502.0
27259063874.0
-27722863958.0
-426802800.0
26848695508.0
-27468941324.0
-114893968.0
27238965142.0
-25959684888.0
-247624386.0
25474070234.0
-23901834088.0
-13588338.0
23911039646.0
-23374427788.0
228998500.0
23895519338.0
-19955097810.0
-250854392.0
19439412890.0
-18551461330.0
-249563776.0
18037461688.0
-18358737768.0
-53427524.0
18264620886.0
-16734394438.0
279155908.0
17322562156.0
-16448990596.0
-436471032.0
15528902652.0
-24024216486.0
-9502112.0
24006488398.0
-20855953024.0
114251138.0
21120358088.0
-18429685696.0
57083300.0
18566091036.0
-14395792508.0
291173752.0
15007098830.0
-12345869386.0
-276406860.0
11792896720.0
-9308598886.0
-331209962.0
8640453490.0
-6590251506.0
306542846.0
7254717156.0
-5506045432.0
-141612172.0
5256091186.0
-6324276440.0
-211501194.0
5906017418.0
-5602372186.0
323097728.0
6295210140.0
-5740948654.0
-95569256.0
5580079898.0
-6400339596.0
264379512.0
7012208844.0
-7360448272.0
-239394656.0
6915250326.0
-7689448096.0
143833726.0
8006082294.0
-10694267398.0
49095474.0
10797505846.0
-15626788990.0
117803070.0
15892804984.0
-18898154371.0
212625102.0
19371622046.0
-20068614116.0
593144272.0
21332159990.0
-23447275495.0
-280928660.0
22855795010.0
-31788205034.0
-12589768.0
31759433272.0
-26824917080.0
-92486148.0
26654738638.0
-20040251700.0
409724120.0
20894030788.0
-13027958144.0
32720610.0
13096686068.0
-1639795112.0
-46056410.0
1555751682.0
8239712924.0
191502794.0
-7827525136.0
12762003438.0
-238064970.0
-13234937360.0
17813585292.0
298132622.0
-17163211698.0
20314140552.0
266345652.0
-19741933090.0
18227565704.0
-163917480.0
-18549229528.0
19906732256.0
141541028.0
-19581220154.0
17757290228.0
88228728.0
-17523318904.0
15656603628.0
319166830.0
-14951665124.0
5729701993.0
-317435881.0
-6355811091.0
-1014979000.0
-70120501.0
884676191.0
-11745930557.0
102229456.0
11967242152.0
-18589272402.0
67348149.0
18741901712.0
-27590341410.0
115260889.0
27847546472.0
-31408985557.0
-31584453.0
31348044122.0
-39816969096.0
102395712.0
40019906644.0
-32585926138.0
-295634640.0
31993997390.0
-21536153626.0
-412486648.0
20690168370.0
-8504054754.0
100292516.0
8719682970.0
7471375908.0
125803984.0
-7199517132.0
24716337934.0
186536602.0
-24320170566.0
38746828682.0
-9435192.0
-38746841690.0
45626641918.0
111863016.0
-45367770862.0
47701480598.0
-404687924.0
-48543921164.0
50363316844.0
333900194.0
-49697266516.0
49113549178.0
-298868736.0
-49733282214.0
44985937031.0
-211907052.0
-45404490155.0
37108153005.0
108110878.0
-36886952246.0
24090077380.0
249810911.0
-23541925543.0
7462380919.0
24504972.0
-7352016158.0
-9193605564.0
-62826345.0
9095410040.0
-22296816694.0
-572344129.0
21150922258.0
-33185971594.0
-15049190.0
33193188673.0
-38452473502.0
189725366.0
38851485096.0
-47771130200.0
-352349724.0
47048266350.0
-35860767718.0
524410358.0
37004187684.0
-23586777502.0
-70389752.0
23465832820.0
-6347145892.0
294144702.0
6991874362.0
14062518508.0
68374704.0
-13884350184.0
37059202928.0
-317603450.0
-37701560232.0
60930719258.0
-20805408.0
-60954385116.0
78012094616.0
164535788.0
-77655229020.0
82577049432.0
-240785312.0
-83095519476.0
85745296108.0
153628615.0
-85441854048.0
83656157179.0
101415744.0
-83434631658.0
77560948622.0
-125108157.0
-77781738923.0
60182262820.0
-20044690.0
-60213470417.0
37832858065.0
137695781.0
-37530236266.0
14176482752.0
-132959311.0
-14414759964.0
-5984749471.0
-9050313.0
5997177181.0
-24941147471.0
135875497.0
25248699615.0
-36997999014.0
-202632126.0
36569116654.0
-46450035700.0
-85692037.0
46259274247.0
-51427448010.0
466487558.0
52409086730.0
-41752248996.0
-49505994.0
41678068388.0
-26737844880.0
-183570116.0
26370172302.0
-6248438598.0
83302858.0
6454653552.0
15774402640.0
-239112184.0
-16247283198.0
44307931842.0
-28686736.0
-44364335018.0
77591525034.0
23473266.0
-77519556468.0
110846040808.0
60780730.0
-110708654404.0
128688795768.0
-27852231.0
-128776683747.0
123414730071.0
70132662.0
-123285315147.0
128009969100.0
-385871560.0
-128795278912.0
110761819107.0
257361348.0
-110198682134.0
77888914277.0
127734417.0
-77614148068.0
43335968398.0
-635436685.0
-44650969945.0
17013363820.0
197813800.0
-16597527814.0
-6579928011.0
-231822481.0
6095166489.0
-25495936924.0
-51255114.0
25396914838.0
-42463483512.0
304150266.0
43095274434.0
-51316481430.0
347179294.0
52028974128.0
-57501698630.0
-120205262.0
57291539770.0
-44081381834.0
70414038.0
44274127020.0
-29693438268.0
-168555858.0
29386348210.0
-6984359324.0
14231438.0
7079941098.0
18503689574.0
333728454.0
-17797924444.0
48536188192.0
-126080660.0
-48795097162.0
82087354412.0
-439086310.0
-82992829772.0
127451666385.0
194961190.0
-127025281456.0
183208693369.0
-131725060.0
-183516481298.0
217054065408.0
243666222.0
-216590286070.0
181871378249.0
75218081.0
-181716557540.0
129312465159.0
-92469803.0
-129490863972.0
83429844496.0
-21409717.0
-83486618423.0
48566528632.0
141293921.0
-48279581700.0
18729040631.0
-354012210.0
-19444617178.0
-6313131789.0
-83027572.0
6151540856.0
-27389775296.0
589877017.0
28632314532.0
-45701078632.0
-217786440.0
45262474227.0
-57335864116.0
-539974699.0
56229354798.0
-57337397300.0
235583924.0
57868312180.0
-45258656952.0
1282674.0
45329419914.0
-28381252424.0
-76199884.0
28254582646.0
-6045986840.0
-203560476.0
5674796262.0
19601017590.0
-350356530.0
-20295751746.0
50022662792.0
542632546.0
-48868565130.0
87194866364.0
196869621.0
-86778465289.0
122255717596.0
-155508091.0
-122565563918.0
215752566808.0
-302634512.0
-216404310849.0
239703780405.0
84554152.0
-239563630748.0
215341436009.0
-268581139.0
-215920141459.0
123267457391.0
327855996.0
-122571765364.0
87817345774.0
272974912.0
-87257047808.0
48331805410.0
-2177511.0
-48336721979.0
18877094546.0
205580959.0
-18434635202.0
-6437704724.0
-292841247.0
5835279161.0
-27469175740.0
-12604860.0
27454923202.0
-45032495516.0
-318117201.0
44399461242.0
-57538404819.0
37891313.0
57643081746.0
-56643110034.0
-82633830.0
56478672134.0
-43908591136.0
20784686.0
43974072998.0
-27457887642.0
409277514.0
28355273442.0
-6299475370.0
480425910.0
7335574458.0
18072215468.0
-408199292.0
-18896247340.0
48361131166.0
-328556254.0
-49032985142.0
83322331770.0
127742434.0
-83063621711.0
127280454642.0
-491030456.0
-128330941046.0
182581107366.0
-99130542.0
-182796116239.0
217028646737.0
8628067.0
-217017332308.0
181637535503.0
-40752539.0
-181729642920.0
127349781059.0
105242966.0
-127126159233.0
81699420997.0
-137653488.0
-82002990035.0
48545158407.0
-328566507.0
-49235896020.0
19502584342.0
289077940.0
-18868538785.0
-7003239730.0
170266289.0
7389238883.0
-28208517364.0
-190566914.0
27837034062.0
-44652062289.0
-115119428.0
44437794213.0
-56996687430.0
-147879660.0
56728235488.0
-53608414700.0
55737088.0
53710869962.0
-42254566862.0
-435214898.0
41358118934.0
-26047354320.0
97419070.0
26284635630.0
-7119416418.0
-172194418.0
6774157648.0
18491392372.0
262277974.0
-17919175334.0
46744717287.0
331984134.0
-46032654797.0
77933582367.0
-32692383.0
-78001515802.0
111397849261.0
676847485.0
-110011120278.0
128827937452.0
361287046.0
-128095632140.0
122426902381.0
-292469998.0
-123034611695.0
127925400147.0
-124735248.0
-128192842842.0
109736257319.0
42642682.0
-109641102901.0
77519384178.0
-115364298.0
-77732706037.0
44410791216.0
-7605087.0
-44399228419.0
16865621749.0
52535604.0
-16716149780.0
-7450454938.0
-185144380.0
7101503995.0
-25694581862.0
-55763764.0
25617402670.0
-41289072269.5
-158089675.0
40993412646.5
-52901280258.5
117837496.5
53185438136.5
-47018605768.0
275451516.0
47599292646.0
-36270182806.0
384447428.0
37099318804.0
-25009089330.0
-540185846.0
23936193976.0
-6871523190.0
53533134.0
7013455012.0
14214131928.0
-40773496.0
-14276029006.0
37453614022.0
-262620844.0
-37978393925.0
61494573449.0
249344212.0
-60966133221.0
76508223484.0
-403437433.0
-77356977070.0
82588954089.0
167756891.0
-82255657704.0
87439756017.0
-44053036.0
-87511398935.0
83011538212.0
-215984720.0
-83446302085.0
76884883600.0
-76563072.0
-77028370925.0
60587160559.0
113904358.0
-60313340269.0
36917766704.0
-140227073.0
-37188374189.0
14160202508.0
148651868.0
-13810522701.0
-6418843344.5
35898982.0
6529815912.5
-25219080901.5
258046571.5
25792585167.0
-37309154563.0
280624964.0
37937973479.0
-46476120122.5
171778250.5
46841027754.0
-39824841790.0
346105110.0
40546660392.0
-32241367876.0
303890922.0
32912093896.0
-21948244664.0
-208518722.0
21560158358.0
-8393133262.0
208040564.0
8856383554.0
7428993988.0
-44257338.0
-7482704334.0
23209513891.0
-273882901.0
-23756163885.0
36901459517.0
-293147377.0
-37487717944.0
46008395676.0
233093107.0
-45503286283.0
48235857380.0
-125034203.0
-48495005565.0
49032014445.0
63230760.0
-48892136730.0
48844413603.0
-85634946.0
-48988075230.0
45499271483.0
408177730.0
-44624287483.0
38382057699.0
153935968.0
-38045523651.0
23399829435.0
-68192556.0
-23526234962.0
7072209174.0
38354651.0
-6962901289.5
-7992682683.5
-152801717.5
7716521756.5
-20643638257.0
194701785.5
21045102049.0
-32354383881.0
35292571.0
32445796132.5
-39734176961.5
-134278435.5
39462452419.0
-30850947468.0
-354029866.0
30105080550.0
-26387224422.0
-42948714.0
26327767904.0
-19878885654.0
75921552.0
20066436092.0
-11783544116.0
-38849790.0
11747690260.0
254808205.0
425342853.0
678131937.0
6954281219.0
-237164373.0
-7413618123.0
13690642477.0
42640050.0
-13588185928.0
17307746183.0
-27330893.0
-17336571654.0
18130811312.0
-72875508.0
-18262633458.0
19172091555.0
-84818188.0
-19342944214.0
18862613391.0
68912030.0
-18717063302.0
16929148095.0
-126534577.0
-17184024429.0
13764672341.0
47647610.0
-13645589252.0
7127665280.5
-260879620.0
-7646467196.5
-957966232.0
-64411578.5
852434242.5
-9004163299.0
464532476.5
9996445338.5
-21641949906.5
-46711561.0
21518546220.0
-27580216852.5
-630283650.0
26274409877.0
-30209050312.5
212114603.0
30648196261.5
-23204424690.0
-662084214.0
21804668274.0
-20834973676.0
179821746.0
21222350838.0
-19823426606.0
-130920256.0
19581372380.0
-14186853920.0
637250752.0
15583484652.0
-11329902859.0
-226438457.0
10939582135.0
-8441336405.0
-119018135.0
8245065496.0
-7088878544.0
248802031.0
7644624339.0
-7706600233.0
-7330451.0
7714913112.0
-7250779385.0
-75029222.0
7122034987.0
-5752417929.0
252175019.0
6298736979.0
-6505740754.0
64932253.0
6677401726.0
-8254127195.0
340119209.0
8977206177.0
-6529079902.0
-41935005.5
6484124036.0
-8551411414.0
-90925300.0
8377750974.5
-11415915001.5
-488232326.1118164
10399584333.536133
-14860916044.723633
-99931762.5
14691085966.5
-17892189670.5
18038836.0
17947201468.0
-20863020796.5
330360311.5
21555732676.5
-23224262760.5
-376033216.25
22417662564.25
-15135709608.0
316482778.0
15759381568.0
-16378799186.0
-38840030.0
16282574736.0
-17436049692.0
-371737984.0
16663782650.0
-19335880481.0
-286426287.0
18792980886.0
-20103053825.0
-9298659.0
20125702658.0
-20784545168.0
48942029.0
20950012493.0
-25546718697.0
-73660043.0
25428384025.0
-25078777632.0
425730147.0
26011910014.0
-27832216501.0
-290021517.0
27264320138.0
-28486806138.0
4123762.0
28505800893.0
-25998844517.0
237066045.0
26514278274.0
-26011969786.0
29680555.0
26082055855.0
-24072074220.0
369889644.0
24865021436.5
-22673884822.5
-198802804.0
22269731298.0
-19987803879.5
216110399.0
20467779267.5
-19374987788.0
112636068.0
19658058180.0
-16823145762.25
-341510952.0
16122682027.75
-17118871100.5
215850941.75
17523043183.25
-15417304215.75
10012431.75
15381650552.0
-9341994754.0
-292991688.0
8686358144.0
-13034306318.0
474416366.0
13998858474.0
-17040329340.0
35804976.0
17111196530.0
-22167014751.0
-72570487.0
22023278386.0
-26710691485.0
-392262289.0
25918085062.0
-32422467028.0
371614957.0
33232252274.0
-38390272366.0
-313995922.0
37729390899.893555
-41421888303.46289
-232563832.21289062
40984231323.0
-44094595130.0
266628442.0
44668535627.0
-44970149376.0
-130413077.0
44715228613.0
-44481607945.0
58649498.0
44622125390.0
-42304817824.0
-217726243.0
41849113716.5
-36954299246.5
-51264884.0
36841588159.0
-32257987300.5
87066383.5
32446678195.0
-27118701671.0
-32789871.5
27081428117.5
-22013433678.0
215974976.0
22492230185.5
-18158591430.25
-98103597.75
17959338703.5
-12712932128.5
-355395048.25
11913977336.5
-9636897572.625
13746259.875
9595644076.375
-3972619098.0
170175362.0
4268038898.0
-10585471760.0
-366543664.0
9796276080.0
-14084523714.0
8093470.0
14068462652.0
-23016470764.0
198411647.0
23407993572.0
-29045295046.0
175175786.0
29425606715.0
-39654974213.0
-28685736.0
39604717560.0
-47129848609.0
-570534877.0
45944230895.0
-51582527892.0
135084585.0
51856753645.0
-55101626781.0
233409602.0
55578800318.0
-57962542785.0
24687076.0
58018039025.0
-57595247185.0
-99371341.0
57412810800.0
-52519626677.0
415266415.0
53400909466.5
-47873910540.0
-425576273.0
46988995416.5
-39113290855.5
5551498.0
39171870903.5
-32018721672.0
5428987.0
32077684577.0
-24070863371.75
-270423450.5
23526339962.25
-14606450758.25
332382769.25
15280036709.5
-9927955610.625
184694848.125
10250868750.375
-4706290352.001953
-248255887.7685547
4144409702.213135
SCALARS stress23 float
LOOKUP_TABLE default
-24144291.619628906
-23979167.583496094
25619334.581062317
27208955.248535156
-26471973.178222656
-23632269.938964844
26769951.287677765
23159290.38330078
-32770046.33154297
-82258220.50195312
-164089755.98535156
-270251179.5341797
-383788460.64941406
-500717412.4589844
-600358957.8115234
-682096561.5996094
-732130053.4013672
-747152643.3457031
-731047269.3000488
-681277247.3435059
-602472848.7402344
-501058623.10961914
-382927431.05908203
-268110735.3334961
-163552025.6459961
-83109858.37817383
-35403293.34765625
-7958245.840576172
-27604035.775146484
-40510589.322265625
-55855570.09375
-60178798.177490234
-57674998.509521484
-50642930.904296875
-39562466.06262207
-20204871.413085938
882945.4381103516
21240247.0904541
36133270.3404541
51846695.12207031
58945978.236206055
60842317.90734863
53856031.47216797
42198850.5954895
24620781.238098145
9899605.516662598
30994521.56767273
82376468.72601318
163344475.76306152
268617153.3199463
385322395.08081055
501885113.2394409
601877994.1928711
682883000.4324951
729867366.2635498
749478927.6484375
730391315.9230957
682943787.064209
603296644.684082
503828232.3041992
384165260.17163086
268432231.18017578
161649089.78930664
80221568.27563477
33884004.693359375
8109257.171875
25888960.217529297
39461286.419921875
56959276.376464844
61817655.302246094
60540180.78491211
52132086.341796875
38555273.68408203
22712720.455322266
710172.3908691406
-20809068.327148438
-37960974.384277344
-50043519.18383789
-60165574.03515625
-62754713.313964844
-54679285.3828125
-41570587.02001953
-25373201.3984375
-8361649.1328125
-33592071.451660156
-81764501.6328125
-162882343.04785156
-266877198.94628906
-387284601.8017578
-499186573.82958984
-601969409.6896973
-679973758.8613281
-730510817.2832031
-748877959.7021484
-731849979.5666504
-680447159.3845215
-600803281.6247559
-498079473.10961914
-384976482.907959
-268433645.7138672
-161314638.15063477
-80061492.08251953
-31195139.356933594
-7536722.093261719
-24392346.85571289
-40378079.4440918
-53952235.811035156
-60243890.360839844
-61934528.075927734
-52628185.73535156
-36672004.99243164
-19038296.469726562
-439864.06689453125
18963844.352416992
41222117.984375
51798129.2644043
60468430.50769043
60687253.16052246
55584261.10845947
41013619.09207153
29091635.457336426
9163654.294418335
32440861.783309937
82851797.7814331
162490261.60076904
269278903.3098755
385031292.8328247
500361405.0274658
602923724.5528564
679324787.9932861
731871928.5689697
748837388.1099854
732016424.1174316
679439603.2390137
601718773.6311035
497270359.08862305
385216253.29956055
265584076.14331055
163951108.31518555
81912401.07641602
31192902.425048828
8655411.504638672
25384417.384277344
41660931.100097656
52772276.127197266
59961658.705322266
58758979.947021484
51801268.58911133
37768249.41308594
19242782.628173828
1235188.2666015625
-20365016.857177734
-37145888.28833008
-53029179.70800781
-58003621.72753906
-57541655.40966797
-54063730.67236328
-41887460.38623047
-26988288.116210938
-8758208.443847656
-25243969.20703125
-25997059.157714844
-26405378.38330078
-24433041.78100586
-24530620.032714844
-24264868.94970703
26413753.748077393
26867320.06559372
26984271.27922058
26716794.638916016
25883669.64892578
24700148.32373047
37736608.94580078
34037016.75439453
56823127.9609375
62725197.153808594
64375731.720703125
60593860.94262695
49017807.61743164
35251725.439697266
20589018.438232422
-254759.09887695312
-17275327.21850586
-34424742.51635742
-49127829.087646484
-58527720.61694336
-66155160.05004883
-63191929.884765625
-58728320.33081055
-33548295.913330078
-38738568.67578125
32959796.00439453
18890007.001953125
36875931.61621094
42130613.283691406
47651493.509765625
46660007.56738281
39111048.416259766
28920089.46044922
14544439.72290039
134951.51733398438
-16737273.809082031
-27278814.370117188
-40090873.88598633
-46064036.497558594
-46832672.455078125
-43698489.82885742
-36923803.73071289
-18300039.62939453
-32815938.329833984
20001369.799804688
5745426.257324219
15227494.435546875
15174092.969238281
20716711.291015625
21201167.685058594
18936597.647705078
14716073.30053711
6894577.257080078
317689.2443847656
-6959092.898681641
-13106295.995361328
-18992413.774169922
-21148112.82006836
-19094183.049560547
-15396726.259277344
-14156775.443115234
-6129128.291748047
-21466516.52709961
1106913.5551757812
-565930.5581054688
4938947.483886719
3337010.2006835938
11954783.926269531
16548034.430175781
20057923.93725586
16742815.329345703
7762115.847167969
-795540.2290039062
-8985333.795410156
-15498508.812988281
-18189551.087402344
-19467594.227539062
-12085169.80834961
-5358930.333984375
-5195553.806152344
950552.9165039062
-3622602.341796875
-19673903.8125
-11391154.601074219
-14146693.59375
-19880216.302978516
-14935550.415283203
229170.15014648438
9698608.70727539
10203294.864746094
8015957.008056641
-1857947.9624023438
-7663587.879638672
-10544272.0703125
-8387941.909423828
-1284649.5769042969
13530643.103027344
21014120.2421875
12432067.51538086
13615807.32836914
17874640.154541016
-37617363.66845703
-19834892.807373047
-30884404.84741211
-34614184.5168457
-42367375.892822266
-33226224.477539062
4255827.694824219
10856090.959716797
11712384.647705078
613062.2687988281
-11096945.68334961
-11500313.736328125
-3960715.8103027344
31418594.481445312
40869208.46948242
37603913.94506836
32895171.42993164
18823639.471679688
39795411.060791016
-53667997.47265625
-27327006.335205078
-43205711.768066406
-53292306.515625
-60262709.630371094
-71646683.43432617
-54529765.860839844
31968516.41772461
3466514.4975585938
-897743.3952636719
-2652162.751953125
-33232538.698486328
55721743.69506836
70624944.42651367
60388153.75415039
51198680.11694336
42641523.34326172
25830346.165283203
55912998.0949707
-67459556.93408203
-31600663.545166016
-52831302.42944336
-61203513.86450195
-74987451.32763672
-78737876.39575195
-123252914.0
-99020820.79663086
146017273.53271484
-537981.9860839844
-145958107.3972168
100766241.796875
122660683.24658203
77107011.2553711
71625500.65283203
60358324.50073242
52749396.65161133
31738906.231933594
68342085.63903809
-78660743.95166016
-33840434.67480469
-58471551.411865234
-65389223.0690918
-78406330.13769531
-98283134.96679688
-83606141.23071289
-211305734.70532227
-243320013.3461914
-1032220.3142089844
242932972.59057617
210503392.49658203
86598030.15161133
98088188.19726562
80114517.17480469
68196189.2208252
57633018.036743164
31005463.35131836
74297137.09643555
-78503438.45214844
-34568598.82397461
-59677283.681152344
-67386381.01367188
-85210011.36645508
-81995655.09204102
-156380271.82104492
-22075689.399414062
-517917624.5769043
4183590.109375
518007179.31640625
24595380.12841797
156421945.67578125
79603841.03930664
87006777.31359863
66782710.5300293
61531989.87182617
34305956.91699219
79045611.89172363
-77291785.72241211
-34132834.45019531
-57799777.825927734
-68574618.75073242
-79357974.32910156
-97080084.0949707
-83628092.99633789
-215087199.89648438
-241835744.58764648
-499659.6103515625
244206915.45166016
211660449.80822754
83296433.22277832
99377066.75183105
79423824.10534668
65935772.63391113
58528880.557006836
34310504.479003906
79307926.66491699
-68615845.16381836
-29542667.719726562
-51821805.43823242
-59937118.60546875
-74663593.19311523
-79302827.59301758
-121765334.62670898
-99995150.18139648
146980343.79125977
-820458.5810546875
-145728689.60339355
100200210.13708496
122389243.18041992
78726575.0559082
72580297.2902832
59623939.5324707
50519806.817871094
32071780.16027832
67689300.72460938
-56537965.251464844
-26513191.814697266
-44286196.53466797
-50024881.37084961
-61207871.364990234
-71582311.35473633
-54912076.34033203
34198783.75341797
3836728.8857421875
-479826.31982421875
-2269147.5607910156
-31523947.567871094
55842945.30065918
70241732.42443848
59826079.462768555
51343440.48034668
44204261.01208496
25244770.483520508
55397545.400512695
-38949859.76220703
-21133511.358642578
-28659934.410888672
-34934865.779785156
-41646563.23339844
-33277004.835205078
3070861.2126464844
10857690.572265625
10440685.170898438
549337.5236816406
-11619033.17944336
-12584420.057617188
-3305419.864868164
33367989.38342285
43582078.42626953
36767831.13635254
28435395.16418457
20350268.966308594
40068328.90423584
-18436668.541992188
-10245557.999023438
-17746847.771728516
-18673616.051757812
-13351160.6015625
-2104814.4299316406
7578076.425048828
11629164.908935547
4606633.492431641
54875.02038574219
-6683578.298950195
-9462558.809692383
-8698280.891235352
1582058.0194091797
12766612.605102539
18671990.729003906
15479098.539672852
13065703.934875488
16487924.505249023
3083890.0380859375
-131154.3857421875
2771038.4633789062
8755778.821289062
13422116.780029297
18580006.72265625
21029961.973388672
15354641.4453125
7755951.052124023
1793648.3079833984
-7655207.7197265625
-15712129.712646484
-17647370.735229492
-18364709.055908203
-11885592.322021484
-4724898.372558594
-6003198.833251953
-658501.9922485352
-1985034.6873168945
19679779.681152344
3731983.6877441406
14606281.012451172
16756012.018310547
19491024.979003906
21798623.000976562
18416899.171142578
13255805.180419922
7285690.674682617
1780233.0363769531
-7851393.048461914
-14688179.389282227
-19903399.93701172
-21096981.451293945
-20543142.691833496
-13212215.966674805
-15103342.244873047
-6263240.275756836
-20151454.87954712
34749671.224121094
19814041.538330078
38012793.30151367
44635113.69995117
46810465.74658203
45939406.13378906
38102223.04760742
28720822.150390625
14751234.22253418
-384225.4669189453
-13871741.78503418
-28258152.889526367
-40800457.92944336
-45919673.91516113
-48092179.85369873
-43386932.84539795
-39393790.78503418
-18123877.822906494
-37133610.933410645
37249116.728027344
34674505.123291016
55248338.60131836
61919880.69946289
63394949.455566406
58645341.947753906
51584679.05102539
33576916.75292969
18445978.635253906
-281280.7351074219
-19658576.826538086
-36279278.17150879
-47266865.20263672
-58136633.926086426
-66168326.68688965
-62028326.39984131
-56261128.91494751
-34281120.4597168
-37584428.446624756
38571177.65283203
33173041.13671875
57402425.91455078
62308737.126464844
65484205.404785156
59075483.893066406
49040215.36621094
34627960.607177734
15752863.427978516
11662.678466796875
-18826079.381103516
-35540359.97216797
-48597935.2265625
-60496854.13598633
-63498308.20336914
-62279427.73852539
-55154204.162109375
-33898779.966552734
-37288247.481933594
34561700.98730469
19779705.642578125
40016437.78515625
43272094.36230469
48037248.29248047
45185253.39501953
40053071.98364258
28343378.32836914
15477830.80078125
103687.12231445312
-13743564.38647461
-30491051.4453125
-39742730.17651367
-46254292.34887695
-48651890.51586914
-42217735.03930664
-40027982.66357422
-20382215.44140625
-34933480.26635742
20988895.345214844
5108587.756347656
16081537.299804688
15918472.655761719
19990428.73852539
20640968.05029297
18185257.615478516
13280559.17602539
8188945.064208984
-804432.9716796875
-8008225.5556640625
-14809584.25756836
-18506463.512939453
-21566785.778320312
-20070997.826904297
-15925026.520996094
-16768675.826171875
-5418475.923095703
-20338054.794433594
3617225.609375
74981.13330078125
4343421.762207031
6453495.1064453125
13836896.221923828
20857233.270996094
18633837.06689453
14370591.449707031
9179078.408691406
762193.4016113281
-8462134.571289062
-15893207.338134766
-19450441.73413086
-17277524.72265625
-13711068.702636719
-5026362.457763672
-4407939.237060547
208347.67993164062
-1126745.41796875
-17996172.052246094
-12284051.375
-16452251.142333984
-18876143.756835938
-14851189.124267578
-845300.3366699219
10461586.266845703
10796187.781738281
5637188.3017578125
2235529.3903808594
-5916785.828369141
-10044517.04296875
-11457352.333496094
997529.2526855469
15308884.117919922
17851594.467773438
19043480.485107422
9491365.661621094
19819217.026367188
-39884348.13964844
-19946144.997802734
-29989865.520996094
-36940200.166503906
-41188900.0690918
-31061438.505126953
1079339.8303222656
13256258.897949219
7094426.583984375
-451669.8623046875
-8519445.14086914
-12852196.852050781
-139735.18041992188
32595402.779052734
43076647.955322266
33959325.23486328
27989342.62084961
20498594.540527344
36505871.56323242
-57210985.07495117
-25091891.59814453
-42701878.306152344
-49215970.1809082
-58796466.53442383
-72754959.94897461
-54199190.712402344
26811220.68017578
16923707.193359375
942813.3488769531
-17554767.544677734
-25026923.660888672
52751709.41674805
74087482.73730469
59529933.77734375
51010844.63720703
43980394.8515625
26878921.99658203
54942973.65551758
-68381586.8461914
-29725116.032958984
-51962085.44116211
-61321524.95288086
-72881523.13647461
-76205549.375
-126113536.66040039
-77832103.7565918
86238927.54394531
-6541.268310546875
-86629362.64746094
75135388.6237793
126857229.48461914
77876141.94921875
76434406.22167969
60402515.1340332
52903415.5612793
29897577.36352539
67732118.14208984
-73605551.53881836
-33644601.466308594
-55172006.645996094
-68586889.6784668
-75730932.4375
-111863822.21875
-38178403.48730469
-359932437.08740234
89295867.12402344
957262.3156738281
-89562160.5131836
360850859.8327637
35526671.29614258
112140437.51147461
73573794.80285645
66652707.91418457
56822716.20751953
36442979.02258301
77164298.5682373
-79078193.74194336
-33428809.64892578
-63105964.80883789
-58540560.59106445
-115441008.0078125
18201065.353271484
-467507802.5175781
921000557.0927734
-2844307907.928955
-3818197.530517578
2845131808.1384277
-923642940.3564453
467589001.3952637
-17262697.227416992
113876527.55725098
59044261.650390625
60269258.69812012
34497561.80151367
78507803.03259277
-73718928.45117188
-34109650.02636719
-57409703.86669922
-66069864.278808594
-74533447.76220703
-111677604.47827148
-39054623.71191406
-357094585.8820801
87893682.84179688
986907.0693359375
-91228050.55297852
360018136.0404053
38595145.26916504
110574974.96459961
74792922.79602051
68065615.53076172
56716927.154174805
32183254.26208496
73375983.53625488
-67728613.6899414
-31753097.701904297
-52728469.49609375
-61116379.794921875
-73942824.09082031
-76737476.1081543
-126909370.36401367
-76459319.87304688
84632270.29833984
478943.03857421875
-86850426.27270508
75896097.39538574
127034429.91894531
76884437.61779785
74758767.2557373
62272723.548950195
53809322.640625
29862580.896850586
68290088.8034668
-54242020.986083984
-26131626.384277344
-41811764.15673828
-51471670.060058594
-58524428.94433594
-73232829.82250977
-53552025.94213867
24298564.657226562
18097735.71484375
-127691.47900390625
-17704774.250732422
-27167664.567871094
53285795.001953125
73193487.40234375
60038919.8873291
51168476.58203125
43027133.34460449
27170774.981811523
55474449.7857666
-38157119.1628418
-18402007.49658203
-31879694.74975586
-38185962.521240234
-40829333.56762695
-30871238.692871094
973375.3342285156
13408616.892089844
8277833.917724609
9302.940795898438
-7950475.408935547
-11333369.254760742
-1247614.8173828125
30838207.506225586
40480481.62207031
35186601.057006836
32014155.783569336
18791595.329956055
36539997.58679199
-18821163.52368164
-13430059.548583984
-13010905.719970703
-19340967.338378906
-16324834.786132812
1913529.2768554688
12351409.532226562
10130243.219970703
8913884.608764648
201128.49169921875
-7929196.340698242
-11273947.917358398
-11067934.99584961
-1625861.7684326172
17210050.833496094
19088948.145629883
15615689.938903809
10898239.172180176
20908962.14086914
2351474.5236816406
-628100.3408203125
6171608.568115234
2407648.1989746094
11243808.279052734
18609042.622802734
17027491.443115234
16213326.176757812
9133700.718261719
-1993554.4053955078
-7892401.011962891
-16111203.897949219
-20332250.17175293
-19045663.028686523
-13845864.8125
-5817147.974731445
-3494301.285095215
1686783.0247192383
-3174962.6369628906
21352882.576904297
7520134.287109375
15922737.69946289
15037577.953613281
20425145.72631836
20484298.50756836
19324296.307617188
15699630.735595703
7757210.968505859
-2195983.0473632812
-6711432.0078125
-14381306.53137207
-17506010.08239746
-21513817.823120117
-19622983.191467285
-18542435.027160645
-15988806.915283203
-4723394.158447266
-20774490.251190186
32222748.00390625
19033790.639892578
38735105.47949219
41485157.01928711
49145433.57788086
45924240.13330078
40967565.900390625
28610107.201904297
15667088.054321289
127228.50927734375
-16017997.318725586
-28668133.65185547
-38787657.08557129
-45334234.35559082
-47569407.07312012
-42443724.86126709
-37746916.514160156
-21001436.0960083
-30918943.61566162
38843700.09057617
32488169.296142578
58097150.93066406
63154059.56542969
66500983.80078125
60479876.9309082
46848117.302978516
35993434.01147461
17159110.174316406
392459.33984375
-16700501.041259766
-33965370.744506836
-51183833.256225586
-61058219.60876465
-64093559.62463379
-62392600.7097168
-57612822.5965271
-32876158.169281006
-38279796.838012695
-35132203.990234375
-36057027.24511719
-35538130.50048828
-84566083.72851562
-85258268.94140625
-84320591.44238281
-165277910.87304688
-165485687.96972656
-164688200.28027344
-269432324.2495117
-268615116.4267578
-267768061.1225586
-382979951.6689453
-383290351.6069336
-384720724.7602539
-497044620.48535156
-495567567.94140625
-496280937.85253906
-596126653.1672363
-594976115.1254883
-596918466.0500488
-675864413.623291
-673439713.5769043
-674812192.3305664
-725371542.3647461
-722857866.3710938
-724575454.6379395
-741051925.7460938
-739303827.4899902
-741911391.3083496
-724919189.0244141
-723010233.5554199
-725320315.4865723
-675396167.7036133
-673301216.8681641
-674986333.3933105
-597400590.3371582
-595442542.4326172
-596581074.4587402
-497036323.1345215
-495215629.9794922
-495569559.4033203
-381833380.52124023
-381807296.1179199
-382849955.5390625
-268239336.46411133
-268336342.22485352
-268396813.8737793
-164522972.9506836
-164488619.40649414
-163420602.74145508
-84783385.52661133
-84846774.24584961
-83272981.21240234
-36475368.096191406
-36149148.200683594
-34392769.3034668
-10168639.5859375
-10841780.740722656
-9962550.608398438
-29489046.51513672
-29589360.002929688
-27891020.66748047
-44007570.46142578
-45157718.15698242
-43946090.639160156
-59274032.63378906
-60108150.313964844
-58335037.36816406
-64242874.38549805
-65615152.52075195
-64280314.49511719
-62487888.962402344
-64794274.69848633
-64601544.55200195
-54283114.71044922
-55816415.68017578
-55255475.31982422
-41067377.62365723
-41098243.209472656
-39635844.45996094
-21087828.909423828
-21192829.254638672
-20510875.780395508
550431.6044921875
222203.03125
-106605.302734375
21841529.55883789
21665681.069335938
20706588.569335938
39628382.9498291
41626912.618774414
42148764.338134766
54961323.53796387
55992834.079711914
54935226.44836426
63078196.182128906
64711198.88647461
63837389.573791504
64837388.378723145
66146728.625
64759778.34442139
58202995.76208496
59938415.312683105
59059626.1394043
45398401.828308105
46270854.91741943
44805995.08807373
28436650.305877686
30440390.186645508
30648943.183013916
11967273.476760864
12533057.518234253
11593533.055206299
33568696.116760254
34665163.92581177
34281842.930770874
84898916.70669556
85817341.77682495
85127671.79885864
164669128.31707764
164973280.28729248
164243877.73171997
268804254.0405884
268975591.3746338
269129046.44799805
383604806.8562622
382982383.5053711
383454348.77459717
498177795.2072754
496695594.6029053
497425609.36602783
597455503.564209
596152892.4692383
597973604.7735596
676300348.6057129
673523605.3166504
674536339.033081
724065541.9873047
722464644.6794434
725066144.1710205
742737664.185669
740387021.5041504
742421993.784668
724476716.4355469
722773671.5551758
725285692.6652832
676360710.06604
673597577.1433105
674631088.1628418
598203878.5009766
596253796.8774414
597429768.4638672
498868223.74194336
496145098.78027344
495622411.64038086
382785986.47021484
382507424.8017578
383317283.5998535
267815233.4724121
267144950.7331543
266401229.23095703
163761123.10986328
164843054.09033203
164898169.20581055
83117096.0913086
84364000.57958984
83955533.87426758
35388687.86694336
35451994.6081543
34052788.1418457
10540557.30053711
11442622.06640625
10809550.968261719
28494710.26196289
29277350.868896484
28236304.627197266
43557681.853271484
45283645.39770508
44643091.45336914
59827250.650146484
60096719.06958008
57745573.623291016
65373048.48071289
66253408.44262695
64446710.080322266
63839026.470947266
64651331.03076172
62957882.90551758
55163718.763427734
56121651.60986328
54998444.009277344
40586939.470703125
41139839.37011719
40201223.31616211
22967179.723632812
22484747.790283203
21247806.757080078
808328.0004882812
926346.7756347656
1067752.9458007812
-21830905.411621094
-22090911.326171875
-21598298.290527344
-40006381.94458008
-40552635.11352539
-39596295.193359375
-53922282.603515625
-55708454.35888672
-55404939.966796875
-63387923.26611328
-64113028.353515625
-62319067.057128906
-65483018.53417969
-65546803.283691406
-62905736.947753906
-58460594.385253906
-59627651.35546875
-58161206.294921875
-45147092.173339844
-46395139.658691406
-45305306.14892578
-28492962.39501953
-29797657.452148438
-29290584.174316406
-10731561.602539062
-11587880.810058594
-10925586.956542969
25827240.883789062
21952237.181152344
26240019.130371094
20969121.239257812
16434006.46484375
20540223.35107422
39956428.399902344
34372367.00683594
40239237.787109375
43575021.05078125
37061799.97314453
43365053.50878906
45001200.673828125
38653773.70703125
45535345.46533203
41802676.579589844
35235252.84375
41052017.81347656
33655297.623046875
28493987.40966797
33669457.35107422
24068698.224121094
20217693.358154297
23777068.143554688
13609499.539794922
10491003.4921875
11238173.649414062
-183015.57299804688
-112687.98461914062
-46914.47119140625
-11940544.149658203
-10385215.612060547
-12688331.255859375
-23693749.151123047
-20258917.497070312
-24235239.64086914
-33665623.088134766
-28378354.389648438
-33402726.33203125
-40659944.850097656
-34963805.32861328
-41625633.19140625
-45826741.72558594
-38555890.813964844
-44511308.458740234
-43885593.4543457
-37246768.81738281
-43440995.96142578
-40782568.587646484
-34174599.408447266
-39030587.6340332
-20746421.78881836
-16497721.319580078
-20918156.142089844
-26244446.803222656
-21799743.443115234
-25524157.997314453
20148491.28076172
16089519.030761719
20934074.283203125
7414210.2265625
3694595.1235351562
7843744.340332031
22725465.75048828
18461535.532714844
24259038.080078125
25208108.76171875
19695217.290039062
25764919.267578125
28777201.517578125
22491877.895751953
28971111.50805664
27544878.40234375
20874448.405517578
26814647.688232422
22919447.435791016
17625700.081298828
23385159.97314453
16630512.283203125
12405558.596679688
16348736.213623047
8317487.879638672
6370813.98828125
8773452.116699219
111100.65942382812
95356.94262695312
91756.98583984375
-9523313.37084961
-6608741.8046875
-8039122.547119141
-15934888.80834961
-12623278.584472656
-17497697.4609375
-23510575.208251953
-17877363.086914062
-23339462.802246094
-27325137.025878906
-21046922.42236328
-27411551.407714844
-28325481.340576172
-22380936.403564453
-29205367.74194336
-26041810.220458984
-19856229.572998047
-25301161.080322266
-22713705.985351562
-18425092.202392578
-24231496.088378906
-7091814.425537109
-3650390.196044922
-8103244.463623047
-20119537.97290039
-16183838.555664062
-21161444.24169922
12473482.998535156
10086169.568359375
12948873.178710938
3150622.671875
2175874.146484375
2837351.4379882812
13903536.278320312
13583789.020507812
14310339.290039062
13833323.007324219
13490796.405029297
14186572.989746094
17156756.400634766
15833296.921142578
16789425.341796875
16055102.489013672
14226135.350341797
15769516.776611328
13125683.2421875
11046953.156738281
12751358.062988281
9519586.547607422
7536021.085449219
8805095.614501953
4444519.462158203
3832667.5776367188
5087412.402832031
69905.06982421875
-190857.17260742188
-478072.26611328125
-4462331.577392578
-3791553.9135742188
-4978778.331542969
-8711370.251953125
-7494449.738037109
-9530686.111083984
-13194484.919189453
-11163787.692382812
-12952514.33984375
-16171111.651611328
-14560485.448242188
-16373746.19946289
-16066186.59008789
-15195440.783203125
-16536635.930419922
-13988408.116210938
-13591048.01171875
-14238955.892578125
-13285950.984375
-13402435.379638672
-14559848.024902344
-3424001.369140625
-2395546.1279296875
-3067467.337158203
-13296603.269042969
-10367545.95336914
-12751452.174316406
1672777.7973632812
2245105.2690429688
2891212.0717773438
6984979.556640625
9617874.690429688
7299397.3828125
16483378.117675781
20249142.916259766
16178666.535644531
17959058.439208984
23355929.509765625
19482845.323242188
24327913.003173828
28767758.04321289
25243363.397216797
25335151.92626953
28969202.732910156
27459094.344482422
23354566.57470703
24220336.615722656
22651078.078125
17171593.32788086
16930232.46484375
16009683.373291016
8155529.586181641
8516648.518798828
8860259.268310547
-383293.29541015625
7756.596923828125
386523.6062011719
-8849044.864257812
-8711220.381591797
-8585776.240234375
-16604590.400634766
-17031504.278320312
-16798416.043701172
-22206393.3359375
-23748603.138671875
-22828441.854492188
-26646605.85888672
-28700421.17944336
-25579033.127441406
-24394187.510498047
-28783230.788330078
-25201324.20263672
-19062723.192626953
-23599155.32373047
-18893053.296142578
-16658461.260009766
-20369657.25732422
-16264860.949951172
-6622567.08984375
-9279117.271240234
-6986803.072998047
-2865801.0141601562
-2199141.04296875
-1635593.259765625
-10568602.978515625
-7251144.988769531
-9745465.171875
6896943.127441406
12886872.78881836
6457636.418457031
11908548.785888672
20282859.524902344
10780706.475097656
12672470.02758789
23757402.947021484
13168366.781738281
17759185.944580078
28736438.083740234
17793490.409423828
26339055.9296875
34918512.86254883
25808728.23803711
26874933.048828125
32757994.935791016
27262875.21044922
19533842.873535156
22763884.68017578
19845672.214111328
11127476.37524414
11793920.998779297
9972379.825195312
-819724.81640625
185507.88598632812
1192555.4331054688
-10903854.206542969
-11715687.448242188
-10060690.263916016
-19629889.44140625
-22590435.693603516
-19386451.306640625
-26170911.995117188
-32630467.282958984
-27696740.818359375
-27060223.928466797
-35350856.713134766
-25962231.47290039
-18667423.53491211
-29186174.4453125
-17796962.768066406
-12099616.877197266
-23716444.37866211
-13652221.849853516
-12568016.611083984
-19891273.7578125
-9314327.842285156
-5926588.025634766
-13152418.202392578
-7968651.204345703
9705379.928955078
7288450.604736328
10670590.299560547
-21263528.244140625
-16138885.136230469
-22372247.586914062
8669795.80883789
18210707.260742188
8613206.735351562
9277810.854492188
22896786.954833984
9719759.806884766
13775766.809326172
29629036.719482422
12618544.494628906
12454803.98828125
31039361.571044922
13031248.796142578
18694077.155273438
36469753.85083008
19769019.598388672
39630610.2277832
50977992.752441406
38071496.74609375
30883560.665771484
37986036.803222656
32084294.411376953
18634401.473388672
20188553.300048828
16338034.792236328
365614.703125
106525.3037109375
-165472.380859375
-18473918.944580078
-20517049.834960938
-17194140.82836914
-31272065.161132812
-38122258.89746094
-31960364.354003906
-39283320.16918945
-50510808.42456055
-37408305.77734375
-19661363.288330078
-36628201.396972656
-19107826.649414062
-13140188.378417969
-30910275.134521484
-12054769.202392578
-12349691.434082031
-29688324.344726562
-14131026.092285156
-8285462.646972656
-22899434.35546875
-10713514.932861328
-9239152.079101562
-18379994.903564453
-8412739.291748047
22106161.579101562
15651061.760742188
20497141.94091797
-30709112.143066406
-23571893.395507812
-32447170.135742188
9993527.366210938
22868702.236328125
11092059.296142578
7620373.422363281
24753749.346923828
7869906.104248047
10185019.955566406
32130196.76196289
12180073.56274414
12431458.06665039
37052318.131347656
13141962.12475586
6657652.829833984
32761879.630859375
6111408.770751953
15970306.591064453
39699531.842285156
16156063.971435547
69231561.91455078
80852944.09570312
66658920.0012207
21019510.455322266
29131945.248046875
27757793.268554688
-430034.0388183594
23340.211669921875
476361.2502441406
-20612051.583251953
-29105403.790771484
-28079302.35595703
-69792224.12133789
-80692079.02392578
-65726557.2956543
-15481612.731933594
-39868267.224609375
-16961610.784423828
-7092324.720703125
-32621802.221679688
-5388913.721923828
-12192868.797363281
-36691433.201171875
-12624222.435791016
-11305580.325927734
-32303811.159423828
-11394920.391845703
-7807804.722900391
-24512961.96459961
-7142146.825927734
-10659383.612060547
-22729808.520751953
-10145133.309570312
31828331.47680664
23599168.996826172
31362845.590576172
-38662969.36791992
-29157103.017578125
-39131396.9777832
11650265.16015625
26446639.501708984
12557565.299560547
5816620.8408203125
25629150.919921875
6241003.830078125
10459528.768554688
34483022.6965332
10403343.651611328
9647048.229980469
38380980.53051758
10682887.732421875
17454315.721923828
50143196.642089844
18707985.56274414
-15248636.647949219
20540294.093017578
-16682421.428955078
1986970.4731445312
39465993.951416016
12650191.064941406
158907538.68652344
153213445.9284668
128987620.10913086
-354386.5439453125
-208187.37744140625
-94320.8291015625
-158923525.56469727
-153321663.28515625
-129216897.37353516
-1317636.01171875
-39865161.05517578
-14156580.094238281
14985639.810546875
-20467750.76147461
17092074.314453125
-18198940.598632812
-50074429.463378906
-17850372.19140625
-11256402.19116211
-38296922.068115234
-8899661.321044922
-11242177.801269531
-35260683.200927734
-11229142.502197266
-5740243.935791016
-25339407.46069336
-5667332.747802734
-11510051.599365234
-26314028.678222656
-12421023.328857422
39172143.86071777
29293901.58166504
38885691.1517334
-45145441.80371094
-33090545.567871094
-42667894.658691406
12638478.30078125
28244958.020507812
12715951.217041016
5240872.474853516
27139106.295166016
6856083.284667969
10632595.630371094
35617635.25854492
9055428.07421875
12565548.130615234
43532240.845703125
13910129.994628906
3365314.520263672
35251733.91430664
-3370795.639404297
47424931.990234375
98845656.01538086
70017912.18920898
-84420261.26538086
-65971860.025146484
-158029094.8623047
-5975877.591552734
128980187.95043945
160328902.88452148
-495660.6286621094
8749.291748046875
489905.0390625
5724160.138183594
-129168745.12060547
-160523912.04638672
84070618.60546875
66069580.0090332
158554226.3310547
-45893859.85620117
-98709568.2175293
-71259580.53173828
-3438289.1572265625
-35207007.7668457
3531387.09375
-11794163.778442383
-43695926.32946777
-15039512.59375
-9039673.958740234
-35198033.75646973
-9800465.196533203
-5503834.377563477
-26819640.678466797
-5910400.814575195
-14031353.915527344
-28266798.935913086
-11365337.473510742
42851922.24560547
32754952.5982666
44256457.8157959
-45371745.75683594
-34348754.21533203
-45661661.74121094
13312631.897460938
29553035.196289062
13873040.271484375
4076514.2788085938
24898809.200683594
2368314.6499023438
13010282.505859375
41423166.46557617
17397674.153320312
665991.1000976562
24532556.865478516
-14336970.3125
45737238.447021484
104939076.65649414
95425850.43652344
-93077434.9819336
-122441314.6538086
-247125381.65625
329275748.9394531
599860228.7773438
795161821.2443848
-691260946.7324219
-1120358176.3903809
-1832355597.5407715
2113213.9865722656
139469.6904296875
-1812418.58984375
691474178.2792969
1120756033.7592773
1832967962.5141602
-328028384.69189453
-599867672.128418
-796451169.3720703
93143100.07666016
122519458.34448242
247207547.9440918
-47212115.25524902
-105572472.39172363
-95265004.90344238
284593.5899658203
-24410024.545654297
13628155.921386719
-13281765.930175781
-41406755.822265625
-17126844.72253418
-3333840.1713867188
-25286203.122558594
-3938110.9724121094
-13258326.008300781
-29181419.434570312
-13167828.487304688
45632653.701171875
34337878.20397949
45377504.35949707
-44222092.443115234
-32557441.100585938
-42477314.020996094
12372613.571289062
27961558.397460938
12367098.481201172
5294016.824707031
26519049.09790039
5480558.275390625
8888343.88696289
35271059.752197266
10112734.865478516
12128045.888916016
43607861.05761719
14522761.982421875
4228868.300048828
35835798.911621094
-3010277.5642089844
47238431.904785156
98453829.33276367
69391733.80883789
-86468725.30957031
-66389901.48046875
-156843879.12573242
-5281397.115234375
128956822.75463867
159620138.7319336
-172159.16064453125
192765.31079101562
583463.9985351562
6269137.110595703
-129334473.9868164
-161415703.00732422
84728721.17749023
66240398.353637695
158233507.09838867
-47559617.529663086
-98800124.07983398
-69788073.94836426
-2836529.7924804688
-35296305.455200195
2726258.9876708984
-12020885.40991211
-43454871.72607422
-14318965.092041016
-10332603.734375
-35576875.20800781
-9288258.714233398
-4895300.069702148
-26461852.33215332
-5784610.617919922
-12581242.534179688
-28635784.713500977
-13608048.872314453
45581767.19848633
33315524.202148438
42673504.80566406
-39375827.890625
-29424911.267089844
-38946576.923583984
12682372.877929688
26490421.094726562
11598707.384277344
6396208.0087890625
25785279.49951172
5956469.3935546875
11350786.045898438
35078019.32373047
10773402.57397461
9664465.864990234
38072357.00463867
10017885.243408203
16941344.93310547
49656398.32543945
18216114.221679688
-14396641.34375
20804233.783203125
-16965075.61352539
1601477.7319335938
39651973.34692383
13414375.601074219
159234423.01000977
152913283.06982422
128049399.4633789
-487682.6506347656
-164383.39526367188
155682.58569335938
-158796735.14953613
-153298540.00976562
-129306985.4897461
-1545198.8071289062
-39762672.26306152
-13726482.980834961
14834740.764160156
-20508363.400634766
17158455.699951172
-17294411.864868164
-49819316.536743164
-18215026.604370117
-10896628.114868164
-38556043.61706543
-9828720.106201172
-11325618.258666992
-34707837.31921387
-10032135.211547852
-7052493.0537109375
-25841284.14855957
-5439568.637451172
-11277368.047729492
-26162780.005371094
-12352513.797973633
38822220.05908203
29241896.978759766
39133938.544677734
-32124728.213378906
-23576093.297851562
-31013040.32397461
10360923.54711914
22784642.552734375
10542010.936523438
7100555.4365234375
24744742.001708984
8328186.559814453
12015803.013671875
32601130.75024414
11309079.579833984
11802917.946289062
36735934.583740234
13127324.357666016
6625563.933105469
32611430.325195312
5814239.001220703
15877683.703125
39873895.00732422
16576268.508789062
70273863.0534668
80740936.31835938
65377904.63378906
21486543.025390625
29769235.489501953
28633655.62451172
-368610.1560058594
-270536.3049316406
-189324.96728515625
-20342667.90966797
-28948457.923339844
-28055175.677978516
-69034717.94702148
-80872360.02978516
-66862687.87548828
-15278391.275390625
-39573514.60266113
-16558637.192138672
-7546256.154052734
-33183930.271484375
-6097933.452392578
-12457719.646240234
-36684109.927246094
-12361395.172973633
-11147152.244384766
-32144139.327026367
-11237928.375976562
-6884432.471801758
-24219871.45300293
-7473214.46105957
-11040614.90234375
-22896906.59716797
-10087978.998413086
31552171.06311035
23565787.05053711
31593336.430664062
-21859967.478271484
-16010443.09350586
-21484042.809814453
8090010.4423828125
18330965.454833984
9434626.642089844
10471212.926757812
23077999.87060547
8881869.788330078
13313441.88305664
28985436.14794922
11723115.997558594
13017710.84008789
31500256.989257812
13430516.642578125
18698906.396240234
36528807.841796875
19887786.220214844
38826735.71948242
50472751.93310547
37793750.85107422
30927419.776367188
38064697.20678711
32197148.389160156
17957057.614746094
20101609.399658203
16863017.348388672
409296.33984375
272257.474609375
138835.51196289062
-18728111.501708984
-20498880.17602539
-16900829.732299805
-31758603.632080078
-37980953.56958008
-31152946.78161621
-39059886.31286621
-50706658.20678711
-38038860.26953125
-18645213.56628418
-36501688.244140625
-19886180.017822266
-11776760.432983398
-30851152.977661133
-13300194.387084961
-12637754.982421875
-29472890.708618164
-13422041.242919922
-10574634.888305664
-23088679.690429688
-8817067.217163086
-8556110.619018555
-18505380.342407227
-9329019.080200195
22289882.41357422
15760152.384216309
20553931.778259277
-9932062.049560547
-7136666.1533203125
-10106696.67578125
7448730.158203125
12879415.016113281
5894421.7529296875
10103145.602783203
20214696.259765625
12444098.299316406
13408956.31665039
24071593.078857422
13088921.764892578
18559739.78564453
28791820.336669922
17103596.889892578
25266239.239746094
35089838.97924805
27244848.987060547
25774256.497314453
32637154.618652344
28124759.71435547
20389500.784179688
23075301.405273438
19647553.8671875
9416353.725708008
11718284.329467773
11537004.198242188
133539.62939453125
181773.77294921875
202936.72106933594
-10623612.611938477
-12144316.563964844
-11242538.575195312
-19139601.466308594
-22656654.595825195
-20013169.73864746
-26334562.272338867
-32603966.526000977
-27473487.68371582
-25605074.744750977
-35232233.03613281
-27178583.053588867
-18836601.063720703
-28727126.79260254
-16654093.392578125
-13466863.01196289
-24190630.140625
-13272802.965698242
-11142622.514587402
-20056103.89251709
-11082253.380493164
-6018155.546264648
-12764766.39453125
-7080942.245239258
8964571.9397583
7159254.046630859
11143050.884399414
2763328.821533203
2526754.3081054688
2401546.8276367188
7140633.396972656
9495407.369384766
6892929.816894531
15343608.904052734
20104443.368408203
17016471.99267578
20867579.18408203
23913383.661621094
17754623.688232422
24811952.98803711
28285040.007080078
23753201.872802734
26275826.170410156
28857551.80834961
26296792.550048828
23655412.19946289
23877444.563232422
21677132.435058594
16573449.125732422
17115446.541015625
16999420.26196289
8180006.848388672
8539516.053955078
8857131.735473633
869746.9572753906
-41084.57263183594
-981700.8486328125
-7808162.646606445
-7887406.840332031
-7915026.346557617
-16826791.35986328
-17249544.608398438
-17011274.079833984
-22022585.497436523
-23909868.344482422
-23338939.758911133
-26199953.48413086
-28928425.1907959
-26534577.00439453
-24295296.43371582
-28768730.017700195
-25262047.48022461
-18772681.60180664
-23654609.826782227
-19305569.18762207
-17003660.637023926
-20285884.52154541
-15767403.080444336
-7462538.339599609
-9364641.334106445
-6307385.81829834
-2181358.179992676
-2436913.33404541
-2779302.2626342773
12320007.954833984
10098999.395507812
13131720.27368164
2237203.0935058594
2332326.6384277344
4085170.9880371094
13426732.227783203
13225430.365966797
14054616.022216797
14720769.415283203
13766375.151855469
13887898.99633789
16381245.124023438
15495975.438964844
16860491.466064453
16358812.50366211
14319866.716308594
15717172.274169922
12951522.166259766
11250437.278320312
13385932.193359375
8975135.689941406
7918439.431152344
10163286.000732422
4631063.383911133
3813320.715576172
4861512.69128418
770861.4439697266
-198350.7802734375
-1172353.6873779297
-4836020.659545898
-3631179.0712890625
-4263255.875610352
-9719712.469116211
-8003681.951782227
-9575190.598022461
-13620085.176147461
-11129878.959106445
-12453250.390014648
-16078532.117919922
-14460362.254516602
-16290447.368774414
-16942270.926879883
-15575808.045043945
-16482141.052246094
-12968261.985595703
-13736350.317199707
-15586047.255004883
-13774297.787475586
-13467863.849487305
-14211685.644897461
-3448621.636779785
-2250539.09173584
-2684694.5743408203
-12514239.676116943
-10038071.327819824
-12819371.720703125
20944988.56982422
15883009.198730469
19689957.729492188
7901730.2998046875
3763677.748779297
7504992.219970703
23261287.70727539
18410876.031982422
23611219.970458984
26550934.146728516
19960665.970947266
24999947.077392578
28423557.568603516
22612751.957763672
29572876.33984375
27177405.96850586
20862492.436523438
27168869.10888672
22379486.221679688
17550357.641357422
23788920.96850586
16532247.693847656
12405489.020507812
16463789.34790039
8531628.84008789
6585001.84362793
8979625.961669922
-231924.21899414062
-96123.27661132812
23332.73974609375
-7987908.077636719
-6356642.123657227
-9048502.367797852
-16231236.01977539
-12256424.017944336
-16439703.661743164
-23812800.98852539
-17774494.567626953
-22821398.80090332
-27046354.649169922
-20599050.041503906
-26751835.362304688
-28961502.47821045
-22445241.40576172
-28709979.319396973
-25872523.955078125
-19831105.978271484
-25411358.652282715
-24013947.7701416
-18570313.18914795
-23196081.42944336
-7098476.150909424
-3856245.3002929688
-8516561.411621094
-22294145.790496826
-16297752.800476074
-19234066.35809326
25536850.129638672
21842095.403808594
26311552.424804688
21285574.67553711
16423438.86303711
20196525.05810547
39039309.81298828
34040158.89379883
40437237.41479492
43212832.0168457
37112021.134521484
43812021.13354492
44524594.76586914
38664499.93310547
46037153.34887695
40748909.00317383
35023153.521728516
41650962.373046875
35004885.388183594
28672032.786132812
32680434.957763672
23180497.026489258
20070785.065429688
24367541.50732422
12411877.973632812
10166972.958862305
11765305.720214844
-93500.67932128906
78156.49365234375
238743.7911376953
-13118358.5625
-10447556.698364258
-11668686.678344727
-24632160.37890625
-20356256.844726562
-23513010.75402832
-32877769.752075195
-28664450.64794922
-34800930.76135254
-40513425.037353516
-35050029.888305664
-41944229.63824463
-45930739.637023926
-38786902.86413574
-44906361.07092285
-43107836.32952881
-36802232.58685303
-43289031.65637207
-39634972.05905151
-34255454.749572754
-40296802.63809204
-21040304.279510498
-16369700.592773438
-20359751.871948242
-25623674.78466797
-21721786.164245605
-25986942.163208008
SCALARS stress13 float
LOOKUP_TABLE default
-23142396.2109375
23379158.21875
26204892.235839844
-24898486.6796875
-27944369.26953125
25719343.94921875
23424266.97290039
-27661485.90625
-8196052.10546875
-27287700.21875
-41664760.59765625
-57063195.1015625
-60353101.76953125
-59914819.65625
-48953475.93359375
-35790740.38671875
-18021210.3828125
2189317.59375
18433642.421875
35394818.81640625
48379285.625
59871780.7890625
61754769.0234375
57608024.5546875
40899270.9140625
24968198.4765625
7142294.3671875
30656299.56640625
79835495.55078125
164343973.36328125
269313431.6328125
386485609.0527344
499222692.5253906
603269472.296875
681674823.0605469
733482892.0019531
751455871.5683594
731859898.7304688
681470723.5527344
604133539.53125
500491001.46191406
383976325.6269531
267887371.50439453
163251305.25195312
82160722.11035156
33210201.591430664
7882025.587158203
24487734.849853516
39244507.90722656
55453780.62597656
62263291.846191406
60372051.5859375
52677417.185546875
37737285.58984375
19609658.58984375
668145.513671875
-21272594.3515625
-40963678.9375
-53976758.24609375
-58536276.708984375
-62123725.365234375
-53445767.5546875
-43322395.884765625
-25816720.46875
-8178014.486328125
-34333778.4765625
-82690696.19140625
-162277196.15625
-268458201.47265625
-386441500.86328125
-499747556.1484375
-602336767.3984375
-681557075.046875
-731881525.7890625
-750874152.7421875
-732965305.6367188
-679540563.7148438
-601550837.84375
-502072575.55078125
-386342981.08984375
-267682753.7109375
-165671322.4453125
-82437374.53515625
-32069638.83984375
-7524967.9296875
-25709277.83203125
-41403342.01953125
-53087089.07421875
-61959720.80078125
-58990318.4375
-54432874.68359375
-40212255.9609375
-22005630.359375
-1852488.6796875
20542035.2578125
39002547.52734375
53433947.40625
59869426.8984375
61931258.20703125
52498964.078125
41015491.49609375
26937440.09765625
8819879.953125
33151117.982421875
82832769.8359375
161368743.82226562
267127006.890625
383282490.6152344
502613641.390625
601557548.1132812
681982220.4550781
730640887.2363281
746064935.6328125
729264107.2548828
680242021.5517578
598354021.8642578
498067158.2871094
385464776.5048828
270498979.9790039
162757360.65771484
80416103.92797852
31094377.68725586
8324687.008300781
28505656.125732422
44855757.306640625
54468421.50439453
60447195.068847656
61522814.41796875
53229238.072265625
36667992.201171875
19692883.25390625
-275817.3388671875
-18004197.583984375
-36734862.48046875
-49541769.92578125
-59923313.994140625
-58603758.826171875
-56837267.154296875
-42007546.259765625
-29178145.59375
-10807311.052734375
-31727011.234375
-81163201.19921875
-164358750.06640625
-269161053.76953125
-383919845.97265625
-499476298.53515625
-602656432.9101562
-680361215.3945312
-730173672.046875
-745559529.6054688
-729980919.5234375
-681348405.1015625
-601195080.5976562
-497847331.49609375
-383037177.73828125
-269132058.30078125
-162958726.453125
-80844710.86328125
-32542974.55078125
-24862195.6796875
-26229530.546875
-27253528.2421875
24497989.9296875
25256752.3125
25661100.0703125
26030894.62133789
25515207.70361328
24648449.007080078
-26092295.05078125
-26949429.0234375
-27471264.90625
38084340.9140625
33996631.37890625
19529022.4296875
3143800.77734375
-20312626.890625
-39635798.73046875
-55188455.26171875
-68346608.015625
-75513050.3828125
-79225403.2890625
-74994180.00390625
-68463110.89453125
-55989724.19140625
-38219539.892578125
-17905551.25
2088789.123046875
20190022.833984375
34039277.501953125
39058371.1328125
33584847.48828125
19580383.78125
4950038.09375
-1001627.95703125
-11194783.88671875
-18941499.81640625
-24151745.40625
-31326958.83203125
-33269520.15625
-32919110.07421875
-33243183.484375
-30821983.12890625
-28229664.599609375
-20101545.029296875
-12493055.427734375
-651490.396484375
7926079.6328125
20031145.271484375
33160749.5703125
58821559.125
38495350.99609375
16019449.19140625
2978774.9765625
-16158183.515625
-29781538.1875
-43380525.82421875
-52276413.07421875
-57830692.4140625
-60796838.23828125
-57738187.376953125
-51203108.80859375
-43145881.244140625
-28431722.185546875
-15201544.822265625
4264866.568359375
14098619.5625
38169972.373046875
54808821.2421875
62719349.40625
42414819.96484375
14201462.546875
3896472.05078125
-18491196.77734375
-37790899.0703125
-50545583.21875
-62618324.921875
-66602013.212890625
-66826647.646484375
-66793364.625
-60784621.853515625
-52012457.703125
-35905429.24609375
-19630594.33203125
6085889.62890625
17030745.529296875
42868139.203125
62948480.251953125
64931658.7421875
47788971.84765625
19243461.96875
12825445.67578125
-14020291.0625
-41322815.546875
-59464429.369140625
-75040255.40234375
-80373514.35546875
-85834286.11523438
-79859565.76757812
-74059127.15429688
-58502334.455078125
-41162969.849609375
-14784826.1484375
11980871.560546875
19893349.826171875
49628421.470703125
66459314.705078125
58616329.52734375
45551831.5703125
19410124.08984375
18464840.21484375
813390.34765625
-30926432.564453125
-70779578.69140625
-78953521.75195312
-98328010.07226562
-81359405.515625
-96605239.828125
-78908180.19140625
-72600745.23046875
-31766725.841796875
-1244809.455078125
18581456.95703125
19295227.447265625
46659858.865234375
57247680.919921875
47159757.73828125
40665476.3515625
19882406.375
18694248.68359375
9429002.9453125
3119683.53515625
-56529177.578125
-121407372.04296875
-82639268.38867188
-157650499.68945312
-82274035.82226562
-120441591.86132812
-54460952.40234375
1675795.85546875
10744077.787109375
19558144.376953125
19509904.66796875
38688824.17578125
50658965.47265625
34263895.2578125
29140944.234375
13900497.0859375
14297173.576171875
12225810.84765625
10033055.56640625
31985471.19140625
-99170887.99414062
-212738601.47851562
-24120960.857421875
-213778979.62890625
-99437632.11523438
30660331.796875
13456773.140625
10947583.1875
16701021.75390625
12202996.14453125
28310407.5078125
34971406.740234375
17421354.55859375
15768266.46875
7673246.4296875
7344863.814453125
8405494.439453125
10982713.267578125
1759941.431640625
146385165.38867188
-242340285.67578125
-515448822.1953125
-245796694.18359375
147665222.78125
-734358.05078125
13496847.49609375
6304783.521484375
8605930.443359375
7738292.80078125
15497303.462890625
18075579.85546875
712979.13671875
744745.96875
-261035.427734375
-329977.4296875
-678896.912109375
-2028606.07421875
144149.306640625
125277.67578125
-2633763.390625
1474302.8828125
1250447.943359375
847215.439453125
640052.556640625
515186.876953125
-213408.931640625
-341238.3359375
-224299.546875
1709382.048828125
-1674225.6865234375
-18202308.02734375
-17278547.65625
-6626660.130859375
-8974789.125
-5695295.064453125
-9686316.5234375
-2895421.28515625
-147138825.31054688
243306035.43945312
519015013.6035156
243884105.9296875
-147818146.70117188
-2209867.087890625
-12336368.306640625
-6231690.486328125
-8198853.3427734375
-5845928.1240234375
-15612227.443359375
-18915631.967773438
-34335384.109375
-27967035.572265625
-15873397.849609375
-17196994.435546875
-10881288.666015625
-11340859.765625
-32881551.029296875
98635056.4765625
212988682.3359375
19849555.2890625
211474437.12304688
98881182.17773438
-31325396.30859375
-11276932.045898438
-11041349.275390625
-17496548.208007812
-13381190.129882812
-28805689.522460938
-35699236.3359375
-49499334.375
-40143996.748046875
-19425849.3359375
-20313712.248046875
-9561060.01171875
-2910926.955078125
57289279.314453125
122028123.74609375
84658660.3125
154259607.609375
86031550.8828125
121322523.91796875
54855277.216796875
-3636623.466796875
-8947992.696289062
-18167165.440429688
-17304295.674804688
-37845667.47265625
-51646462.78515625
-60846897.72265625
-47146235.087890625
-20024587.6640625
-19416844.166015625
641719.3046875
32857929.171875
70869649.96289062
78959218.8984375
97070857.97070312
79268891.33398438
98547852.921875
80339518.23925781
71467308.63476562
32338734.44140625
-586258.8046875
-18262890.228515625
-22618882.762695312
-46646416.0546875
-58619875.06542969
-64045368.712890625
-47415615.13671875
-20915696.4140625
-15468462.017578125
14543673.90625
43440092.607421875
59322818.7109375
76463992.53125
79707459.03515625
86828431.93164062
79572343.6953125
73078288.24023438
59748707.95019531
41059516.75390625
16422735.270507812
-14328137.534179688
-20033389.571289062
-49168862.61816406
-64591359.19140625
-62253434.712890625
-40746059.375
-15707240.388671875
-5689692.228515625
16662925.75390625
35523346.2109375
49138611.08203125
61385677.89453125
67872948.36523438
67171086.66992188
65768220.10839844
60738283.677734375
52658320.064453125
36834196.26074219
19663216.231445312
-5572962.5703125
-14859557.866210938
-43908448.123535156
-61387352.389160156
-55932509.822265625
-39175299.041015625
-14631933.751953125
-3413062.392578125
17716771.24609375
30147382.880859375
42073263.193359375
52947033.26171875
58204273.162109375
58304754.748046875
56568561.166015625
52424790.560546875
44300504.82421875
29236210.62109375
15115532.671875
-2979614.8173828125
-17032754.750976562
-37064209.70800781
-56664632.529296875
-31993741.146484375
-18928399.017578125
-6507618.03125
-362948.375
12420778.7890625
18383709.361328125
26322261.294921875
28853252.82421875
32336541.310546875
34847421.109375
32666238.216796875
31824091.375
26032635.073242188
21896620.404296875
12099270.920898438
2126791.9624023438
-5450038.827636719
-18357944.87939453
-32849482.17993164
-38946040.892578125
-33416458.48046875
-18902078.41796875
-3819499.12890625
18952313.955078125
39787125.05859375
55302858.041015625
66818974.978515625
75984872.43945312
77823915.8984375
76159473.65429688
67600652.34082031
56039633.57714844
39636003.0703125
20127261.528808594
-1560583.5112304688
-19458020.76953125
-35098691.13964844
-38003276.03979492
37717719.7890625
34081407.96875
21597684.48046875
2401322.2265625
-17941557.69921875
-36602161.46484375
-56031454.0546875
-67666710.21875
-76415147.8984375
-78908481.984375
-76918417.82421875
-66989289.97265625
-55380661.640625
-38028032.26171875
-19354902.37890625
3203093.232421875
21128444.169921875
33603931.927734375
36795891.37890625
33307299.62109375
19955796.21875
6353946.05078125
269042.87109375
-12263788.9609375
-19991554.6953125
-28586938.84765625
-30871309.578125
-33666101.5390625
-34597335.96484375
-34094985.2421875
-31464596.703125
-24330760.150390625
-18721837.88671875
-11820217.783203125
-406830.3359375
4794368.498046875
18866345.4765625
33393156.330078125
54997366.45703125
37986913.62109375
15256462.57421875
6623535.25
-15208567.69140625
-30091145.0234375
-43660314.69921875
-51808514.59375
-57188319.83203125
-61799322.451171875
-57121608.416015625
-53217950.314453125
-42678898.44921875
-32314420.75390625
-15732867.240234375
5658685.638671875
16442414.796875
38628734.5390625
59859250.125
62683437.27734375
43943200.6953125
16868850.3984375
6053123.66796875
-19273894.81640625
-36227233.73828125
-51651643.078125
-58714994.974609375
-67524993.20703125
-58363342.501953125
-68347335.29296875
-61408588.80859375
-50500389.8515625
-36447124.16796875
-18843650.8203125
3619121.646484375
15178946.087890625
42687670.638671875
62451943.361328125
64773827.47265625
47685770.171875
21061156.08203125
12667544.0546875
-16157408.34375
-41804134.3671875
-60381485.353515625
-73079373.61523438
-73509483.87890625
-114993108.69140625
-73202225.53125
-74175137.15625
-61551003.744140625
-41447954.81640625
-15143559.150390625
12940213.4453125
20892946.744140625
45941192.21484375
63070995.341796875
60480944.3203125
47441491.26953125
22443103.8203125
18419434.72265625
-756975.72265625
-32345018.359375
-73698384.60351562
-76418665.49609375
-111036651.95117188
18131687.935546875
-112668720.81835938
-76948199.27539062
-71405475.04492188
-32571588.763671875
1850851.978515625
19348623.21875
22013474.576171875
46478867.009765625
61577809.724609375
51580128.984375
38425452.66015625
17763763.31640625
19370163.0859375
10911192.07421875
994813.662109375
-52389853.228515625
-127281637.08398438
-39304221.841796875
-466777717.8046875
-39788227.11328125
-128447726.90234375
-54549222.5859375
2403810.244140625
8889174.68359375
18739116.974609375
18239328.6484375
39797003.46875
47312016.875
35695515.65625
27614366.78515625
14520298.2109375
16636517.03125
9117832.28125
13586980.107421875
25951227.482421875
-76817819.23046875
-359081920.9511719
922442246.2617188
-358222668.09375
-76488283.76367188
27559881.205078125
10828272.962890625
9847080.69140625
15123328.86328125
16749473.84375
28476104.138671875
35956240.4140625
18292167.6328125
14331554.84765625
7441040.1484375
9514238.30078125
6033429.203125
7776037.755859375
18583514.15625
86685282.8046875
88788352.32421875
-2846681411.9023438
93181059.10351562
84449122.24023438
20549908.630859375
5817833.634765625
7799667.63671875
8505006.259765625
6899304.1171875
15117651.55078125
17174260.388671875
-324410.9296875
-440322.9140625
599988.8359375
54155.734375
415292.73046875
2361203.904296875
197391.408203125
-354374.513671875
1756180.00390625
-1150283.994140625
-1711865.509765625
-879092.60546875
-202380.333984375
-791742.77734375
-542365.2109375
1643146.40625
97820.322265625
-1748875.978515625
1959885.5546875
-17981320.25
-13431513.6328125
-8014942.271484375
-8483094.73046875
-8776502.78515625
-9485842.58984375
-17456987.720703125
-84525697.83789062
-88986130.23242188
2843518716.7128906
-90011533.18359375
-83985465.1015625
-18102969.59375
-6740183.076171875
-7351284.5234375
-9529098.30078125
-9231668.571289062
-14979875.477539062
-16704971.2421875
-34927171.55078125
-29014768.8515625
-12146066.5078125
-14761219.21484375
-9554098.703125
-12687637.78125
-25946949.69921875
78787103.73828125
357960038.5917969
-919077593.5664062
359763018.9609375
77139179.9765625
-26807195.7109375
-12511677.594726562
-9687878.794921875
-13378784.69140625
-14474626.39453125
-28757433.248046875
-33379748.786132812
-48571146.60546875
-39469302.07421875
-18111005.63671875
-17286023.458984375
-10253346.25
-1094563.365234375
52170892.9375
125995753.93945312
38151714.603515625
469945547.0390625
36723042.66015625
127370058.65820312
54132318.47558594
-988241.7587890625
-11085933.956054688
-20319178.5546875
-20474603.34375
-40774574.49511719
-47716816.357421875
-58359903.060546875
-44882290.5390625
-22210214.517578125
-17763688.390625
-272965.0546875
30348313.8828125
72936669.54296875
76637302.37890625
112477735.91015625
-15452693.29296875
111305273.71875
75112461.18261719
73445137.49707031
31432182.219726562
395392.4189453125
-19276911.490234375
-18818310.361328125
-45150387.35058594
-60017256.78417969
-66221782.990234375
-48542260.185546875
-19074841.6328125
-10608394.494140625
14053114.35546875
40682635.041015625
60246979.20703125
72136169.46289062
73822477.640625
113196949.54492188
74162316.80273438
75040988.57421875
59332110.06933594
42293051.36230469
14092964.50390625
-11127091.432617188
-20946153.568359375
-47383315.37792969
-65439855.349609375
-62940540.45703125
-44713405.38671875
-15214992.1484375
-4342069.423828125
21713762.322265625
36035930.6640625
52496194.05859375
60362980.767578125
66629850.98046875
58911874.611328125
68496460.54882812
60977823.97558594
49756370.04199219
35201056.46777344
18618435.479492188
-4849648.779296875
-15843737.197265625
-41415900.0546875
-63157074.97607422
-58023853.775390625
-37420980.2890625
-15860611.818359375
-6181284.857421875
13190043.921875
30727558.83203125
44920893.265625
51634987.10546875
57116219.8671875
63752986.783203125
57686955.04394531
51689062.91894531
42830475.50488281
31193352.107421875
15315925.3828125
-6086834.6298828125
-13919898.938964844
-39807599.28515625
-58033058.071777344
-35492756.5859375
-20243391.189453125
-4859519.00390625
1877270.25390625
11692285.3828125
19267845.267578125
26636178.546875
32684312.11328125
34432848.740234375
32915757.7421875
34097368.06542969
30734374.114257812
26831240.749023438
17603087.3984375
11281197.608398438
-1026790.71875
-6175868.959472656
-21176322.46533203
-33878839.49584961
-35874795.44140625
-34835299.880859375
-22122916.4375
-1361127.560546875
19323454.169921875
37457611.673828125
54608860.021484375
69288110.125
77092594.48046875
79621592.77441406
75586112.109375
68921015.69726562
54711872.86230469
36565334.845703125
17495317.982421875
-4130140.60546875
-21358565.04296875
-32822335.127197266
-37690807.19042969
-10339157.5078125
-10944723.55078125
-10003041.890625
-29588831.36328125
-30100288.1796875
-28808087.046875
-45103177.1796875
-46207574.13671875
-44970211.48828125
-59974110.53515625
-60294864.37890625
-58000632.96875
-64783236.21484375
-66524441.69140625
-65576760.59375
-63444262.92578125
-64471163.02734375
-62984110.36328125
-53470382.88671875
-55876628.92578125
-56187414.97265625
-39147776.015625
-40989229.53515625
-41334065.01171875
-20201954.00390625
-21579613.73828125
-22172660.37109375
1153526.48046875
148167.69140625
-847132.0
20149487.01953125
21066414.8046875
21192675.86328125
38551075.015625
40194874.5234375
40338044.7421875
52807581.94140625
55114429.29296875
55313471.6796875
63610322.2578125
64857987.8671875
63607267.45703125
65780913.54296875
67160040.0546875
65875505.984375
60215624.0703125
60252568.44140625
57685061.19140625
44436906.5078125
45639735.38671875
44496344.61328125
28161454.4375
29554828.58984375
29143900.8828125
9863664.26953125
11045348.5703125
10690149.828125
33475678.025390625
34823756.453125
34705831.97265625
83057303.30664062
84626044.26367188
84542328.41210938
165118272.80078125
164892431.46484375
163642795.37109375
268819041.4394531
268297125.31640625
267732257.7578125
384015241.6464844
382668696.1191406
382426589.05078125
496766014.3515625
496505776.7910156
498450137.3515625
598164394.9394531
596180826.3027344
597312810.3652344
676026177.5957031
674193397.2285156
676177870.046875
726404925.4648438
723580902.2519531
724997448.7226562
743535044.5751953
740011613.0371094
740862762.7900391
724915509.2822266
722177733.1982422
723631632.5419922
675464942.2939453
673262398.4296875
674856510.921875
598029582.3857422
595053131.0263672
595170744.0986328
496634202.95996094
494960512.9160156
495443939.57714844
382715859.32666016
382545199.5708008
383459031.3588867
268561883.7055664
269219982.5107422
269860358.22314453
164664449.21533203
165059518.9091797
164421271.63476562
84189378.92114258
84583730.46704102
83323420.95385742
34859316.85180664
35065998.09326172
33810216.482666016
10289019.763061523
11168794.239746094
10511131.344482422
28190476.814208984
30086091.063720703
30183917.4921875
44144232.39111328
46702479.783691406
46929797.752441406
59117139.244628906
60180231.23876953
58628412.807128906
65816156.701171875
66702682.5390625
64910306.83203125
64359846.06738281
65883255.64355469
64934309.326171875
55906203.31542969
57072046.07421875
56175208.89550781
39734863.287109375
40222309.84472656
39197029.33886719
20804977.208007812
21215438.278320312
20842458.909179688
422217.572265625
182111.3330078125
-50926.7900390625
-21644341.158203125
-21233906.458984375
-20024474.294921875
-42103803.974609375
-41796675.890625
-40013172.25390625
-55990669.439453125
-55934893.865234375
-53787443.201171875
-62647538.265625
-64251048.673828125
-63339304.951171875
-65284601.701171875
-65763057.869140625
-63536323.50390625
-58215102.75390625
-60364262.3984375
-59896904.857421875
-46448122.591796875
-47278959.76171875
-45798138.4921875
-29319850.158203125
-31037434.033203125
-30982143.091796875
-11084227.05078125
-12482597.5234375
-12381425.939453125
-35828948.8359375
-35902411.30859375
-34534202.8984375
-84745397.8828125
-85182653.04296875
-83985447.0
-164326655.3125
-165355426.703125
-165360008.50390625
-268671722.609375
-268864512.796875
-269025244.671875
-384157650.65234375
-382985446.54296875
-382907961.578125
-496436107.734375
-495288386.5625
-496300250.46484375
-597725137.7070312
-596241145.6171875
-597884137.3632812
-675574835.703125
-673385586.953125
-674982220.7929688
-725125820.5429688
-722594208.90625
-724279531.9882812
-743006272.7265625
-739514543.828125
-740373689.8125
-725883784.4648438
-723035550.1015625
-724406198.1210938
-674324753.7851562
-672882172.8085938
-675219995.9414062
-596802297.2265625
-595160788.8789062
-596624087.8007812
-497736260.9765625
-495603577.109375
-495647244.44140625
-383876895.28125
-382518989.98828125
-382243204.2421875
-268107605.56640625
-268492204.19140625
-268829659.5390625
-166466676.765625
-166293256.28125
-165125567.9375
-84496011.08984375
-84925775.6015625
-83706276.90234375
-34377561.58203125
-35226044.890625
-34608923.9296875
25888097.72265625
21718891.91015625
25703037.80859375
20752297.796875
16300930.5390625
20787140.9921875
12239221.625
10106061.5078125
13247127.609375
2819275.76171875
2573635.06640625
2443179.3828125
-11007883.44921875
-7515968.13671875
-9849613.359375
-22008004.61328125
-15613654.41796875
-20523506.22265625
-31513850.984375
-23708816.1015625
-31933333.953125
-39165757.69140625
-29258814.03125
-38824407.15234375
-43563469.515625
-32986150.359375
-44008221.88671875
-45861532.015625
-34610581.11328125
-45703151.53515625
-43299768.44921875
-32969009.3125
-44242684.7734375
-39113124.953125
-29029503.18359375
-38392435.26953125
-31966740.90625
-23814409.38671875
-31676488.4296875
-21343489.703125
-15654065.69140625
-21250700.474609375
-9642547.4609375
-7110345.84765625
-10357361.6953125
2232005.763671875
2446059.548828125
2775710.6015625
12579803.81640625
10166003.65625
13044626.0390625
20704094.8515625
16144780.240234375
20491774.998046875
26405423.0703125
21782957.568359375
25294124.654296875
20681140.578125
16296913.74609375
20543133.2109375
7921154.6953125
4059033.83984375
8100746.9296875
2842552.02734375
2352991.3046875
3523725.671875
6710065.07421875
9492291.2890625
7325415.7890625
7047570.9296875
12986761.4609375
6511129.13671875
9285335.4921875
18583995.984375
8769959.6796875
11510238.3828125
22761323.96484375
9334204.8671875
11596827.4296875
26068478.2578125
11825128.390625
13023913.515625
28479882.69140625
12820902.43359375
14183492.33203125
29708586.2421875
13356057.90625
12917403.71875
28262788.4140625
12500876.17578125
11824289.470703125
26020398.373046875
11503794.11328125
9538352.873046875
22825929.146484375
11447459.990234375
8732325.61328125
18621496.326171875
9406296.853515625
6238186.556640625
12631763.458984375
6573741.015625
6772733.47265625
9304417.890625
6899481.857421875
4535806.962890625
2893836.529296875
2996457.36328125
8000548.5859375
3769012.16796875
7426429.08984375
20407885.75
16161354.61328125
20528409.546875
40876959.4609375
34227478.33203125
38999376.484375
23428547.86328125
18276831.203125
23176420.6171875
14276283.48046875
13559805.59765625
13893305.8359375
15579032.71875
20381273.71875
17361282.109375
10756663.17578125
19929837.578125
11210731.0625
10043234.65625
23352406.40625
9888613.5625
7313275.43359375
24278540.0390625
7180357.3984375
6259956.72265625
25972504.0
6490152.40625
5309503.2578125
26597965.2578125
5630964.33203125
3543253.525390625
24950779.505859375
3026592.03125
5363786.75390625
26632114.814453125
5667969.1328125
6705938.10546875
25811871.744140625
5719016.302734375
7670242.044921875
24791399.98046875
7897002.775390625
10490506.18359375
22927600.58203125
8585485.984375
11304510.521484375
20114083.423828125
11047428.177734375
16240612.298828125
20478931.275390625
16926989.56640625
13133404.49609375
13186114.8046875
14292129.5703125
23318921.3984375
18392079.130859375
23538202.76171875
39075499.2890625
34586260.037109375
41551403.669921875
43656620.9921875
37234308.98828125
43633934.92578125
25520548.1640625
20080439.9375
26269315.171875
13337601.15234375
13470013.13671875
14645562.5703125
18274766.08203125
23434526.09375
19324985.66015625
13567819.57421875
24195467.57421875
13178078.76171875
11750543.54296875
28622195.85546875
12516417.63671875
11630101.2421875
32307458.53515625
11078705.171875
10007191.73046875
34998184.1796875
11926887.498046875
9995566.98046875
35536923.216796875
9533598.57421875
13417365.556640625
41714775.076171875
17612628.53125
9692352.375
35094869.466796875
8919925.64453125
10733515.72265625
34624283.51171875
10424380.078125
10812818.62890625
32133990.728515625
11556815.314453125
12973777.90625
29294865.599609375
12719217.19140625
12843078.26171875
23866589.599609375
13232003.685546875
19287794.787109375
23315402.458984375
18072004.71484375
14937507.388671875
13938723.388671875
14034136.69140625
25544856.962890625
19692503.478515625
25462259.42578125
43762897.59765625
37228824.1796875
43518857.78515625
45225220.7734375
38560611.7578125
45133077.9609375
28799205.64453125
22377264.359375
28723500.41015625
16356111.984375
15669468.4765625
17243074.921875
24719506.95703125
28672942.98828125
24634625.23828125
18136512.32421875
28584392.3671875
17089924.79296875
13075904.421875
31259923.9921875
12848644.6171875
12658279.376953125
36721120.98828125
12221184.728515625
9573993.615234375
38272454.087890625
10530486.572265625
11635704.197265625
43611891.404296875
15023040.212890625
295239.83203125
24417678.5234375
-14182608.09765625
12068096.318359375
43992925.833984375
15367977.263671875
10066242.919921875
38268507.5390625
10003357.533203125
13115949.361328125
36659721.9609375
11619422.1875
13249455.078125
31474312.54296875
13125782.619140625
17812492.689453125
28691918.73828125
17637766.0859375
24166717.091796875
28400484.52734375
24635538.333984375
16760715.642578125
15862482.166015625
17248421.25
29701428.80859375
22409921.107421875
27894028.123046875
45937990.236328125
38491131.8828125
44272175.1015625
40724333.58203125
34994151.01171875
41625250.64453125
27221666.234375
21347492.609375
28134942.0234375
15135208.90234375
14175540.25
16616554.6328125
26183689.07421875
28750973.94140625
26152787.13671875
26776224.30859375
35229672.25
26006732.8046875
20020615.919921875
36895016.46875
19334964.25
7058225.244140625
32720432.123046875
5629591.796875
17224390.15625
49919302.041015625
18494722.91015625
3473216.84375
35554801.796875
-2828021.85546875
46147375.3359375
105171259.04296875
95506130.86328125
4355299.181640625
35618076.23828125
-3592771.3203125
17168628.671875
49733905.990234375
18151046.3828125
6285443.87890625
32959747.474609375
6879579.6484375
19415248.748046875
36463238.19921875
19025340.365234375
25863203.376953125
35452374.2421875
27391369.75
26403612.1015625
29134674.99609375
26770513.0078125
14920102.36328125
13876257.255859375
16246546.107421875
27790407.439453125
21410729.576171875
27697248.30078125
39986916.65234375
34880567.5703125
42124326.48828125
32892378.25390625
28807915.89453125
35073829.88671875
23681118.37890625
17603522.79296875
22572146.3046875
13683653.25
11251760.2578125
12631883.03125
22546526.36328125
23938122.53515625
22878803.1640625
26773288.150390625
32827147.74609375
27513309.578125
38846219.251953125
50479942.279296875
37802838.1875
14987221.775390625
39666065.80078125
17041024.5234375
-14226421.771484375
20798040.98046875
-17148153.412109375
47851406.23828125
98754193.22851562
69414402.25195312
-93848119.45507812
-122719084.83984375
-246906519.26367188
48006724.30078125
98706789.44726562
69158258.88671875
-13793808.755859375
20717610.759765625
-17751593.212890625
15965055.98828125
39599528.0390625
15940678.0703125
38107524.2265625
50441605.974609375
38475319.826171875
27262297.1328125
32494101.9609375
26347827.52734375
22976151.26171875
23985745.87890625
22578839.39453125
13482998.4609375
11249517.05078125
12855064.18359375
22564735.34375
17318751.6796875
23109579.41796875
34463543.05859375
28473202.740234375
32808051.6328125
23586610.15625
20230623.875
24298886.56640625
16641865.75
12194354.73828125
15893630.234375
9219064.8125
7741015.38671875
9519273.703125
15929970.818359375
16843189.916015625
17075829.826171875
20605556.251953125
22908545.330078125
19077195.962890625
30445645.345703125
37856841.275390625
32204908.2109375
69120960.49804688
80556726.06445312
66113889.39453125
2066825.853515625
39804615.474609375
13294765.37890625
-85295377.84375
-66297388.03125
-157787831.88867188
328097874.640625
599527474.4335938
795689637.125
-85803079.13476562
-66334681.083984375
-157381534.03320312
1988620.802734375
39894665.919921875
13523509.513671875
68503986.45703125
80661333.734375
66958870.091796875
32230029.556640625
38104428.248046875
30958619.70703125
19859029.41796875
22668062.435546875
19325632.1875
17257594.22265625
17182731.7578125
16480644.431640625
8445323.353515625
7908611.708984375
10677604.697265625
16230507.08203125
12186490.880859375
16300770.7265625
24131163.205078125
20632915.02734375
24600109.486328125
11900426.625
10192881.97265625
12342656.2890625
8951558.16796875
6433132.8828125
8252203.66796875
4850596.890625
3863200.203125
4734744.625
7949079.73828125
8493108.6875
9010973.783203125
11449625.46484375
12082843.732421875
10280764.728515625
18251530.841796875
20148352.9765625
16648806.17578125
20169646.55078125
29111798.67578125
28565749.623046875
159211036.71679688
153501482.83203125
129320192.42578125
-5461116.693359375
129100934.99414062
160113729.13671875
-690032603.2421875
-1120330541.6796875
-1833518632.8613281
-6943420.15234375
129551665.90234375
162506460.96289062
159672994.97070312
153120729.58984375
128047601.9921875
18841199.189453125
28889847.615234375
29429124.279296875
19609526.7109375
20398163.861328125
15804611.478515625
10348626.36328125
11950157.994140625
11098878.8515625
8584162.73828125
8553943.6328125
8530205.935546875
4766261.548828125
3627678.787109375
4346678.396484375
8933620.427734375
6665914.22265625
8748396.166015625
12139559.13671875
9994377.564453125
11689901.49609375
391994.6484375
124495.67578125
-107734.3515625
424267.6875
123039.66015625
-163570.515625
-40003.79296875
167851.56640625
376698.169921875
-190009.845703125
-87878.046875
-10996.248046875
-390713.66015625
-118171.5546875
147469.958984375
-929544.91015625
149424.68359375
1237002.064453125
128918.328125
127078.28125
147294.873046875
18167.71875
-100837.59375
-226792.5390625
-1454280.826171875
-358578.08203125
696520.4765625
805484.6640625
165478.265625
-476210.0546875
539143.533203125
-171998.990234375
-912852.267578125
404617.984375
-18474.380859375
-440333.646484375
395955.689453125
175778.802734375
-22590.64453125
197802.349609375
-110747.376953125
-433162.833984375
-256947.04296875
-322746.87109375
-416428.921875
64077.994140625
515684.181640625
1035706.421875
-141666.626953125
-57617.08203125
23539.5546875
836367.896484375
-9630.298828125
-860834.939453125
-758715.7587890625
135620.6171875
1033835.263671875
-12392040.01171875
-10417551.34375
-12305764.7578125
-9790539.6875
-6661639.93359375
-7908913.16015625
-4225616.890625
-3647492.611328125
-4917931.79296875
-8863854.6953125
-8749038.494140625
-8629921.638671875
-10117646.826171875
-12096108.896484375
-11640678.17578125
-17687167.93359375
-20317221.46875
-17570085.12890625
-20738345.796875
-29130230.779296875
-28027018.701171875
-159348435.31054688
-152965837.8515625
-128027118.24414062
6049144.990234375
-128833082.03710938
-160107482.87890625
691854094.328125
1120482614.3417969
1832026327.6347656
6241380.09765625
-129022569.6796875
-160696010.765625
-159711219.19726562
-153024460.36328125
-127787062.71875
-20411399.474609375
-29139385.408203125
-28357594.009765625
-18987206.79296875
-20287010.228515625
-16200629.900390625
-10210754.39453125
-11723067.6015625
-10765496.544921875
-8538440.010742188
-8864406.723632812
-9196013.2890625
-3935734.1064453125
-3831401.2353515625
-5592791.2265625
-8998380.588867188
-6670686.2802734375
-8685090.999023438
-12651281.345703125
-10200198.182617188
-11579402.498046875
-23481349.9140625
-19933132.828125
-23782760.8671875
-16056202.501953125
-12227146.037109375
-16585197.068359375
-10081916.65625
-7544262.990234375
-8260847.12890625
-17590283.626953125
-17332401.3203125
-16405603.314453125
-19775934.80859375
-22543894.453125
-19132354.8046875
-31141745.171875
-38004879.119140625
-31833368.669921875
-69745117.45507812
-80947158.94335938
-66298804.314453125
-2095959.759765625
-39259504.677734375
-12088805.228515625
85200245.3125
65862163.189453125
157011942.04492188
-330407833.5136719
-599967880.6855469
-794267222.9609375
84525634.63867188
66003341.876953125
157970647.18164062
-2236266.603515625
-39840875.33984375
-13171623.171875
-68842400.9453125
-80657050.3828125
-66592019.8359375
-31049285.288085938
-37881887.990234375
-31681406.98828125
-19908691.907226562
-22661145.032226562
-19249115.171875
-17500476.499023438
-16838059.71484375
-15482785.658203125
-8853759.0234375
-7500241.5478515625
-9382066.31640625
-16674030.952148438
-12583692.278320312
-16647362.377929688
-24149848.759765625
-19900980.044921875
-23020196.030273438
-33888865.88671875
-28498729.23046875
-33446162.046875
-23484759.845703125
-17780075.439453125
-23164138.1484375
-13410785.234375
-11182631.3203125
-12773714.794921875
-23253561.189453125
-23749081.384765625
-21771580.4296875
-26780881.453125
-32660359.462890625
-27123824.595703125
-38758336.544921875
-50482314.087890625
-37866746.568359375
-14544523.671875
-39486717.05859375
-17079097.375
14368780.4375
-21121741.73046875
16353781.490234375
-46693132.431640625
-98398721.65039062
-69822421.359375
92109688.25390625
122573115.51953125
248370184.28125
-46040964.2109375
-98440634.52539062
-70551384.171875
14154842.04296875
-20841224.529296875
17155957.20703125
-15792207.340820312
-39642348.64160156
-16183357.690429688
-39191396.34277344
-50683664.69628906
-37891030.107421875
-26459702.965820312
-32665312.571289062
-27507489.379882812
-22371728.505859375
-24117268.727539062
-23427682.307617188
-12469383.331054688
-11352800.579101562
-14030817.548828125
-22206372.432617188
-17415293.671875
-23646493.856445312
-35242529.31542969
-29093021.534179688
-33307487.220703125
-41835208.0390625
-35045193.1640625
-40618544.091796875
-27811716.310546875
-20948251.4375
-26704212.111328125
-15529031.9609375
-14369296.2265625
-16608689.998046875
-26691020.466796875
-28858232.35546875
-25880581.783203125
-25974410.931640625
-35037451.837890625
-26413751.3671875
-19107172.3046875
-36948148.37109375
-20344360.228515625
-7181512.771484375
-33045677.806640625
-6162314.818359375
-17185047.296875
-49827912.865234375
-18340902.2578125
-4073922.49609375
-35497408.44921875
3561032.25
-47088861.171875
-104951201.16796875
-94087135.62304688
-3315327.763671875
-35396313.470703125
3030513.146484375
-16534461.5703125
-49891519.81152344
-19122998.873046875
-6666205.7587890625
-32578092.102539062
-5699120.2138671875
-19253274.275390625
-36720648.42480469
-19715525.958984375
-26658956.294921875
-35238257.54003906
-26170670.470703125
-26203026.541992188
-29017428.987304688
-26697310.413085938
-16652102.359375
-14033901.462890625
-14782981.64453125
-27547556.884765625
-20887635.325195312
-26819313.99609375
-40665638.12890625
-34851045.947265625
-41353670.86816406
-44929104.30859375
-38842432.83203125
-45992331.744140625
-28708221.595703125
-22589785.08984375
-29254313.138671875
-17099551.197265625
-15523837.48046875
-16203136.861328125
-26108554.31640625
-28902146.681640625
-23735551.5234375
-18190017.1328125
-29253922.984375
-18436680.73828125
-11808165.140625
-30795441.35546875
-13170361.87890625
-12762805.25
-36804291.0390625
-12310772.046875
-8773710.884765625
-38056065.962890625
-10885840.158203125
-12043870.20703125
-43778549.32421875
-14953369.80078125
34917.888671875
-24761930.46484375
13135112.3125
-12049417.345703125
-43670314.080078125
-14734298.59375
-10547552.109375
-38279030.287109375
-9566792.197265625
-12678570.680664062
-37039119.80859375
-12869558.055664062
-13159514.890625
-31161217.139648438
-12560431.581054688
-16881298.409179688
-28440688.786132812
-18045020.703125
-25419389.677734375
-28616580.65234375
-23840814.291015625
-16870124.954101562
-15956639.810546875
-17328868.435546875
-29692647.922851562
-22856813.98046875
-28819467.03125
-45131677.265625
-38721475.283203125
-45549652.77783203
-43420464.94921875
-37187985.400390625
-43748797.951171875
-24524622.86328125
-19705202.896484375
-26477715.55859375
-14026662.15234375
-13382422.83984375
-13787900.537109375
-19142619.923828125
-23444230.99609375
-18492391.80859375
-14334056.6171875
-23927544.447265625
-11856903.947265625
-13308499.921875
-29615019.52734375
-13063412.318359375
-12354945.693359375
-32457353.001953125
-10719638.923828125
-10522238.603515625
-34806245.1484375
-11020109.7265625
-9350616.4765625
-35439772.4453125
-9938511.8828125
-13077159.39453125
-41354336.09375
-17188558.81640625
-10371730.337890625
-35480299.8828125
-9038114.068359375
-10844787.54296875
-34820167.47167969
-10726472.97265625
-10549433.587890625
-32215886.450195312
-11967460.46484375
-12625660.122070312
-29480034.403320312
-13424404.997070312
-12892304.962890625
-23983687.846679688
-13406759.53515625
-19190377.928710938
-23635731.677734375
-18829605.270507812
-13566551.371582031
-13290000.741210938
-14054987.610351562
-26025254.392089844
-19607589.491210938
-24796614.120117188
-42818962.936035156
-36858343.73144531
-43693050.677734375
-39502503.474609375
-34307829.50390625
-40528981.75
-23822467.876953125
-18368796.96875
-22948822.486328125
-13453284.376953125
-13242803.345703125
-14044867.173828125
-15772906.6171875
-20356052.11328125
-17127434.556640625
-10077200.927734375
-20126801.0
-12301038.59765625
-9619643.9609375
-22862960.501953125
-9327085.892578125
-7950366.439453125
-24285286.685546875
-6564941.390625
-5812718.712890625
-25744261.251953125
-6470453.85546875
-5070606.84765625
-26469702.98046875
-5602324.662109375
-4901826.876953125
-25218267.67578125
-2203676.16796875
-6069346.5048828125
-26909178.569335938
-5529424.3427734375
-6149940.5703125
-25923091.778320312
-6518832.689453125
-6861326.9931640625
-24258111.592773438
-7579023.322265625
-10200411.913085938
-23110335.685546875
-9228992.659179688
-11472733.264648438
-20356418.974609375
-11368664.137695312
-15455608.296386719
-20128217.149902344
-16971022.615722656
-14709013.83203125
-13415168.809082031
-13162735.731933594
-22796322.130859375
-18436929.8515625
-24146416.095703125
-39975844.13574219
-34579344.53076172
-40648539.12792969
-20022868.96875
-16559896.869140625
-21745212.896484375
-7522508.201171875
-3894594.412109375
-8161633.318359375
-3636212.611328125
-2392970.92578125
-2805734.3828125
-7233462.4765625
-9170957.91015625
-6123989.716796875
-6290816.7109375
-12676517.267578125
-6638595.697265625
-9804199.109375
-19112341.619140625
-9364238.498046875
-10335299.537109375
-22591791.0
-10200298.794921875
-12885860.802734375
-26281406.529296875
-11021371.171875
-13500154.83203125
-28544508.091796875
-12483224.169921875
-13205148.689453125
-29643472.61328125
-14174733.052734375
-13344175.313476562
-28540113.188476562
-12633832.811523438
-11274763.702148438
-25897342.36328125
-11800570.98828125
-10536175.015625
-22664882.947265625
-10132258.426757812
-7716844.83984375
-18334354.985351562
-9821838.969726562
-6632613.0673828125
-13029661.431640625
-7010065.80859375
-6073616.870605469
-9313302.44140625
-7601454.8583984375
-3133447.1538085938
-2465719.4326171875
-3482974.2905273438
-7301849.884277344
-4038641.0439453125
-8688678.887695312
-20286830.867919922
-16223794.26953125
-20786885.025878906
-26100350.72265625
-21286633.24609375
-24596473.453125
-20513029.287109375
-16396665.94921875
-21213271.326171875
-11920179.23828125
-10077271.578125
-13497736.71484375
-3068876.294921875
-2410655.72265625
-1858102.216796875
10328366.251953125
7502076.12890625
10513457.83203125
22290869.583984375
16043243.58984375
21136959.998046875
31349211.40234375
23198442.9453125
31004491.326171875
38447140.953125
29314747.78125
39650287.314453125
43998076.216796875
33433468.0078125
44532989.71875
44996941.017578125
34267745.931640625
45881091.48925781
43839489.0859375
32900087.879882812
43557854.68457031
38889567.75292969
29475871.607421875
39553473.23535156
31872478.95703125
23564671.829101562
31240925.03515625
21988694.821289062
15592019.715820312
20501022.241210938
10805211.295410156
7273026.885253906
9529478.145019531
-2034025.3715820312
-2587672.76171875
-3285917.4399414062
-12099966.81640625
-9918068.242675781
-13026714.442871094
-21254997.21850586
-16224664.348876953
-20130541.463378906
-25831057.0736084
-21683077.946166992
-25678988.969726562
SCALARS stress12 float
LOOKUP_TABLE default
-3532144.0767211914
3431554.2108154297
-3444619.601999283
3341281.662475586
3509545.1225585938
-3536308.837585449
3412518.602628708
-3418874.8776245117
-4493109.0665893555
-7589620.365112305
-10703967.89050293
-12643057.690612793
-13265045.28338623
-12490347.79699707
-10721752.36730957
-7682379.376220703
-4054895.6400146484
12094.353149414062
3880832.9822387695
7603595.880310059
10612241.09362793
12337582.158081055
13195284.165039062
12579820.718811035
10550747.461730957
7558191.505615234
4376830.41204834
4434484.482666016
7511082.320861816
10753046.913513184
12687854.466827393
13261454.610839844
12571774.746154785
10467015.85647583
7611105.147247314
4058405.288116455
-19730.313537597656
-4046923.665649414
-7673771.624511719
-10585416.275161743
-12516859.601455688
-13189365.037826538
-12535338.397003174
-10599620.185691833
-7464715.913822174
-4335706.596250534
-4313967.474531174
-7588192.135139465
-10651595.607460022
-12652400.00265503
-13266200.590621948
-12459191.580917358
-10572847.993118286
-7631514.764099121
-3937227.1672668457
-36877.604248046875
4014738.9261779785
7600167.405670166
10539479.870513916
12513397.210754395
13321364.321594238
12640409.341461182
10583300.660827637
7536991.668457031
4484487.433044434
4359405.349182129
7512344.676208496
10601829.362609863
12715137.389953613
13332441.15802002
12550206.826293945
10538533.717651367
7616943.546203613
4013945.005554199
111912.5736694336
-3949660.165710449
-7558184.087890625
-10583617.606872559
-12492694.186279297
-13258298.591064453
-12521876.971496582
-10532383.013183594
-7574613.33795166
-4427761.760314941
4479949.961608887
7539793.160217285
10658371.981018066
12670123.977416992
13287634.484802246
12455159.026184082
10628988.80078125
7612987.730834961
4070815.4471435547
-41997.596435546875
-3913309.211364746
-7555043.483093262
-10565833.274963379
-12409116.88671875
-13224096.937133789
-12540415.966247559
-10532026.511779785
-7539498.344482422
-4350066.9705200195
-4460318.336791992
-7589783.550231934
-10723754.093811035
-12703748.775482178
-13213870.544769287
-12565526.449005127
-10476155.719970703
-7657629.181427002
-4046392.7003479004
23760.938690185547
3986782.263153076
7685458.011154175
10568995.30303955
12441808.920196533
13203886.769088745
12553531.594352722
10557819.332267761
7504519.260879517
4300418.138097763
4387015.531339645
7549646.685504913
10644060.09941864
12589945.92287445
13256200.523498535
12471505.082717896
10568637.41041565
7638826.061386108
3897538.5039978027
6484.857025146484
-3927266.0444335938
-7602368.667907715
-10512310.12045288
-12481607.003509521
-13246061.157958984
-12532816.53604126
-10591719.538208008
-7476979.362976074
-4457557.364624023
-4400586.9509887695
-7529716.417053223
-10554531.707519531
-12644257.965576172
-13298056.479309082
-12492155.28100586
-10522934.405151367
-7628043.890563965
-3941347.839904785
-85673.13555908203
3951248.4067382812
7536233.619750977
10515667.802307129
12438155.551391602
13207093.130187988
12461792.936828613
10482109.066711426
7577017.470947266
4400602.541748047
-1760970.2617797852
-11206.384765625
1738514.0571289062
1679789.517150879
-51280.06707763672
-1782916.310913086
-1719849.6367359161
-15929.955931663513
1687928.8881673813
1641679.4209594727
-37673.25115966797
-1717598.3739013672
-7455683.124755859
-13693338.855651855
-19666064.439575195
-23376843.288879395
-24459103.1149292
-23013162.515686035
-19274724.20440674
-13845811.559326172
-7221635.817626953
-53291.17999267578
7208245.916259766
13868734.942565918
19339410.0680542
22924563.07672119
24552199.41821289
23354514.991027832
19679350.686645508
13563659.740783691
7421539.413513184
-13739572.333496094
-23960223.440551758
-33601979.26287842
-39545449.941223145
-41275898.2310791
-38847384.10638428
-32556775.457885742
-23349867.298339844
-12156957.894897461
-55076.73486328125
12126644.489013672
23351066.429382324
32534757.297424316
38818121.053100586
41256461.65209961
39434803.50933838
33653643.09692383
23926975.06854248
13748510.874328613
-19667472.38079834
-33567104.372924805
-46854156.04962158
-55203418.165527344
-58126521.567993164
-55011180.453063965
-46426424.04522705
-33446548.32873535
-17370344.346313477
20909.396362304688
17462371.903137207
33511112.67034912
46409789.82122803
55014667.03057861
58061066.11468506
55241768.67858887
46861998.28192139
33611282.23352051
19640194.220703125
-23347988.7946167
-39538235.8895874
-55159893.064086914
-65783321.747680664
-70368269.60687256
-67811225.2088623
-57968271.74487305
-42162621.5456543
-22187066.625
87593.6400756836
22177740.822387695
42039403.44842529
57996148.16229248
67786981.72338867
70367335.96051025
65878395.39407349
55145151.03552246
39553278.96505737
23376407.36065674
-24474458.616455078
-41340846.24243164
-58111467.701660156
-70299912.10797119
-77358483.97137451
-76852852.05340576
-67680371.86767578
-50080241.90209961
-26475276.790161133
43110.036865234375
26489035.14666748
50156214.62799072
67647559.21029663
76905456.63534546
77318339.59872437
70338213.55453491
58020671.063812256
41324381.17993164
24408964.659088135
-22994889.049865723
-38868491.619384766
-55033834.939086914
-67786696.4272461
-76847534.22723389
-80349937.94299316
-74821145.86950684
-57819584.70776367
-31533747.54522705
108596.11999511719
31485073.24951172
57789007.206604004
74792721.09490967
80294070.79144287
76957560.0701294
67778693.72659302
55009710.52307129
38795598.55029297
23081476.91052246
-19281661.132995605
-32495373.34564209
-46455610.53405762
-57961364.06854248
-67682619.1430664
-74839024.50927734
-76064648.86914062
-65318028.05560303
-37285143.70367432
-420.1631164550781
37287475.30532837
65380943.969329834
76001392.22158813
74747704.01293945
67696114.7401123
57942933.33670044
46394857.69894409
32541268.59942627
19258301.09335327
-13818802.956970215
-23359410.896972656
-33416840.54510498
-42075678.98400879
-50158190.55163574
-57821571.2041626
-65245586.98840332
-65169955.401916504
-48406896.7260437
38360.395935058594
48385519.98852539
65220523.90332031
65372308.00790405
57829430.181640625
50056150.594329834
42089078.21524048
33454457.631378174
23287714.77786255
13885978.852935791
-7216092.364196777
-12187826.24041748
-17407400.838745117
-22049839.96496582
-26471972.659423828
-31433192.98175049
-37350459.98510742
-48447687.13635254
-35698335.54159546
26516.23178100586
35754176.92541504
48477934.67477417
37278481.141052246
31444683.836639404
26456615.67263794
22185364.76989746
17521845.011138916
12188479.839660645
7132386.665893555
-60728.08984375
-31260.01641845703
-44613.39660644531
2884.637451171875
-45822.130310058594
25720.992309570312
45622.714935302734
20344.717712402344
-14860.945068359375
34152.012786865234
-32971.305236816406
-62299.77737426758
-81646.63662719727
11208.582763671875
42573.20446777344
-6753.780853271484
-5510.815979003906
-36694.47085571289
4211.565948486328
7237736.146850586
12075536.383850098
17529765.88031006
22136775.93548584
26511977.692199707
31431102.75640869
37226444.22442627
48393184.73184204
35783822.24838257
16234.344329833984
-35703916.66455078
-48386614.842926025
-37229759.4977417
-31362696.470611572
-26490728.528503418
-22118700.3560791
-17485737.367889404
-12160278.710235596
-7160346.923583984
13777959.586853027
23246481.95526123
33478774.99053955
42038135.18609619
50097004.79663086
57817806.65444946
65330834.180389404
65258260.078430176
48493322.06680298
-36002.625579833984
-48377675.117889404
-65193476.44519043
-65274740.15042114
-57776539.41555786
-50093055.76019287
-42104193.666259766
-33540281.955352783
-23325777.428756714
-13798237.465713501
19205479.86340332
32500274.169799805
46392536.3460083
57922241.685546875
67616720.293396
74904567.8208313
76002357.95718384
65341130.96838379
37318845.77798462
46709.380767822266
-37294478.041656494
-65381884.87710571
-76027812.57025146
-74847782.50787354
-67660429.3409729
-57933371.77416992
-46399763.154541016
-32585759.795913696
-19204182.232818604
22990553.405090332
38772794.41925049
55031816.9241333
67726499.98608398
76897284.16555786
80395448.06900024
74762416.66760254
57831266.291259766
31483187.296447754
70624.40008544922
-31507992.046783447
-57864823.02682495
-74845906.81430054
-80347042.02212524
-76937269.83216858
-67871705.83857727
-55083162.76785278
-38757796.88348389
-22975597.729171753
24483650.45373535
41211982.373291016
58090888.330444336
70427311.34552002
77292763.1953125
76800756.1635437
67723819.95202637
50080145.72705078
26464397.13470459
70585.68780517578
-26517938.210266113
-50061058.535461426
-67773771.5475769
-76904441.00561523
-77321162.95414734
-70336323.45579529
-58039846.06535339
-41281632.72174072
-24476234.92237854
23276448.492736816
39494789.668151855
55225112.16296387
65780089.14385986
70395489.08258057
67747993.6140747
57947389.9934082
42096405.356536865
22066276.97705078
-3512.8707580566406
-22100050.505126953
-42101511.94873047
-57964508.07247925
-67668661.1517334
-70344205.50798035
-65778689.87573242
-55201782.03858948
-39600750.137283325
-23376565.350738525
19753400.226623535
33629227.39489746
46880516.1262207
55111307.71539307
58137818.803100586
55012690.77636719
46399214.78466797
33555054.43829346
17549324.68572998
-14642.498321533203
-17503282.003082275
-33459883.807739258
-46367260.87550354
-55016956.00630188
-58072283.34234619
-55246941.84971619
-46935400.63065338
-33641380.47013855
-19654809.417510986
13655852.911132812
23986623.78515625
33567981.43121338
39545441.790771484
41300544.42550659
38739842.58010864
32576082.000305176
23298535.810180664
12148286.467407227
-29318.33364868164
-12170342.31237793
-23285948.870376587
-32571664.279907227
-38800083.08164978
-41258987.77410889
-39464616.51712036
-33580694.625953674
-23946368.182403564
-13729156.673969269
7504955.515625
13698293.598815918
19612147.756713867
23397733.67300415
24497787.214172363
22932382.022613525
19305968.064971924
13791451.124328613
7191198.49105835
-33911.96520996094
-7213757.072845459
-13766985.099761963
-19338069.497161865
-22968140.7895813
-24512786.69456482
-23426035.41014099
-19699179.210838318
-13739298.637744904
-7397123.583618164
7425611.926574707
13672140.496459961
19657514.60925293
23373680.67718506
24446914.829467773
22970087.76727295
19243481.023254395
13806982.228393555
7222863.284423828
64305.229064941406
-7197825.913818359
-13851327.309692383
-19307626.16442871
-22889827.231811523
-24516585.884643555
-23339415.55444336
-19666059.441345215
-13557125.02508545
-7409068.870178223
13739568.21850586
23954548.673950195
33589469.188964844
39509427.10064697
41235154.97393799
38803005.343688965
32542372.404174805
23361589.73010254
12136065.85534668
21610.630615234375
-12101428.738891602
-23330934.376098633
-32494115.343200684
-38803335.8291626
-41200405.289001465
-39437612.56378174
-33596376.36883545
-23904286.150878906
-13738506.442199707
19631942.260742188
33563958.3894043
46803843.16546631
55189780.09136963
58085202.26147461
54948618.24865723
46382959.621154785
33385268.610351562
17368951.773254395
-27152.524047851562
-17424110.42602539
-33489263.610168457
-46358019.92266846
-54975984.08691406
-58040610.59161377
-55206657.70245361
-46859217.60253906
-33578281.883239746
-19631140.596801758
23338294.98638916
39510957.99456787
55133857.27630615
65754399.919433594
70302948.68835449
67755214.08679199
57924116.90124512
42099766.35015869
22146667.39038086
-93334.10626220703
-22118911.64465332
-41962874.83392334
-57943808.20965576
-67746233.85345459
-70314938.58569336
-65796333.81063843
-55127473.89303589
-39512747.38574219
-23368031.909057617
24446785.865600586
41303487.3873291
58057047.52331543
70253516.57684326
77307164.7866211
76776652.57385254
67573445.58758545
49999238.73260498
26408083.500061035
-43758.886779785156
-26449646.00061035
-50044626.6416626
-67528889.1020813
-76836395.77856445
-77232819.86566162
-70312412.75131226
-57940396.676086426
-41304281.43493652
-24401277.852111816
22996317.239379883
38817278.515319824
55003811.182006836
67703676.54522705
76781131.52941895
80232244.7944336
74715045.98101807
57640187.334350586
31445323.10888672
-108522.02575683594
-31399105.036865234
-57650130.227874756
-74625297.88449097
-80201491.09796143
-76887631.96789551
-67715821.84991455
-54963610.7628479
-38745620.59591675
-23048272.70083618
19276495.5657959
32464502.78161621
46400846.55523682
57889943.89544678
67590040.45684814
74720155.15515137
75871869.78540039
65090912.5111084
36938586.89172363
25090.052001953125
-36924440.4743042
-65117579.812805176
-75801880.00518799
-74626890.278656
-67601108.03033447
-57899756.38909912
-46375347.47451782
-32505772.497558594
-19238944.701660156
13784574.634887695
23334749.579833984
33427640.327148438
42008193.58416748
50061591.27307129
57674057.76361084
64979905.38006592
64633709.22753906
48098245.82824707
-31935.097106933594
-48105068.774505615
-64707683.16894531
-65124021.896972656
-57640696.96084595
-49972824.996917725
-42027926.415130615
-33456293.40725708
-23278131.465820312
-13825117.012878418
7211834.587646484
12161026.307739258
17387162.617248535
22029774.628051758
26399401.174682617
31340688.804382324
37040211.91674805
48106323.167541504
32503279.841186523
-50150.32604980469
-32552359.19152832
-48131728.64501953
-36947296.86791992
-31366421.232452393
-26393222.753875732
-22130708.994354248
-17499640.90878296
-12189805.382476807
-7140849.589508057
74658.8193359375
7425.755920410156
24046.259521484375
19034.28662109375
41586.805236816406
-18949.81085205078
-55834.369232177734
-15399.238037109375
-4093.075958251953
-21875.446502685547
41090.50955200195
56221.45169067383
56754.156646728516
-14382.44125366211
-30937.26318359375
-1878.0784912109375
16235.15853881836
44401.66027832031
5897.732177734375
-7219444.630126953
-12052738.68383789
-17507280.094848633
-22099248.434936523
-26453261.732421875
-31311064.268737793
-36910082.596710205
-48062880.8114624
-32580074.100982666
-39122.32452392578
32529834.869049072
48058832.103881836
36924664.941986084
31270254.522491455
26414833.60269165
22079268.863220215
17454073.15109253
12125317.394989014
7173215.474182129
-13750683.240112305
-23212140.89453125
-33434139.232910156
-41995927.90625
-49994034.42266846
-57675003.92095947
-65062128.17623901
-64725434.84005737
-48204832.37164307
85505.5710144043
48045525.82647705
64701088.321380615
65045109.54376221
57625621.52767944
50019112.25942993
42063502.123565674
33521945.56173706
23307897.6565094
13761650.230895996
-19178661.266540527
-32466435.706237793
-46357552.8659668
-57871790.6763916
-67532539.85540771
-74771827.06210327
-75821107.48977661
-65131236.4440918
-36974254.48120117
-51123.29739379883
36960686.82043457
65128851.66088867
75836966.68041992
74688743.9069519
67552337.15405273
57846443.55201721
46381406.159332275
32560359.790130615
19181909.0100708
-22947476.777770996
-38718149.45501709
-54992353.01831055
-67669031.19348145
-76806429.93414307
-80269100.06674194
-74650799.44525146
-57653335.88314819
-31373845.633972168
-71067.22506713867
31414988.922851562
57697801.30038452
74691877.79632568
80241749.45639038
76844460.17440796
67826956.53111267
55039955.80455017
38717696.59037781
22896330.062911987
-24468925.032714844
-41189983.301086426
-58060315.76989746
-70364501.03833008
-77249871.43167114
-76759378.0834961
-67603750.94805908
-50029220.020477295
-26380712.683380127
-84238.01083374023
26460396.9927063
49970049.43383789
67676327.39764404
76822634.74058533
77235488.87316895
70258822.02476501
58017410.49815369
41280256.61489868
24453697.38119507
-23239098.1517334
-39462497.28442383
-55208083.32312012
-65741608.82418823
-70327533.3439331
-67720794.27661133
-57871526.415527344
-42028663.87692261
-22033579.24963379
9513.197998046875
22051506.535888672
42065789.2979126
57902734.9498291
67598652.88198853
70305538.989151
65737144.82392883
55181296.84210205
39554768.81144714
23376836.198799133
-19718447.548950195
-33572479.523254395
-46876136.09539795
-55088392.45803833
-58100535.70635986
-54938894.42367554
-46360689.696502686
-33495091.40185547
-17569285.913146973
4491.107269287109
17487747.843902588
33442138.162353516
46328898.662979126
54947165.234558105
58032950.2401886
55215555.00790405
46901058.979255676
33611917.07472992
19619405.107681274
-13620162.134033203
-23981126.24987793
-33510489.28063965
-39523766.494903564
-41269313.86294556
-38709333.61541748
-32524756.480926514
-23259072.64492798
-12111729.42010498
25722.598510742188
12168806.618133545
23280247.871139526
32527772.88647461
38800450.95202637
41232647.75325012
39438955.588256836
33575073.32631683
23924468.811576843
13742747.030986786
-7497139.598388672
-13688930.209899902
-19612758.151367188
-23342682.353271484
-24496923.395874023
-22876962.744781494
-19270357.094329834
-13806644.898376465
-7150687.286315918
26195.11557006836
7223121.638031006
13742652.09866333
19304421.98338318
22927767.96305847
24469897.163009644
23387982.69985199
19688861.469848633
13728607.765533447
7366247.673667908
-2234635.4954223633
-6697.5147705078125
2221295.0864257812
-3793450.0872192383
-23898.981811523438
3745153.7094726562
-5350033.661499023
-21808.52685546875
5305925.07800293
-6304066.0009765625
11308.430725097656
6327795.365112305
-6616445.59967041
9645.825927734375
6636561.121337891
-6244194.854187012
-18495.478271484375
6207662.089599609
-5373832.920959473
-45071.45227050781
5283030.941101074
-3851028.714111328
-33311.80212402344
3783686.717895508
-2020105.5540161133
7509.23779296875
2035363.5131835938
-659.3915405273438
-14087.801574707031
-27957.05340576172
1929928.5756225586
-15684.575134277344
-1961572.0134887695
3806493.473876953
22428.246215820312
-3760710.457763672
5308262.846496582
22200.11083984375
-5263356.451965332
6142849.513793945
-33273.60791015625
-6210657.211853027
6580334.205993652
-12901.182189941406
-6606881.505371094
6287046.069824219
18286.638427734375
-6249757.6826171875
5267679.082885742
8997.583374023438
-5249513.25390625
3770449.1916503906
8614.0654296875
-3752853.280883789
2180019.049133301
13025.388671875
-2153790.4134521484
2195365.2517700195
-13145.821472167969
-2221539.503540039
3724985.304748535
-36652.18682861328
-3799654.1384277344
5371156.905517578
14625.281188964844
-5341896.41607666
6327954.467437744
-7139.3975830078125
-6342638.113922119
6630166.209228516
22634.52264404297
-6584310.114746094
6276675.453094482
2897.4730834960938
-6270770.477783203
5222845.2456970215
-4622.187072753906
-5232071.985961914
3788285.046081543
-22243.436431884766
-3833275.623199463
2027900.5595703125
5064.850891113281
-2017310.3908996582
-8936.301696777344
1592.3607177734375
12337.471099853516
-2034279.7339782715
-29184.79718017578
1975452.1256408691
-3828299.851776123
4539.270034790039
3838044.105041504
-5287824.37310791
-8112.310012817383
5271547.607559204
-6265892.445755005
-36137.454650878906
6192914.780548096
-6580287.237075806
6363.61311340332
6593454.182296753
-6251998.633003235
8001.43643951416
6268550.050758362
-5297432.8358306885
-20032.18901824951
5256938.018974304
-3711634.6438331604
17492.16222000122
3747834.846935272
-2162169.8368473053
-17575.37501144409
2126983.1868457794
-2126298.555940628
33707.955030441284
2195141.381547928
-3790380.40152359
-18751.40407562256
3752608.234966278
-5315811.820480347
-4624.807205200195
5306992.682563782
-6329151.154579163
-30612.24291229248
6267610.602729797
-6624102.268188477
-5211.85856628418
6613787.743637085
-6216384.741668701
6011.143814086914
6228483.430999756
-5278927.292724609
-2336.9217681884766
5274369.053955078
-3807655.4757385254
3610.952133178711
3814896.1667022705
-1975122.1456298828
-19376.751678466797
1936119.5102844238
-25415.13946533203
-14593.040557861328
-4082.937286376953
2024498.268951416
41719.77438354492
-1940032.343902588
3793983.3351745605
-30.160491943359375
-3794566.8887023926
5267717.502166748
13472.01040649414
-5240711.085723877
6253521.253631592
15163.226745605469
-6222826.339324951
6667117.110443115
36770.933349609375
-6593132.685455322
6333577.273162842
51811.2522277832
-6228941.98638916
5278838.119140625
-2284.19775390625
-5284386.144287109
3770275.233642578
29412.65350341797
-3711152.5771484375
2233810.6360473633
13505.752014160156
-2206809.276916504
2155764.2786254883
-19108.73956298828
-2194725.635131836
3740337.3330078125
-7234.366394042969
-3755532.1365356445
5300205.643432617
23072.980834960938
-5253764.692871094
6362067.694580078
34294.552673339844
-6292888.857666016
6662551.095397949
16690.958251953125
-6628920.623718262
6277896.481323242
27412.981567382812
-6222252.469970703
5264249.099121094
7621.239807128906
-5248925.544067383
3799886.407836914
-4675.479919433594
-3809677.9135131836
2020189.635925293
34146.93536376953
-1950798.8120117188
61625.369567871094
12413.337036132812
-36435.64141845703
-1971506.8668823242
485.6343994140625
1972632.5695800781
-3777979.578186035
-10230.852661132812
3757129.6170654297
-5299221.860839844
-32637.71044921875
5233265.587219238
-6249063.470581055
-26387.80889892578
6195836.999084473
-6630169.139892578
-25109.49200439453
6579694.647521973
-6263638.814086914
-28989.549377441406
6205126.421569824
-5266925.847167969
-24991.198852539062
5216868.843994141
-3774575.794128418
91.91827392578125
3775327.504638672
-2205489.413208008
-13372.3505859375
2178627.003112793
-3719157.583984375
-14352.778747558594
3690103.249633789
-6849192.98815918
-11349.920959472656
6826862.082946777
-9840597.595214844
-6868.6910400390625
9828164.454956055
-11696569.124450684
-3889.3247680664062
11689960.556762695
-12239120.325378418
-6878.503845214844
12225754.522155762
-11521295.76928711
-20490.837951660156
11479773.66595459
-9647770.12084961
-14425.064880371094
9618304.725708008
-6932858.716125488
-16890.948791503906
6897796.47277832
-3611700.110168457
97.8126220703125
3612158.723510742
-23684.83868408203
5009.561218261719
33966.58154296875
3607538.081665039
4914.2586669921875
-3597560.5928344727
6941344.20690918
10157.216979980469
-6921764.285827637
9680271.910888672
15578.375732421875
-9648954.56036377
11474554.098876953
15159.228332519531
-11443124.02722168
12289503.575317383
16657.66522216797
-12255622.306152344
11687371.01965332
8163.758056640625
-11671344.27709961
9846692.163269043
6984.534912109375
-9832894.21484375
6782629.06628418
4724.428649902344
-6773911.779846191
3699290.7610473633
6803.3380126953125
-3685974.719177246
-6866560.785888672
-865.1741333007812
6865268.9267578125
-11999912.34967041
-4216.729736328125
11992179.108459473
-16835785.603149414
-8181.354187011719
16820395.723083496
-19817560.518310547
-18883.82598876953
19780235.37072754
-20684184.080871582
-20354.42626953125
20643461.789001465
-19466410.104370117
-22015.99835205078
19422270.67907715
-16308129.428222656
-8412.325866699219
16291913.30847168
-11692164.505065918
2369.7991333007812
11698663.767456055
-6092826.729125977
-10373.831298828125
6072038.821594238
-32989.333923339844
-13501.100830078125
4358.999206542969
6078888.728027344
12284.677795410156
-6054148.801879883
11698970.844970703
11279.129089355469
-11677030.153686523
16302203.235107422
19037.444946289062
-16263471.003356934
19446203.16381836
9296.086547851562
-19428569.769714355
20678161.69781494
27175.189331054688
-20623375.398254395
19754092.038635254
142.2496337890625
-19754598.832580566
16868597.596069336
25395.799865722656
-16816171.385803223
11986829.594726562
11221.154113769531
-11964331.241699219
6875034.369873047
7339.099914550781
-6861523.295288086
-9844960.769897461
-16486.802734375
9811339.477050781
-16815989.027893066
-3065.0228881835938
16810613.605651855
-23486064.21435547
-23563.24755859375
23438116.13671875
-27661982.83227539
-8766.031372070312
27645427.366455078
-29130941.074401855
-20781.112060546875
29089439.416748047
-27572258.699645996
-29996.234924316406
27511606.897583008
-23266629.451293945
-22698.07794189453
23221719.31994629
-16766800.003601074
-29836.685791015625
16706716.225585938
-8703345.956604004
-4042.143798828125
8696948.629394531
8867.217102050781
-2542.9453735351562
-14241.398315429688
8754300.881408691
17543.986328125
-8718419.7444458
16789367.810791016
11035.068725585938
-16767357.21105957
23259021.963867188
24874.405029296875
-23208768.585388184
27568604.083251953
18686.492797851562
-27530907.270874023
29093948.671203613
10917.046020507812
-29072466.6282959
27684436.925109863
17074.768310546875
-27650045.47821045
23479740.389709473
2805.3256225585938
-23474843.737976074
16844086.0
16589.787536621094
-16810948.58996582
9827998.946472168
7345.624694824219
-9814736.771911621
-11684108.51538086
-7517.48876953125
11670412.85723877
-19812013.47454834
-14688.74267578125
19783170.43597412
-27642436.227478027
-13168.118530273438
27616186.094787598
-32965456.421142578
-14938.248718261719
32935813.757080078
-35270026.232910156
-30609.74822998047
35207770.66540527
-33984469.33569336
-28187.799926757812
33928187.08770752
-29048405.23236084
-23822.3955078125
29001636.73187256
-21131645.54248047
-31111.84002685547
21069259.946289062
-11120837.917297363
-20280.749755859375
11080313.208068848
42355.431213378906
-1497.9793701171875
-46042.90936279297
11118603.39819336
26770.980712890625
-11063723.098144531
21072337.361450195
34977.15997314453
-21000720.46270752
29062920.224853516
25739.462280273438
-29011226.18121338
33969169.16229248
20927.613037109375
-33927596.634521484
35265971.64691162
23926.914489746094
-35216980.02203369
33021976.976226807
36811.48669433594
-32946211.50769043
27633523.45172119
9570.995544433594
-27614762.05340576
19820984.741638184
18782.071075439453
-19782663.61380005
11697010.841949463
5677.073669433594
-11686413.36138916
-12251552.280456543
-15995.390014648438
12220641.94897461
-20715106.75048828
-18563.44842529297
20677913.215576172
-29125378.983032227
-25316.12518310547
29073792.832824707
-35232844.60845947
-22474.20782470703
35187534.17840576
-38775174.12554932
-25765.111755371094
38723699.90386963
-38528838.783081055
-38605.79815673828
38451880.00909424
-33933656.06359863
-53064.547912597656
33827321.824279785
-25105151.735717773
-40040.13348388672
25024841.804870605
-13276344.903869629
-32682.71990966797
13210520.009399414
20677.299865722656
-364.9942626953125
-21387.103759765625
13276626.942382812
20110.300170898438
-13236626.438415527
25148233.897094727
52412.22802734375
-25041702.357421875
33917559.5557251
54850.576110839844
-33805596.72979736
38552210.52630615
34070.95666503906
-38483840.80661011
38761519.50616455
39877.879791259766
-38680309.27548218
35247347.259521484
13522.26400756836
-35220625.11160278
29087051.253967285
37525.8469543457
-29010674.737701416
20703569.32006836
10442.42318725586
-20682880.83847046
12214461.594268799
6213.0240478515625
-12203236.583984375
-11504256.00177002
-2879.4898681640625
11500304.267456055
-19476833.846435547
-23284.489868164062
19429096.533691406
-27576264.273498535
-15290.555969238281
27545818.860168457
-33978109.57702637
-39641.630615234375
33897883.11450195
-38524007.57751465
-34056.068115234375
38456327.127319336
-40301496.703063965
-58846.275451660156
40183800.04180908
-37528947.21990967
-54596.93865966797
37420536.12060547
-29014527.431640625
-88232.09893798828
28837314.505126953
-15817673.721740723
-43928.44885253906
15729677.945007324
52735.86730957031
-737.0896606445312
-53825.92169189453
15793179.725036621
43544.36785888672
-15706371.085388184
28990515.66760254
69902.88391113281
-28850955.048187256
37527131.14172363
80422.00729370117
-37364624.78884888
40268309.08169556
47068.947998046875
-40174569.1421814
38578014.999298096
34223.537170410156
-38509199.04724121
33969482.43157959
30164.988037109375
-33908510.61026001
27567139.696899414
20942.33172607422
-27524194.32888794
19441503.97631836
23548.556762695312
-19393677.86566162
11552467.859924316
15548.264251708984
-11520841.605010986
-9646954.770996094
-4813.527038574219
9638457.600952148
-16280928.572387695
-14979.994506835938
16250738.44696045
-23283264.014831543
-27504.054138183594
23228314.462524414
-29050306.760559082
-35130.48913574219
28979752.120117188
-33931040.60028076
-45881.30773925781
33839067.58648682
-37541022.45831299
-61199.24981689453
37419508.75323486
-38200467.15692139
-97223.1103515625
38006443.68267822
-32817133.48284912
-113173.79040527344
32590590.12060547
-18774886.62438965
-172277.3896484375
18429828.561462402
4960.957794189453
11154.413665771484
17948.914459228516
18779857.95742798
180256.63418579102
-18418705.701568604
32854848.931518555
128453.07504272461
-32596310.09927368
38170309.35839844
99601.08193969727
-37971032.392578125
37496475.726745605
61422.27426147461
-37374148.392089844
33939042.57501221
47516.70104980469
-33844011.41845703
29035244.798461914
22685.529754638672
-28990429.932281494
23244497.270629883
9989.861724853516
-23224639.938537598
16305144.405395508
17438.643157958984
-16270107.979553223
9637487.139556885
9643.423522949219
-9618193.017120361
-6919392.898986816
-16277.531494140625
6886412.37097168
-11703484.694396973
-12437.399108886719
11678660.198242188
-16737580.426452637
1483.0851440429688
16742532.218200684
-21089823.02911377
-32798.478942871094
21023744.70336914
-25146824.5078125
-46790.140380859375
25052479.110107422
-29009507.735290527
-75091.27215576172
28859994.283081055
-32789535.500854492
-130429.79962158203
32527452.29058838
-32896152.509643555
-267098.9024658203
32361440.82562256
-24384524.64871216
-149002.9662475586
24083818.111297607
21751.731414794922
4950.943206787109
-12719.168884277344
24370453.17703247
139990.01071166992
-24090341.224517822
32916869.050964355
258217.42294311523
-32401347.553466797
32848060.47027588
122614.6117553711
-32602053.209075928
29021642.98864746
92536.19137573242
-28835645.853668213
25095269.71560669
42667.61584472656
-25010439.830078125
21094900.28466797
29784.49722290039
-21034933.754333496
16756309.594848633
483.44097900390625
-16756051.376525879
11664346.678070068
4834.1685791015625
-11654705.533721924
6958368.472869873
28081.261657714844
-6901018.865386963
-3609641.873413086
-2151.3373413085938
3605351.860168457
-6108114.983886719
-11782.568420410156
6083733.233886719
-8723277.097961426
-9106.14453125
8704549.041687012
-11047998.001464844
-9657.399780273438
11028499.212402344
-13276246.979553223
-35372.33319091797
13205040.299926758
-15770209.131469727
-47385.130615234375
15676008.18951416
-18800561.40032959
-157817.71752929688
18486292.11895752
-24412305.168670654
-164875.30587768555
24079604.96633911
-19049042.150787354
-1611136.7946166992
15833682.025115967
8240.820770263672
-9832.622131347656
-28910.19451904297
19078116.02355957
1614672.4325256348
-15855760.726928711
24427242.854125977
165568.3369140625
-24092284.69744873
18768455.495147705
165630.29766845703
-18437223.824066162
15771871.832305908
39743.10223388672
-15692694.26776123
13267149.627624512
31854.79638671875
-13203520.809082031
11122313.112823486
25364.336822509766
-11070590.473999023
8780889.63659668
11636.493896484375
-8757887.46459961
6103859.313354492
958.7838745117188
-6102748.893859863
3566305.33795166
-3232.698760986328
-3573260.031097412
-26507.437438964844
6620.226623535156
39929.790954589844
-19263.526977539062
-9144.203002929688
-429.6021728515625
-26546.76971435547
-9297.545532226562
7443.4273681640625
5045.8394775390625
8584.132019042969
13316.894897460938
-24334.20458984375
-2892.2946166992188
18937.527221679688
13084.646850585938
1638.9708251953125
-8928.285461425781
19821.312133789062
-5088.348419189453
-30008.971130371094
10548.038024902344
1858.677001953125
-6521.718811035156
-12061.502258300781
-9170.87533569336
-6438.904602050781
18161.518585205078
3912.272491455078
-9211.800506591797
-15460.010467529297
2272.4288024902344
20905.331512451172
-32218.160675048828
-3017.6642456054688
26170.713928222656
-45051.52444458008
-10633.915069580078
22865.796020507812
4751.8760986328125
-1493.2153930664062
-7785.1416015625
22768.54867553711
4510.221771240234
-13086.582275390625
-5226.2310791015625
-3979.7705993652344
-2900.4512329101562
110.66949462890625
5348.782409667969
10596.806549072266
-15599.689758300781
4650.557464599609
24496.275451660156
4267.752716064453
4391.126434326172
4843.876739501953
3623655.8532714844
7647.703186035156
-3607609.2802734375
6052067.914916992
9667.61962890625
-6031861.719970703
8783444.185180664
9470.914611816406
-8763610.54119873
11093826.621948242
16577.989685058594
-11059571.750854492
13292630.093139648
28680.891235351562
-13234931.808532715
15772745.129089355
56492.17022705078
-15657975.397827148
18739694.60510254
159077.9598388672
-18421996.80029297
24382093.057403564
158882.57968139648
-24061149.5
19091819.796661377
1614251.273864746
-15869610.069366455
3230.368682861328
-9647.245574951172
-23434.65298461914
-19048104.442138672
-1603047.378479004
15850133.269866943
-24380001.733428955
-159462.8094482422
24058820.98727417
-18740229.113616943
-155272.8667602539
18431064.73602295
-15735270.497802734
-46655.56506347656
15642178.386627197
-13286060.471435547
-36288.59899902344
13212644.995391846
-11085853.15600586
-18154.56607055664
11048755.126342773
-8764861.138671875
-15426.891906738281
8733801.613586426
-6097021.641174316
-16160.55972290039
6064041.114624023
-3579927.7232666016
4264.581451416016
3589558.6157836914
6897251.6681518555
11538.370910644531
-6873116.208862305
11649341.232849121
15063.194580078125
-11618155.62286377
16778047.159118652
20631.46075439453
-16735934.154418945
21066130.195129395
21350.87255859375
-21023549.84411621
25118692.198425293
49918.360412597656
-25018066.503356934
29005544.519744873
71414.9006652832
-28862727.251434326
32831489.851715088
130969.75610351562
-32567835.030029297
32938812.154418945
266040.5898742676
-32406547.770690918
24423712.33026123
141885.60702514648
-24138736.037506104
-8097.902648925781
21432.410583496094
52644.973541259766
-24376790.07772827
-161574.88327026367
24051346.550109863
-32901048.32192993
-251300.00659179688
32401028.56600952
-32797598.618408203
-116129.53280639648
32565996.43093872
-28988059.334503174
-75909.9114074707
28836469.21987915
-25110544.52420044
-37229.34231567383
25036216.72683716
-21096974.783294678
-19288.036163330078
21057868.92477417
-16803709.713653564
-10531.612701416016
16783331.47592163
-11685856.578231812
-10027.952545166016
11666356.33706665
-6910604.042098999
-17890.27505493164
6874616.671844482
9613450.55444336
12887.467529296875
-9587412.702575684
16284592.818969727
16274.095153808594
-16251728.736572266
23247006.337280273
17087.879821777344
-23212625.545410156
29027210.281433105
26055.054931640625
-28975521.709777832
33898144.9793396
43495.82693481445
-33811864.79525757
37575989.38253784
66959.5191040039
-37442371.98449707
38166942.9720459
91882.2678527832
-37983814.43713379
32824923.351379395
106176.78732299805
-32613193.129730225
18791325.23538208
171989.33032226562
-18447192.084838867
22011.952423095703
-1699.5623474121094
-25666.20718383789
-18777185.522277832
-167043.63638305664
18443178.450897217
-32854202.365325928
-125554.52606201172
32602602.232299805
-38180975.144592285
-95385.04052734375
37990192.830718994
-37551306.2746582
-75217.2857055664
37398699.50567627
-33922949.584228516
-51623.17886352539
33818491.11984253
-29039015.661636353
-40808.064392089844
28956051.74481201
-23247768.036819458
-11377.914855957031
23226121.479873657
-16324344.275177002
-12442.652465820312
16299324.95300293
-9611033.8596344
-9974.421905517578
9590511.405853271
11510876.387817383
20711.21502685547
-11469033.835449219
19431612.4944458
25460.486389160156
-19379740.42327881
27577641.813232422
19496.274475097656
-27538530.135620117
33943176.861206055
28512.258361816406
-33886031.400268555
38554948.845825195
46338.01614379883
-38462731.94854736
40325970.43383789
62884.20654296875
-40200048.55383301
37500793.8265686
56690.364837646484
-37387860.7293396
29020115.675628662
87529.38491821289
-28844335.16052246
15796400.135437012
52338.05197143555
-15690543.42312622
34946.12646484375
480.6990966796875
-34334.92123413086
-15805549.927062988
-45444.72555541992
15714124.043060303
-29035012.527893066
-83830.68743896484
28867515.65762329
-37551630.29168701
-76471.45318603516
37398416.80566406
-40296197.82455444
-51633.2594909668
40192430.561309814
-38573067.58799744
-44771.397201538086
38482702.83857727
-34012362.48068237
-23710.072540283203
33965617.02433777
-27603849.151748657
-21786.182052612305
27560362.172164917
-19420078.874557495
-18298.926712036133
19382599.049453735
-11508332.439865112
-33270.56460571289
11438572.538146973
12252092.253417969
7814.73291015625
-12236697.540161133
20648368.778564453
10784.473693847656
-20626695.81085205
29111253.165527344
16073.258728027344
-29079502.749450684
35299479.56262207
30715.220642089844
-35237702.237854004
38742128.06951904
23678.73355102539
-38695901.552978516
38496542.99255371
24114.16665649414
-38450036.56930542
33957784.81976318
58383.836029052734
-33840179.5769043
25100790.313720703
28860.31869506836
-25044785.660980225
13275420.681274414
41191.41244506836
-13192706.289764404
32139.58721923828
-5541.516998291016
-43877.22717285156
-13296319.722076416
-29401.10971069336
13237842.908721924
-25100213.424926758
-47412.5788269043
25006346.91784668
-33977901.667785645
-49259.005126953125
33879661.3616333
-38553455.04570007
-38161.76692199707
38475747.854003906
-38763165.90539551
-39963.678314208984
38681788.81678772
-35257711.26486206
-37060.92352294922
35182729.15885925
-29083709.79333496
-11760.414932250977
29060465.176361084
-20678613.102416992
-2666.312774658203
20674282.2611084
-12249676.828491211
-11403.834732055664
12226946.565612793
11652708.368469238
16390.848083496094
-11618781.954589844
19791131.560913086
15613.942138671875
-19759622.717712402
27672778.694213867
9290.0693359375
-27654602.585205078
32965481.962615967
18945.358795166016
-32927442.21246338
35284638.58441162
32540.595489501953
-35218827.103881836
33947865.21774292
15812.108978271484
-33917358.51586914
29043880.000091553
36347.004333496094
-28970384.74987793
21099344.39984131
32059.647003173828
-21034313.978302002
11059782.115783691
16790.49740600586
-11026428.463165283
147.63775634765625
3396.2023010253906
6446.497619628906
-11079688.90109253
-23652.25860595703
11032065.07598877
-21097895.652893066
-21200.30093383789
21057178.992492676
-29049863.549850464
-30850.69174194336
28988139.132339478
-33915437.77310181
-31707.187622070312
33850360.81529236
-35252437.80899048
-18189.666717529297
35215483.91371155
-32966092.850601196
-20782.090606689453
32924530.253845215
-27662281.27896118
-11380.507949829102
27640097.49333191
-19845129.220458984
-21100.611038208008
19801980.09361267
-11695073.751976013
-1990.1084213256836
11692151.698043823
9886690.770568848
15353.468688964844
-9854927.643676758
16856050.444519043
24485.713745117188
-16805107.58380127
23489264.414916992
2940.48193359375
-23483764.490844727
27618193.205291748
12144.03189086914
-27594253.791259766
29134997.442749023
17854.878540039062
-29098890.35824585
27574551.881744385
33654.761627197266
-27505603.891601562
23250220.116485596
18033.437927246094
-23213536.062561035
16818031.921142578
26789.214965820312
-16762845.48953247
8785282.03036499
-7440.238586425781
-8801448.793365479
-9142.005950927734
-4362.6214599609375
52.325958251953125
-8770245.760162354
-8513.842193603516
8753598.18560791
-16764642.26928711
-10995.638732910156
16743714.185424805
-23235773.99836731
-19419.887405395508
23197053.62236023
-27575635.458328247
-31705.76171875
27510609.381591797
-29102401.448287964
-17980.824325561523
29065596.79978943
-27686150.605926514
-15169.831069946289
27655541.535507202
-23522826.01991272
-16959.691986083984
23488799.003242493
-16857043.701774597
-13592.752517700195
16829290.553199768
-9839594.969017029
-17508.354400634766
9804483.602539062
6832855.773925781
16575.598266601562
-6799067.210266113
12012752.58203125
4193.705505371094
-12005097.310546875
16827079.201660156
26184.002014160156
-16773396.687072754
19813239.52999878
10332.260833740234
-19792325.37423706
20693569.751434326
15088.402923583984
-20663131.677337646
19409970.395263672
15055.517944335938
-19379764.04876709
16324986.557220459
23549.818634033203
-16276826.019134521
11675389.272033691
17272.758270263672
-11639602.367248535
6089866.621154785
14865.117858886719
-6058408.201507568
-15505.28726196289
-2212.0581970214844
11283.38949584961
-6096034.983276367
-2917.7463989257812
6091272.29888916
-11663626.83027649
-4526.894790649414
11655425.034118652
-16321142.624603271
-20336.07501220703
16279658.281204224
-19433398.87437439
-1774.2798156738281
19430838.967086792
-20673469.859924316
-14517.883316040039
20645118.906829834
-19775965.845336914
-14372.653350830078
19747998.05050659
-16824336.466430664
-5997.582984924316
16813938.851623535
-11996559.290176392
-11779.137428283691
11973414.305877686
-6859571.8832092285
4184.149131774902
6869247.244979858
3738804.196899414
4410.835632324219
-3730234.8795166016
6850300.886657715
7667.60498046875
-6836467.724365234
9811980.682312012
2841.6106567382812
-9807888.738342285
11716265.6121521
24958.737396240234
-11665041.525024414
12255642.212127686
1643.1113586425781
-12252960.951293945
11483524.048950195
25185.903686523438
-11431885.106018066
9663389.17263794
15092.559844970703
-9631825.324310303
6894945.4449157715
-6651.671722412109
-6908729.6871032715
3604201.657043457
16686.32797241211
-3569028.566101074
-18274.27847290039
-3736.7845153808594
10739.379791259766
-3606898.090637207
2556.4525451660156
3613086.450805664
-6891890.928237915
-11994.573043823242
6867809.29637146
-9678750.83078003
-14630.506698608398
9648390.981811523
-11498765.338165283
-19421.816452026367
11459539.026397705
-12272961.232543945
-21462.2176361084
12230048.15550232
-11728343.3433609
-19548.550491333008
11689491.488044739
-9856316.696632385
-6652.797836303711
9843750.479545593
-6870211.296459198
-7391.924583435059
6856451.789157867
-3691959.917732239
-16090.976318359375
3660099.720012665
SCALARS strain11 float
LOOKUP_TABLE default
-0.21458780999910232
-0.21452440887378543
-0.21786149932844268
-0.20783601566517973
0.20618496268525632
0.21462017934436517
0.21258334607139062
0.21098870414471094
-0.10140385001750474
-0.08927556084699972
-0.0809271924508721
-0.04758529936680134
-0.015802662828264147
0.011749014890483522
0.04017364751689456
0.05398062174208462
0.06938393346536031
0.06873695020158266
0.06317719659955401
0.05177745039054571
0.0387550398759231
0.014944247958737833
-0.01585098964824283
-0.04404623684740727
-0.07122065232579189
-0.0879863089162427
-0.10724777953782905
-0.34239432290223704
-0.7222753225219094
-1.3102892135743787
-2.0586893697636697
-2.8915355185094995
-3.71240971745965
-4.4434117047746895
-5.005939864901848
-5.364906605974284
-5.489339270290884
-5.369010356532499
-5.009016006624961
-4.441981730646717
-3.7140336259071773
-2.8970630482009483
-2.062413626351031
-1.3101450165344772
-0.7238752337663072
-0.34161504090477024
-0.10792527558848519
-0.0934088293536206
-0.07171505293752034
-0.04101814317641583
-0.012154497741789783
0.010228806904024168
0.032504942624314026
0.04668374236598538
0.06492462784399322
0.07127924803944552
0.0648799074267572
0.055660586529484135
0.03541438372894845
0.01700564060843135
-0.01514753063702301
-0.04311303573103942
-0.07202520209239083
-0.08982436600535948
-0.10405122646761811
-0.35009376250764035
-0.7180633115544879
-1.3071107439814114
-2.064412837704822
-2.895203489345022
-3.708464339148577
-4.4486164202889995
-5.012992571202176
-5.366845687013665
-5.489174951251698
-5.366465830128163
-5.01165740852548
-4.432758352344081
-3.7131262788029744
-2.8937729107065024
-2.062476053295086
-1.3116724357887506
-0.7209586647950346
-0.3407506455814655
0.09915206468031101
0.08840602791542551
0.07551122807899446
0.0443766785151638
0.013860612168627995
-0.012974808694252715
-0.03668798606258861
-0.05219749034858978
-0.06549552310116269
-0.07016837145056343
-0.06460457714456425
-0.05321845778144052
-0.03566109117855376
-0.016297579792535544
0.017338790946269
0.0457553142919096
0.07222173678974286
0.08623364426512126
0.10483386485975643
0.3443772852174334
0.7214286258881657
1.310142832694055
2.05694419309566
2.8873200082039148
3.707635500621791
4.4359390160238945
4.998526511440787
5.362197228339255
5.485300679290049
5.3598886051506724
5.001951893154683
4.43355985675737
3.7085686491902834
2.8930412120021174
2.0635102080674415
1.3136238388823926
0.7253503502508352
0.34409873526571744
0.10939427943904434
0.09379963558279769
0.07135665984196748
0.04385552037342677
0.018755482589313033
-0.008995916484082045
-0.03461574733614725
-0.050011110794457636
-0.06751494680088399
-0.0745766006532449
-0.06672803614765144
-0.058656654771084504
-0.03589390415118032
-0.013262041728694385
0.016499948766977468
0.04343408695922335
0.07326796301231298
0.09048670183028662
0.10658624205871092
0.3480084505540617
0.7198275585215015
1.305876145900129
2.067211738667538
2.8930127717817413
3.7088887221575533
4.440671290878072
5.006533452361964
5.361440616746677
5.485130132914946
5.3632027561443465
5.006757242777439
4.432005411278169
3.709908316469864
2.886716035988684
2.061328316000072
1.3090599658949031
0.7122044229972744
0.338778606937467
-0.1087144631414958
-0.0041206223909284745
0.10043184731011934
-0.10661290363123044
3.6974992781324545e-05
0.10669158906057419
-0.10957378879714952
-0.0025869570403003195
0.10437299628018337
-0.1025370611728249
0.0015307986418520159
0.10562082739306788
-0.26787175538811425
-0.6744887989643757
-1.31911365572887
-2.1425356811769234
-3.052081075879414
-3.9500799609854766
-4.743881696906556
-5.371301194873922
-5.769100072052424
-5.902242907727668
-5.766023537754791
-5.367645092365365
-4.745421844181237
-3.9476687937840325
-3.048096293672188
-2.1492263829845797
-1.3190455233552711
-0.6726160403777612
-0.2702741464368046
-0.27876939386442245
-0.637710296979094
-1.1969215884050755
-1.8890455059090527
-2.6627465551923706
-3.442152261036881
-4.140282388442756
-4.68910451011061
-5.0400573104016075
-5.1612814495961175
-5.043494344784904
-4.689671352649384
-4.1401268465806425
-3.4402619248462543
-2.6666865778697684
-1.890564521005217
-1.191840305928963
-0.6426937204150818
-0.28085354228915094
-0.22766761978482464
-0.4842942778818724
-0.8946891407454132
-1.4126138067877037
-2.017000024576191
-2.6483854033444914
-3.2404462139575116
-3.7125655360482597
-4.019234038349168
-4.124572031979824
-4.0144439050968685
-3.705707887945664
-3.234584650478155
-2.641418631166289
-2.0194608102697202
-1.4136395988830373
-0.8910272712500955
-0.48336059323537484
-0.21754453236371774
-0.1180835778486653
-0.24644047244373724
-0.45605690578258873
-0.7506591231872335
-1.1255097405182823
-1.5931309542861527
-2.078598836711535
-2.498267608398237
-2.7822346060747805
-2.8707863812601317
-2.776348963331202
-2.491009676849444
-2.069820777602672
-1.5967635059409986
-1.1258764569370214
-0.7457517287552946
-0.4543221535500379
-0.24763274154156534
-0.11413651747488984
-0.0002763371844594076
0.01337469304962724
0.023896165211681364
0.012423858905094676
-0.07886123796288302
-0.2995663314927697
-0.6452007427105855
-1.023286804464533
-1.2866849647857634
-1.4226884540807987
-1.2894369554783225
-1.0230602804758746
-0.6425196203931591
-0.29888402768028755
-0.07897680506630422
0.017154391241092526
0.024635559081161773
0.01234950197112994
-0.007318223935726564
0.10455494484722294
0.25527182813630134
0.48102078918600455
0.7579368919500666
1.0022703525091856
1.14472700742499
1.0528421787821571
0.7432485461740725
0.4154731638282101
0.38198824346454785
0.4137023057510305
0.7390382733656224
1.0544452729386649
1.1406004613395453
1.0068236074980632
0.757817635682386
0.4852135078053834
0.2578870450854538
0.10251581133979926
0.19193728960317458
0.45798675265359634
0.8674766826879932
1.3896664786793735
1.9841252937885656
2.543284734916142
2.8980688702954467
2.8822809857942957
2.51345500564139
2.1018055178410577
2.509901485196224
2.884017234361181
2.895301826722971
2.53979781129442
1.9822763989623127
1.3918945648119916
0.8689971717406024
0.45732653854838645
0.19220197401728
0.2559434118052195
0.6017456324652812
1.1488303038217964
1.867323861685236
2.7174626863838967
3.667338180992374
4.593236837638415
5.218197864955528
5.296525393483989
5.172107592361954
5.291176655905474
5.222249249409288
4.593895623471099
3.666799101585866
2.716104399290316
1.865249646465827
1.152156993003473
0.6036589898885723
0.2579014170157734
0.3000983705769613
0.6908127503188553
1.3162535787978413
2.1475488098881215
3.1642256757791074
4.353886248141862
5.731333554362209
7.22263488611361
8.561472811886233
9.351774474420836
8.560227799162703
7.217235799255604
5.725986720503215
4.352924249744092
3.1613353570076015
2.1500276728284007
1.3162777161628583
0.6945792565040847
0.30290049350833215
0.31094994225395567
0.7227248853532728
1.3750830049743854
2.2422478015287197
3.309034748398517
4.5780023577613065
6.095661201882194
8.052607591643664
10.256456061064455
11.137073461869477
10.256138476167507
8.058113665298833
6.098263863174452
4.585061032057638
3.318982223612693
2.2467407980868757
1.37350289174492
0.7206479031042363
0.31377585893164905
0.30226340058152346
0.691807075277211
1.3208759171993734
2.1524274504959067
3.161517184496006
4.3537375027140115
5.728595365528236
7.2192838849296095
8.562288117067965
9.348991901215868
8.566348221802627
7.221499977968961
5.726897264280069
4.3530673623386065
3.161183592261068
2.1489330845761287
1.3219171285225002
0.6894580519781357
0.30175634389502193
0.2606265671597612
0.603232760537594
1.146452510176914
1.8663754230042287
2.717986210177969
3.6644564879707104
4.589782453399948
5.222425323147718
5.296562900857907
5.169541367730972
5.299014604730701
5.218664248044206
4.595580253985645
3.6653997145997437
2.7231606693167123
1.865127012260018
1.1458607629776907
0.6050390477585097
0.26270127319912717
0.1966460282492335
0.4606852448096106
0.8706679141741915
1.3941762923068381
1.98040155494391
2.541651559391994
2.8949974012630264
2.8894938907715186
2.5084370623640098
2.1077355445556805
2.513891450177198
2.888643895873429
2.8960747311994055
2.5368326772995715
1.9817103374596172
1.3949901864100411
0.872017037654814
0.4555171942167817
0.1973575246126984
0.10351124370163234
0.2547740695617904
0.4832673510013592
0.7659773746104293
1.0076529066886906
1.139774529911847
1.0555322773661828
0.7521093480538639
0.41304720287234886
0.376858418521806
0.41224228700912136
0.7426465740295498
1.0556363800139934
1.1403315555087374
1.00741775522215
0.753433966159605
0.48616703336381306
0.2533368893665511
0.10255119818248204
-0.004568303419546282
0.014485431031062035
0.024545033224057988
0.01148950049537234
-0.07867274873160568
-0.2970858265248353
-0.6471135049250734
-1.0203918382380834
-1.2875938442482493
-1.4166665300651857
-1.2843441864404213
-1.0211825337005394
-0.6455090618069335
-0.29998622369816985
-0.08124317144063298
0.011088951825740878
0.028970845783646837
0.016624492872210794
-0.006951748712026529
-0.1196793590352172
-0.24664566407864186
-0.45452636475874897
-0.7459470607923322
-1.1349605388413693
-1.5945485967481545
-2.0765911835269435
-2.4957654801899025
-2.7764864251103063
-2.8680697486620375
-2.7800262943537746
-2.4958537210548
-2.0803866739295245
-1.5904344376797326
-1.1325870239209053
-0.746114183423515
-0.45401846356992337
-0.24539757057743827
-0.11331167498462946
-0.2172557016583596
-0.4845823581440527
-0.8940613271142865
-1.4146136295967153
-2.0165690345243092
-2.6484579518412374
-3.2349291929863284
-3.7099054073319166
-4.020039071888959
-4.131868034213994
-4.024220872219075
-3.7117827562376533
-3.2379256745236944
-2.6452387633279386
-2.018027700385119
-1.4120926331939927
-0.8966744359437371
-0.48969949516799716
-0.22018263653279746
-0.2806517733238252
-0.6354858549498204
-1.1962370610076505
-1.8920739050658995
-2.665131316901352
-3.4424616842225078
-4.140580403763579
-4.688972852406096
-5.047167184068712
-5.160508180389343
-5.0402018484296605
-4.6867748441518415
-4.137291275816665
-3.4408661249993884
-2.665516476531934
-1.8873764961148254
-1.1907934413830503
-0.6339779408036748
-0.27820358532216005
-0.2712182920131454
-0.6731589772766711
-1.3226485094610325
-2.143310253143227
-3.051865185918814
-3.9458165473201916
-4.7487049306269
-5.368772321877941
-5.769273150209756
-5.905521082680025
-5.767790738669191
-5.369680298188541
-4.7438221499552355
-3.9472526947329243
-3.048579824553258
-2.143675683139236
-1.3248634054820627
-0.6744812764938501
-0.27298642530206507
0.26875598853166593
0.6730300845897546
1.3189822649569578
2.1396777456698146
3.0500919861674447
3.946231741262636
4.739214692110181
5.368439452389794
5.765295996655368
5.897567878313566
5.762086235970401
5.364190137213427
4.741821355481079
3.9450326597548155
3.0471665073027907
2.145177582053293
1.3185541298134922
0.6709433451583209
0.2713201239521368
0.2775632152224716
0.6373571896883732
1.1952730684415656
1.8879807583175534
2.66110975630545
3.4398356242550108
4.136519247052092
4.685718321838067
5.034695386223575
5.155659047538393
5.039305148216954
4.68522437468755
4.136460984614132
3.4373224334030965
2.665701527683268
1.8875762081347602
1.1901802581237462
0.6414842080562266
0.2805714608634844
0.22640481470580198
0.4844540158505879
0.8949874393792925
1.4107524648852632
2.0143699694590396
2.6462564699982067
3.2348437446371463
3.7059496291240066
4.01674306026689
4.119632571007969
4.009714607314891
3.7017708069042783
3.233327812524294
2.6382086354587955
2.014113884092694
1.4125355561736797
0.888773214298908
0.4815933466561546
0.21804942558537732
0.11690332068110365
0.24571016616164343
0.4537053061317238
0.7485125148873522
1.1240231928909452
1.589981660585181
2.0758442505684798
2.4930143684732684
2.776494917563923
2.864573163701607
2.7699399467533112
2.485589117502059
2.0664057607691575
1.5933226670113072
1.1227199288923657
0.7434566427814389
0.45448577051820394
0.24726844805127257
0.1149283786307933
0.0008349160584657511
-0.013487313602581708
-0.026285218167231506
-0.01153690500632365
0.07683270269217246
0.2968230691685676
0.642009392707223
1.0168042486311606
1.277642757778267
1.4141197108933738
1.281155007099187
1.0176394496834291
0.6380903671861233
0.2964574916463789
0.07775123857800281
-0.015848157684558828
-0.02505390296710175
-0.01330880720024652
0.007765055635445606
-0.10279865383336073
-0.25626495153619544
-0.4807246882387517
-0.758481281468903
-1.0030837600165796
-1.1454632248351118
-1.0555505046886537
-0.7496409599025355
-0.4239666929611303
-0.39824001665692776
-0.4237621576321544
-0.7460349080574815
-1.0551858352487216
-1.1409830759671422
-1.0056010878124653
-0.7571522986681885
-0.48403998713092733
-0.25833070902285726
-0.1029899361913067
-0.19309867619540455
-0.45645645571903515
-0.8666700235989993
-1.389142682822694
-1.9805867929617307
-2.5430944170288967
-2.8987870077517073
-2.8852080464007486
-2.53228831900924
-2.116710549369145
-2.528002841765556
-2.886272480523985
-2.8977292960908017
-2.538454917451645
-1.9819134083968493
-1.3904459591446994
-0.8685054768611735
-0.4557825389701975
-0.19103636549061775
-0.25408376243103703
-0.6014327558027617
-1.1476883748000546
-1.8659549780845737
-2.715595471478082
-3.6629557288542856
-4.5882510761439335
-5.22156647843849
-5.29052057987974
-5.301305093304563
-5.284984348765647
-5.225403903492406
-4.588477146830655
-3.6647269335926467
-2.712486394882262
-1.863025049392263
-1.1515101716713616
-0.6030344513114869
-0.25944938520615324
-0.2995664672903331
-0.6890314202159971
-1.313174839637668
-2.1446942059565117
-3.1582289249431597
-4.347290943776898
-5.718998495779488
-7.209107545759707
-8.52667742993117
-9.319225900751462
-8.5272615585302
-7.202447137533909
-5.712921973364018
-4.345170035708861
-3.157487665848066
-2.146623740623909
-1.3152600003597854
-0.6902498556642058
-0.3019206459318866
-0.3103596202240624
-0.7221809050670345
-1.372680631242929
-2.2386821869790765
-3.302565312774732
-4.569283879285194
-6.0826781949258475
-8.010098354637194
-10.224736662488795
-10.818733826781909
-10.223424634356434
-8.015781909380621
-6.084784448360324
-4.576358515750371
-3.3144583431749197
-2.241342326011818
-1.3727323335401707
-0.7184161267416584
-0.31265571756694044
-0.3016092210818897
-0.6914038009081196
-1.3169446825954765
-2.153282322731684
-3.1549245246783357
-4.347689032929338
-5.7153142779347945
-7.202698007290564
-8.527185014242832
-9.31512898780693
-8.531363090216473
-7.20624922802449
-5.714653055498047
-4.345495919343421
-3.1571506201405555
-2.1466552661827336
-1.3200251709679378
-0.6879176639640718
-0.30150952410554055
-0.26042009661114207
-0.6010277885684445
-1.1452335947369647
-1.863145491659452
-2.7160840044975885
-3.66159078172268
-4.586658837434243
-5.225616563716358
-5.2912550467654
-5.300254189263796
-5.2922284102508
-5.222191701361226
-4.589966955903037
-3.6630688862662737
-2.719288595416856
-1.8633556500769828
-1.1449258311381527
-0.6032943598556813
-0.264901370728694
-0.19585837743989032
-0.45906952913219357
-0.8712597599924266
-1.3913415786660153
-1.9801903982843214
-2.5408821653463747
-2.8964207675930993
-2.8900601156503853
-2.5262915706641706
-2.121533320385197
-2.532252221993758
-2.8907121311724495
-2.8987571885313628
-2.5374927634034066
-1.9816009150790705
-1.392260119654111
-0.8717992749238874
-0.4549161956531407
-0.1954473002138002
-0.1030444877028458
-0.2558965719317712
-0.48318249868316343
-0.7647568826164388
-1.0069767787063029
-1.1419001866429426
-1.0585011062942158
-0.7586207447432116
-0.4210348872520626
-0.3935566159443624
-0.4242626042387201
-0.7486488824995376
-1.0576749161771204
-1.141599723913032
-1.0060112566018233
-0.7550848109337949
-0.4846276830523948
-0.25225413332373137
-0.10359635804923073
0.002930059931713913
-0.013752912335803558
-0.02807591844248236
-0.009382603512676724
0.0767359797082463
0.29464632211511343
0.6449681968708774
1.0150031908042365
1.2784681248735978
1.4109093693739396
1.2759579914925325
1.0174830834459954
0.6409674511876347
0.29871345482683864
0.07944612681001217
-0.013319697760380222
-0.02844446418453117
-0.015398459178527446
0.00549666158576656
0.1196041315029106
0.24709909980856537
0.45273792650368705
0.7439987308521268
1.1325937748547403
1.591885849898972
2.0728490980732204
2.4911122973851434
2.7710355235085444
2.8595115132973206
2.7732367497749237
2.491293028924474
2.075179085230957
1.5875179115860192
1.1304256642858945
0.7458791875585575
0.45347124826514573
0.24465829845610187
0.11311155003420481
0.21705791346221304
0.4838523121866274
0.892498559852811
1.412962270630942
2.0141205896975407
2.6442094626384005
3.231868835117666
3.7063373737253187
4.014448486869242
4.128321217730445
4.0185540492252585
3.7062690502557416
3.2327827465517203
2.643528792539655
2.015069323155558
1.4110207062459494
0.8936355392895621
0.4895051588205206
0.22050375949800127
0.2811698724171947
0.6342073557702861
1.194798086449282
1.8904242667254039
2.6659926906627334
3.4393338405075156
4.136712882268284
4.683785386886484
5.0418908856988764
5.156070947900844
5.035527212078705
4.682147812281073
4.134491542692331
3.4376794964625788
2.6641571330522993
1.8851313054049115
1.1909516116636496
0.633690118731522
0.2763341007847657
0.27012868437259385
0.6722413133979899
1.3217179314647183
2.140948283945363
3.0470238943148615
3.9450291509799627
4.745917244628799
5.366605130950347
5.765312642849722
5.900758953287323
5.763123639767855
5.366828513592054
4.743783192286855
3.944814149381955
3.0451289320465094
2.143069643605145
1.321200853219466
0.6731390766893242
0.272045188793669
-0.050559066182813694
-0.0010875734324145014
0.04836456070506756
-0.04431033610899249
-0.00042353860726507264
0.04345811508892439
-0.04121870372682679
-0.0025406665458831412
0.036053035800250655
-0.024247891856248316
-0.0015148593729463755
0.021172923897665896
-0.008254056225268869
-0.0009199865066875645
0.006388640123077494
0.00551063637885818
-0.0005948971547695692
-0.006710320703405159
0.0206775256583569
0.0016689425569893501
-0.01730108066340108
0.027080282044607884
0.0008430311804659141
-0.02537030796702311
0.035186152120331826
0.0018458606791682541
-0.03144541665005818
0.03361106172633299
-0.0006730861023243051
-0.034978451117240184
0.030853098058742034
-0.0006801638246543007
-0.032231304575816466
0.025238840186830203
-0.0006699499554088106
-0.026605327952893276
0.019848432926664827
0.0014499231388072076
-0.016899456944429403
0.007075279023865733
-0.0006432797194975137
-0.00837810012171758
-0.007463535119313747
0.0007238710195451858
0.008921005891352252
-0.02135028073553258
0.0008200637676054612
0.02300820225264033
-0.03493882668999504
0.0004930803770548664
0.03592924496297201
-0.04384927275305017
-0.000817318839381187
0.04218470360910942
-0.053465464823602815
-0.0011439226041147776
0.05114631742662823
-0.16979603222080186
0.0009065201847988646
0.17165174343563194
-0.3606013787775737
-0.00041861952922772616
0.35976220205520804
-0.6552699074113661
-0.00014447078865487128
0.6550174378821794
-1.0308807140395402
-0.0008646798382869747
1.0291471983969132
-1.449055341996882
-0.0020487657498051703
1.4449281630604673
-1.860826452669471
-0.0023968809173311456
1.8560381830736787
-2.2279385845104116
-0.0036707522403958137
2.220564238353518
-2.50995832630565
-0.0036000506531763676
2.502703826452489
-2.688855334431537
-0.0013895590541324054
2.6860932415750085
-2.751521181567341
-0.001993048977737999
2.747522119948826
-2.6923810124087595
-0.0044194545628215565
2.683470570932741
-2.5114361952380477
-0.0034791058062637603
2.5044510029147204
-2.2274540922783217
-0.004127692075826417
2.219156474502938
-1.861742095339423
-0.00265758577336328
1.8563887045983165
-1.4517463686727297
-0.0019431536484262324
1.4478259802945104
-1.032086685316358
0.0004555174020879349
1.033044644956135
-0.6543138557101997
0.0016301206729281148
0.6576294917480254
-0.3608552664968556
0.0006786203451838446
0.3622420254741314
-0.1692894027769256
0.0011470691945874023
0.1716313520073527
-0.05289282776364246
0.000693577228176423
0.05430081904937367
-0.04605572711255945
0.00018706926971390203
0.04643374257256028
-0.035516419449209025
-0.0001858402726497843
0.03514806704890816
-0.019593895571347275
0.001344779568512422
0.022320499396300875
-0.004477836279988878
0.003101648751112407
0.01078130502185104
0.005316542635682708
0.0005518845092638003
-0.004180598166499294
0.01556196243393515
-0.0009927728451657458
-0.017578746525828137
0.02229028158762958
-0.00153654257587732
-0.025427569496969227
0.03146996271061653
-0.0012080955489182088
-0.03393006669330134
0.03442308342096112
-0.001580291401296563
-0.03761674439124363
0.03157124720996762
-0.0009113632474964106
-0.03340111228658316
0.026805693352116577
-0.0014045939062725665
-0.029662102361953657
0.017370417241409086
-0.00024777262592579063
-0.017861746850257987
0.009261007939812771
0.0017415708637145144
-0.005712299066090054
-0.0071430998177675065
0.0006617881231250067
0.00847357949032812
-0.021194853671659075
0.0001772661730683467
0.021541223014992283
-0.035287349864574935
0.0005926681701566849
0.03648777401804182
-0.044195082044097944
0.00035057246623182436
0.04488660082461138
-0.050748412903885765
0.0011882358571710938
0.05316485272214777
-0.17458801864540874
-0.001052073631399253
0.1724880036704235
-0.3579339990255903
0.000776933874021779
0.35954091329085713
-0.6539382208311508
-0.0006440593465413258
0.6526629697996214
-1.0326704198619154
0.0012697626984845556
1.0352754444479615
-1.4503965315548157
-0.0010755693651844922
1.4482349838676782
-1.8576192622576855
0.00012127478794354829
1.8579082833643952
-2.230580414709948
-0.00382470976546756
2.222856092520942
-2.5132118185788386
-0.003111331503987458
2.5069295159655667
-2.6904245372729747
-0.0026347891325713135
2.6851215831502486
-2.751418756187377
-0.0019589603975873615
2.7474697130824097
-2.6897444956789514
-0.0016411474157393968
2.6864667074532917
-2.512189624342682
-0.002378504932494252
2.507396196865102
-2.221049978233168
-0.0004140534138059593
2.2202411465509613
-1.8607678033731645
-0.0015826885673959623
1.8575891904852142
-1.4508711237886018
-0.003446591898409679
1.4439369134988738
-1.0326614373184384
-0.0006370315109052171
1.0314194283942015
-0.6565164496978468
-0.0012884194884463795
0.6539302743321969
-0.36179696558338037
-0.004174046970092604
0.3533459952323028
-0.16993561979279548
-0.0009984844550672278
0.1679447532164886
-0.13303180504999546
0.00030603464529121993
0.1337132463108901
-0.3370276372056651
-0.0007142831882447354
0.33559137594738786
-0.6598845186786093
-0.00015990288329703617
0.6596130205007285
-1.0731295088858133
-0.0013800673773403105
1.0703448726717397
-1.5287593142138576
-0.0009827731150835461
1.5267882247107991
-1.9791055729042455
-0.0017552552963024937
1.9755102426934172
-2.377112433372986
-0.0021427662991300167
2.372730539273107
-2.6911343977758406
-0.0014270681649577455
2.688278499878834
-2.8907059752568784
-0.0019374782295926707
2.8868479410248256
-2.9576118705053887
-0.0022930715194888762
2.953002856184412
-2.8891692546567356
-0.0019107182292827929
2.8853186219807867
-2.689463391146546
-0.0016883484709069307
2.6860670178339205
-2.3777007528487957
-0.001745968378145335
2.3741811000427333
-1.9777736596061004
-0.0013534694198824582
1.975084240376873
-1.5265774680883624
-0.000545394342225336
1.5255274210398966
-1.076662596180995
-0.0019042890576201899
1.0727930901880427
-0.6599657284946261
-0.00036362057289807126
0.659298074842809
-0.3361355740817089
-0.0008126580255520821
0.33449771952018637
-0.13416234242868086
0.00036582681013896945
0.1349728142067761
-0.13924836272099128
-0.0005321916351022082
0.13814840283885133
-0.3188310277682831
-0.00020072032702955767
0.3184421140313134
-0.5993993673037039
-0.0008618892602498818
0.597694285727357
-0.9460046630797478
-0.0005565723690779123
0.9449031608673977
-1.3336634542524735
-0.0007895844823906373
1.3320707095044781
-1.7241775171582958
-0.001136779481839767
1.7218929834634764
-2.0741232186042
-0.001783356244686729
2.070506766354356
-2.348981682897829
-0.0017062097676898702
2.3455756772737004
-2.5251985202353353
-0.0026369586166765657
2.519902422182895
-2.5859821540166195
-0.0027738686276279623
2.5804154231855136
-2.526685553855259
-0.0021624582577715046
2.5223946170190175
-2.3495328636890918
-0.0022121355355011474
2.3451024121291084
-2.074101189961766
-0.0017914946715791302
2.0704978476132965
-1.7233875505849028
-0.0013981945630803239
1.7205543421137008
-1.3354068997241484
-0.00044002459071634803
1.334500631370247
-0.9470999133591249
-0.0013571883264376083
0.9443160228106535
-0.5968728936363732
-0.00082740767084033
0.5952166820520688
-0.32143774121868773
-0.0005315596908985754
0.3203375539433182
-0.14004918381442621
-7.584337527077878e-05
0.1398644980286008
-0.11357674848977695
-0.0004619676587935828
0.11256720081655658
-0.24188110553905062
1.7198501154780388e-05
0.24194736835852382
-0.44760362122860897
-4.740224312627106e-05
0.4476077799545237
-0.7074905952590598
-0.00090262221510784
0.7056707914803155
-1.0104688791366243
-0.0012119343787162506
1.0079935673029468
-1.3267641642532908
-0.0010524744957365328
1.3246533725168774
-1.6240948605841368
-0.0026239925800837227
1.61875730459451
-1.860878043567027
-0.0031251934733518283
1.8545350513313679
-2.0137139382759415
-0.0014217723892215872
2.0109592391800106
-2.067075297899919
-0.00258652752972921
2.0619608873957986
-2.0118825500112507
-0.0024424255757367064
2.0070371213992075
-1.857011819044601
-0.001986900124393287
1.8530471515887257
-1.6203813204497237
-0.0007617736901011085
1.6189248481323375
-1.3235393198178826
-0.0014834200051154767
1.3205112161995203
-1.0121891285539277
-0.002333244934106915
1.0073507423712726
-0.7077869319305137
-0.00048381430315203033
0.706785391053927
-0.44620955696473175
-0.000978882868821529
0.4441769799236681
-0.24178138248680625
-0.0007634969147147785
0.2401929917009511
-0.10835779837134396
0.0001805967199288716
0.10875500104475577
-0.058985973938433744
-0.00042009596927528037
0.058060175605533004
-0.12307857221412632
-0.0002417068722024851
0.12253308698836918
-0.2284122098581065
-0.0009839488848228939
0.22634702755976832
-0.3759357803023704
-0.0009368284290758311
0.37399290355733683
-0.5637773693174495
-0.0006691374892398017
0.5624022400111244
-0.7985793098423528
-0.0014640327772212913
0.7955955775323673
-1.0418901419147915
-0.0013962920852463867
1.0391075483184977
-1.2527473771092446
-0.0025770419370019226
1.2475682838003195
-1.395204309285873
-0.0029343111013986345
1.3893681629551793
-1.439829486934741
-0.0032096268528221117
1.4334622509704786
-1.3924203920105356
-0.003139250375170377
1.386108314943158
-1.249231684075312
-0.002638542991007853
1.2439181080794697
-1.0377455067468873
-0.0016941528724601085
1.03435047947778
-0.8005028904226492
-0.0016570251577832096
0.79715691724914
-0.5643899939705079
-0.0015008305590527016
0.5613491271274142
-0.37364894679740246
-0.001076222506526392
0.3714602767258839
-0.22709325621553944
9.317711283074459e-05
0.22727380636933958
-0.12360612052953002
-9.945556575985393e-05
0.12336552530905465
-0.056726659675405244
0.00032320616992365103
0.05740971884233659
2.5145280233118683e-05
0.0002741456819421728
0.0005256989434201387
0.00683588176025296
-3.284188096586149e-06
-0.006868665146157582
0.011786616254084947
-0.0009638293713578605
-0.013830759176016727
0.006791707499814947
0.00044376937967172125
-0.0059034883461208665
-0.03954146999240038
-0.0008664651973049331
0.03773456875978809
-0.1505441860385872
-0.0012174801531728008
0.14803155136996793
-0.324359051439842
-0.0015299958708965278
0.32126587985794686
-0.5148398146834552
-0.0031508185784332454
0.5084922394485147
-0.6476767921380997
-0.004495767071148293
0.6386723258242455
-0.7153753124912328
-0.004241712657858443
0.706870417879145
-0.6487633388815084
-0.004001123001671658
0.6406906590168546
-0.5145313513794463
-0.0027132690984217334
0.5091061125904162
-0.32341728341361886
-0.002208078912644851
0.3189976251783264
-0.15025769285011847
-0.0011972689808317227
0.14785503946268364
-0.039496442867857695
-0.0005663562483277929
0.03834072626386842
0.00907092802981424
0.00047251105161194573
-0.00803472756570045
0.012386749199777114
-0.00030894843712303555
-0.012954087883372267
0.006136742088983738
-0.00040261936464958126
-0.00698058971829596
-0.0034553194623185846
0.00021922627638559788
0.0038960241317909095
0.05248185771142744
0.0007450722241628682
-0.05092408805194282
0.12741751053499684
-0.00039159611515060533
-0.12825332141756007
0.2409630974866559
0.00023560643603559583
-0.24053562102108117
0.3796059016117397
-0.00015634123928975896
-0.3799771514436543
0.5021846206818736
-0.00033883054538819124
-0.5028966728955311
0.5735300599480979
-0.00030196827356121503
-0.5741671105765818
0.526301547346975
-0.0013067652644167538
-0.5289389782569742
0.36923626221641825
-0.0031789677987035247
-0.375603064756433
0.20412017012085926
-0.004340732555192517
-0.21275423285396755
0.18430624069151236
-0.008199944086300093
-0.20066844825259977
0.20294028253783836
-0.005039565659899381
-0.21301473582252584
0.36704633132148956
-0.003455639673575206
-0.37397916178315427
0.5274015134264118
-0.0005943643436694401
-0.5284769676800352
0.5714328095391465
-0.0003323751548123255
-0.5720264269375548
0.5047792895002203
0.00046901126643206226
-0.5037698383712268
0.3796794974018667
0.00021923830399828148
-0.37918420184951174
0.24313802020765252
0.0005251899453924125
-0.24205638845432986
0.12877558796390076
-0.0002043053000306827
-0.12919339831955767
0.05096666967551755
-0.00030106549684205675
-0.05153676542249741
0.09543912640174312
-0.0005117326268191391
-0.09649743406225753
0.22911590926378267
0.0007374273845925927
-0.22762705904915492
0.4342752608554292
0.0005159513498256274
-0.43330045990842336
0.6958709872119471
0.00034618965264598955
-0.6952206540131556
0.9944053642038853
0.0015979942604644748
-0.9911222600121619
1.2742652281399387
0.00018722406684901216
-1.2739372429127798
1.451857482566993
-0.00042031743805637234
-1.4526672100869291
1.4416436988799433
-0.0014191846667017671
-1.4445048682214292
1.2507833276808924
-0.009298712244344642
-1.269440394179128
1.0483818955044626
-0.00712029420219551
-1.062791557516448
1.249166331277138
-0.009023297438488953
-1.267226788357675
1.4427060484135836
-0.001047618257416616
-1.4448417349240117
1.450134144853564
-0.0012068163555341016
-1.4525518630043734
1.2727025782237433
0.0005512013638053759
-1.2715397704093903
0.992770199481356
0.00012178193696854578
-0.9924968968446137
0.697097536218962
0.0006770385220988828
-0.6957200983370058
0.434885205467026
0.00031433480694431637
-0.43429108103032377
0.22871255480731634
0.0006597742326448497
-0.22733643649462465
0.09600129695422766
0.00043060764528490836
-0.0950635314829924
0.1279250323004817
0.0007555091638096201
-0.12632616821292686
0.3006069174030017
0.00019279973639640957
-0.3002394607497081
0.5749761535330435
0.0007089395403454546
-0.5736276009192807
0.934884445339776
0.0007888110599196807
-0.933359158874282
1.3608785017659102
0.0009617946129765187
-1.3589696954636565
1.8374986919056937
0.00212332147430061
-1.8332180854581566
2.302510480591536
0.0025089290134019393
-2.2975007591826397
2.6141680594168974
-0.0018104686064361886
-2.6177253464793466
2.6505875003290384
0.0030971209666859068
-2.644440978140665
2.5443161415328177
-0.06515789522472915
-2.674347973867043
2.6480290140170837
0.0032302754761985852
-2.641636006317185
2.616272155033812
-0.0016449690208446555
-2.619527919877555
2.302882839619542
0.002621082010136888
-2.2975962750667804
1.8366715299409861
0.001000533481601451
-1.8346526710945454
1.3605401251616058
0.0016947430867730873
-1.3570932523225565
0.9339861188464056
0.00112011110968524
-0.9317495656989649
0.5764681377622765
0.00045683597500101314
-0.5756220104008207
0.30162477700901036
0.0003700373733863671
-0.3009136332361777
0.12826170638777512
-0.0006017183154654049
-0.1295516226939526
0.14963564877143654
0.00020400765470185434
-0.14919633040653935
0.34528214393048984
0.00077470212136177
-0.3436744019577418
0.6589899816599427
0.0014891864207129402
-0.6559865571521186
1.0753116693067568
0.0014657886467830394
-1.072399145091822
1.5850582262883108
0.0027686956054822076
-1.5794049478308807
2.1812124026942
0.0032236529359579436
-2.174727955299204
2.8730539411390055
0.006157289228667651
-2.860734226247132
3.6225977093981783
0.006881141823214421
-3.608895001340443
4.300727114809888
0.017308739302734466
-4.266064924321199
4.692896880407716
0.01595836016940666
-4.660819220611302
4.299881024742717
0.01668786226764496
-4.266608941489494
3.620245794779521
0.007491345662629101
-3.605312037657086
2.8705464602039683
0.006422983192578613
-2.8576452655968296
2.1809940124053355
0.0037573285110283905
-2.1734188816426467
1.5832736463571564
0.0019595488743107126
-1.5793723959404815
1.0765723430029084
0.0016236669439422258
-1.0732855051321621
0.6585467749239342
0.0005700026517843071
-0.6574379586299983
0.3477185972240022
0.0019612542646427755
-0.3436931846827065
0.15113992998567483
0.0004666822871968179
-0.1501950689680598
0.1551209286512858
0.000323915586250223
-0.15448763201266047
0.36101951345062844
0.0003641550042630115
-0.36033830542373835
0.6881896761756252
0.0011660982581815915
-0.6858402658263003
1.122732991480916
0.001723991340440989
-1.1192555923403233
1.6576636579584374
0.003126420090211468
-1.6513557510070314
2.293926201656177
0.004443815224931313
-2.2850813262339216
3.055028502945788
0.006419490173811937
-3.042153173636507
4.043364791102249
0.021201512407969858
-4.0009348285511805
5.155513767111643
0.015603329468831362
-5.124178152133027
5.69111440896495
0.16044547129058628
-5.3708712617738
5.1556103684001755
0.016106979431697255
-5.123270454260592
4.046036087062703
0.021139664523389
-4.003743302257362
3.056386969980622
0.006622556785714551
-3.043082705107963
2.2973044834100165
0.004352174103814832
-2.288600787248015
1.66219830931891
0.0023601847028658085
-1.6575271786196026
1.1253882060459546
0.0026304803864150017
-1.120092018539026
0.687121555905378
0.0005352871735340159
-0.686126897011718
0.3603107139745134
0.0010510789381896757
-0.3581759143955878
0.15666412998302803
0.00060232783016545
-0.15548049431072286
0.15083013282992397
0.00042191045122308424
-0.15003399329634703
0.34559413145279905
0.00033589350459806155
-0.34499000900359533
0.6614121120855998
0.0018583716432658548
-0.6576411526593802
1.0768626890335327
-0.0002240500289190095
-1.077414175193553
1.5839434292361148
0.0031554429569951026
-1.577561040369801
2.1811923054392537
0.0032000765813791077
-2.1748806528130444
2.871939030228532
0.006592312935026712
-2.8587296685946058
3.621640929601199
0.008268297542599612
-3.605091789252583
4.301260344449474
0.017516239363658315
-4.26621016273225
4.69179860729605
0.016550464050851588
-4.6585036124060935
4.303273871886631
0.017533000284174705
-4.2682284291336146
3.6223687420524584
0.007595783253009358
-3.6071623225018357
2.870748298268836
0.005973651310796413
-2.8587262783817096
2.1810605767711877
0.003733262871946863
-2.1735675314464515
1.5832984876699356
0.0021228478735793033
-1.579106333164873
1.075871463338217
0.0012537454617813637
-1.0734218392601633
0.6615956449052192
0.0010765118918243388
-0.6595084930659141
0.34459474665936796
0.0007250011108226317
-0.3431221973373795
0.15048007590985435
0.00023047989498081733
-0.15007291019696822
0.12996525303378803
0.0001601690628376673
-0.12967338995849786
0.3016860628076756
0.000990092150914279
-0.2996494881972467
0.5736649991267768
0.0005536610365197703
-0.5725295880201884
0.9347198081004535
0.0015278397549991496
-0.9316199575941937
1.3611648359096762
0.001023206169520563
-1.3591547983160126
1.8358299842211636
0.0015267282715285546
-1.8328236481288513
2.3004960041430422
0.0017748658624441305
-2.297053682330443
2.6163369319037884
-0.001654557443316662
-2.6196163765985148
2.6504895247796867
0.002816081041828511
-2.644939290888942
2.542686456536785
-0.06587485208046928
-2.6741730143849054
2.6520193605574605
0.0035238098978425114
-2.6450373725349436
2.6143309278427296
-0.0019098445898180216
-2.618077119543841
2.303683799834971
0.0026357605033808795
-2.2983262878126425
1.8361065232641067
0.0012064392512911581
-1.833714445025862
1.3641601450724465
0.001937370515179282
-1.3602861164151818
0.9338625932475679
0.0009642167169658933
-0.9319733763900331
0.5734204059856438
0.0005698238539935119
-0.5723322670298785
0.302527561431134
0.0008368896781121293
-0.30083618612775354
0.13052550257316398
-0.0008347985653927026
-0.1323290508496484
0.09808974993393349
0.0002608698828225897
-0.09750162889167768
0.23033325800861348
0.0006158797559692175
-0.22900478118344836
0.4354496950390967
-0.000224955203520949
-0.4359356093673341
0.6984530076442752
0.0012149072699685348
-0.6959212260394452
0.9918846350833519
0.00016296661442538607
-0.9915878859351324
1.2736538392782677
0.0004948920454808103
-1.2727191212829894
1.450241277094392
-0.0006697770140817738
-1.4516017527084841
1.4456042715962667
-0.0004558299997370341
-1.4464289708334945
1.2484202276193628
-0.00899895918087168
-1.2663820323846267
1.0514477099657142
-0.0067280442970059084
-1.0649912565156683
1.251039027517436
-0.009125550976250452
-1.2693179967475317
1.444910729572939
-0.0010709473540373438
-1.4470340574307556
1.45044724815898
-0.0013052032020368642
-1.4530760858815484
1.2708936527192236
-0.0002508898191990738
-1.27143537599909
0.9925264872874777
0.00013930618297308683
-0.9922905519620144
0.6989343122440914
0.0012952750155363901
-0.696308032440129
0.4362901653832978
0.00014083189921620942
-0.43602464984041944
0.22771277612662288
0.0003383982880222902
-0.22705537204262782
0.09882515923470692
0.0009414627839987588
-0.09693497859132094
0.051703793206797855
0.0001905588355839427
-0.0513010283902986
0.1271396518172878
-0.00045061954551783856
-0.12809740536249592
0.24193345398816746
2.4189523173845373e-05
-0.24187609065620563
0.3837411975205214
0.0003596247470341041
-0.3828952679609756
0.5051551009946706
0.00035056574779446237
-0.5044604363247345
0.5708502371990107
-0.0008379480896110181
-0.5726392491105798
0.5275373155925536
-0.0014562096889676468
-0.5304636449093323
0.3734842051596843
-0.0033307984649582068
-0.3801079394822864
0.20300699316589998
-0.004149569681885623
-0.21122741025624236
0.18166211721450054
-0.00841654277132875
-0.1984610358124428
0.20181043498837425
-0.005874964879694744
-0.21362891959620356
0.3690199588156702
-0.002994861202296306
-0.3750129075979203
0.5277600329784491
-0.0010874794877508975
-0.5299006495183676
0.5711649872871476
-0.0006449664117553766
-0.5724499138070769
0.5052003937446443
0.0006362193539644068
-0.5038938514123856
0.37711219865275325
-0.0007017895819672049
-0.37857819647342694
0.24363660266976694
0.0006317439928125168
-0.24230364254901815
0.1269120959140082
0.0005391821601961055
-0.12583276328700777
0.05095655485865791
-0.0004294452343174271
-0.051863186633681835
-0.0025123680170509033
-0.000650270620099036
0.0011261040453973692
0.007568620584152086
0.00037925708920738543
-0.006816394176439644
0.011855449659833539
-0.0014828451344328641
-0.014963803171667678
0.006466992656896764
0.0008529731562703091
-0.004659307894598896
-0.0394966818435023
-0.0008794320947345113
0.03769316406805956
-0.1493555479692077
-0.0011846840980069828
0.1469684610792683
-0.3252338179488561
-0.0012598373295986676
0.32280872593628374
-0.5132293440449303
-0.0027253024256879144
0.5077944650681729
-0.6481467612538836
-0.004524007551935938
0.6390786917390869
-0.7119171653125704
-0.003116904965509093
0.7058037990223056
-0.6463698945240139
-0.004194443296000827
0.6379814509582502
-0.5132983868043084
-0.002026742180078145
0.5093338879432849
-0.324871072051792
-0.0022149562842059822
0.3204129648236176
-0.15053122038307265
-0.000668581224999798
0.1492103887637768
-0.040716281411960153
-0.0008335026576560267
0.03901629088261416
0.005422653112646003
-0.0010020769201446456
-0.007483807859898661
0.01478236992602433
0.00019727989865714335
-0.014354577202993823
0.00868765994334808
0.0005624977281968313
-0.007537828974363947
-0.00371829060361506
-0.0006622473248398819
0.002360712533345577
-0.05966934947127811
-0.00010075733234771178
0.059499625664102496
-0.12301476761513186
0.00017332008883386152
0.12338910349899379
-0.22753254000099332
-0.0006815509568696143
0.22606221889145672
-0.3736311492002642
-0.0009105343256123888
0.37177789871066125
-0.5686761427605234
-0.0011533999863786448
0.566354627099372
-0.7992570443784643
-0.0013543990730795485
0.7965601069367949
-1.041178201597404
-0.0019067128037022485
1.0373826907618877
-1.2514476584365184
-0.0023629426968909684
1.2467405897818935
-1.3923362383081894
-0.0027972701884664275
1.3867780962409597
-1.4388486369866769
-0.004075839697861738
1.4305944420700598
-1.3942163138840442
-0.0032342482386411575
1.3876662707618834
-1.2514893247587224
-0.0023665096946388076
1.2467998617653393
-1.0433364601751691
-0.0025178616747325577
1.038257359663021
-0.7972247857461525
-0.0013835684671903437
0.7944201549516947
-0.5674288756171109
-0.0010121346373352935
0.5653700058277309
-0.3733887165449232
-0.0002088590663333889
0.3730179070392978
-0.22715207405292404
-0.00032477927493346215
0.2265280835995327
-0.12262133201284087
-0.0003158657766562101
0.12196284957076386
-0.05651689787509895
-8.016080062134279e-05
0.05634651131026658
-0.10833745441368592
-0.00012056444120389642
0.1081074224330223
-0.24220962422259618
-0.0003599490369197156
0.24148719726417767
-0.4475438393656077
-0.0006764602430848754
0.446138097615858
-0.708424359361743
-0.0008134860695463431
0.7067910578703049
-1.0102838574562156
-0.001265000052171672
1.007774280211379
-1.3272318735484987
-0.001985663509913138
1.3231905817690404
-1.6208897067101589
-0.0015367545954632078
1.61781974940277
-1.8590126230903934
-0.00185679917831294
1.85533587982286
-2.0147226609328754
-0.00272207198668184
2.009241688448128
-2.0701903856995614
-0.0017694199793822918
2.0666500614033794
-2.016724091521155
-0.0026741382569070993
2.0112957821659165
-1.8603202958699967
-0.002693720867000593
1.8549011730030998
-1.622790918177543
-0.002434295679222487
1.617852915291678
-1.3251407982646697
-0.0008742537025909769
1.3234026812561979
-1.0110056891011254
-0.0013266727540894863
1.0082751070922313
-0.7070686965250843
-0.0005635732334212662
0.7059553583216029
-0.44920612599378273
-0.0014218215059145223
0.446313355526172
-0.24457642239804045
-6.277506895457918e-05
0.244433427734009
-0.10968209248585481
0.00011695805977751661
0.10993742206369461
-0.1398742065875922
0.0001693893991614459
0.14025798474085605
-0.31799083887153756
-0.000661586523619917
0.3166788456160248
-0.5988778657088005
-0.0005898875137972936
0.5976326564273222
-0.9476249272438508
-0.0008660850357955496
0.9459132221668369
-1.3343818390258093
0.00020175771078356775
1.3349016090710393
-1.724479264634283
-0.0014475954708359495
1.721524807959213
-2.074350700588866
-0.0018765252195862558
2.0705689492108377
-2.3493409530769895
-0.002550352904790998
2.3442181680504746
-2.5286165460900065
-0.002530664072764921
2.5235009013515537
-2.58523098473097
-0.0021474536251844256
2.580900346479666
-2.525012519299935
-0.002195509442799448
2.520550076557811
-2.3481135236304453
-0.002238180504491538
2.3435992977747446
-2.072542276229683
-0.0014388915750487286
2.0696841382157345
-1.7238151166832267
-0.0016159345847199802
1.7205949059250543
-1.3349734138762415
-0.0006855482455421225
1.3336054573022693
-0.9454167795007606
-0.0010795753084948956
0.9432352394511554
-0.5959703358765296
-1.619945140873824e-05
0.5959863934331224
-0.3170286393668107
-0.0002124488757999643
0.3166387826163941
-0.1391237661769651
-0.0008407315739873411
0.13739473252257994
-0.13507169137756136
-0.0005553358491852123
0.13396652694700606
-0.33630893247118365
-0.0005535539189622796
0.3352499725506277
-0.6618249229181856
-0.0005550998380385863
0.6607601640675966
-1.0733591417952084
-0.001099192896617751
1.071118808974461
-1.5292096677999325
-0.0021880364679418562
1.5247164070433428
-1.9764757839725462
-0.0005457248325910768
1.9754614428095465
-2.37920959553594
-0.0014858264380563924
2.3762845488506628
-2.689845230055198
-0.0012541133114609693
2.6874229186360026
-2.8908245520315177
-0.00200788908909999
2.8868229785373387
-2.95918713822698
-0.002274175376214771
2.9545850320089357
-2.890139091566425
-0.0021819507298914687
2.88569803781661
-2.69037676468497
-0.0014738614383986715
2.687453730932475
-2.3762730226659414
-0.00032941517827111966
2.3757704974303806
-1.9775148853900646
-0.0012526110524504475
1.9750266199845328
-1.5273370875166847
-0.0016268722830545812
1.52403399137836
-1.0732053014556868
-0.00036815991848015983
1.0725016356269634
-0.6634121212698005
-0.0016643338361177484
0.6599995451221616
-0.337052944962295
-0.0007570186184011618
0.335581912432076
-0.13588640086311443
-0.0004773485987357162
0.13493374931309177
SCALARS strain22 float
LOOKUP_TABLE default
-0.21841682415106334
-0.20962840513675474
-0.21098510911514268
-0.2108360041056585
0.21416713692451594
0.21125069031040766
0.2128402365619877
0.2168702686794859
-0.34602635992632713
-0.7157622077720589
-1.312793406243145
-2.0640461111906916
-2.8938155812065816
-3.7177602014271542
-4.435613497149461
-5.00713921294664
-5.359718280848028
-5.49477598127487
-5.366213790162874
-5.00958566708141
-4.433787092490093
-3.7100074215850327
-2.887497834799433
-2.0626464030283387
-1.3139079710999795
-0.7176015061268117
-0.34973001899561496
-0.09833840708961361
-0.090721772165125
-0.06920194435224403
-0.0375425420825195
-0.006494416236819234
0.012595657593919896
0.03251541686040582
0.059600394139124546
0.07274275562849652
0.06884831296702032
0.06475603355647763
0.05805341100312944
0.03762376818121993
0.014696105377879576
-0.013127720950251387
-0.04089031874718785
-0.07060881002507813
-0.09274631247581056
-0.10498424731531486
-0.33943298021358714
-0.7245478510876637
-1.3138175572662476
-2.0634750581884873
-2.89243985030771
-3.7089326920677195
-4.442504601685869
-5.0094364716387645
-5.365533970110846
-5.484284691583525
-5.360881647688075
-5.010400312376078
-4.438323914862849
-3.7126108967095206
-2.8886050958135456
-2.061749684417009
-1.312276430086058
-0.7210194516301272
-0.3473892130677996
-0.0983931039190793
-0.09000290001131361
-0.07253315372145153
-0.04753303492179839
-0.013507793213648256
0.011218692052352708
0.03468159142357763
0.060245945875067264
0.06728273872067803
0.0650877406624204
0.06305344535940094
0.05497084207308944
0.036107708136114525
0.011605457992118318
-0.013438099616905674
-0.04286008747294545
-0.07620418356236769
-0.09282736564637162
-0.10469659859518288
0.3432211003091652
0.7129437048060936
1.3096995263840654
2.0604208681106684
2.8917780768606463
3.7104258208382817
4.431533009788836
5.002881365398935
5.358915883549344
5.4913189734797925
5.363874785281951
5.007810608967702
4.436059174942784
3.7083234060519317
2.884330692657386
2.0645731735894515
1.3079906145721907
0.7114854604915308
0.34509631903711124
0.1016310445338604
0.09503804240375757
0.07619123904805747
0.04286407758263522
0.010041626665042713
-0.012933053632878
-0.033662111636658665
-0.06040514043525036
-0.06930912461211847
-0.0636872850554937
-0.06729891713075631
-0.05809670299640857
-0.037593146169456304
-0.012382094438180502
0.013402824828517623
0.049790256113737996
0.0738296676427126
0.09665928491813247
0.10468826304645518
0.3421422846222413
0.7228041992561884
1.3133428789960817
2.0650452248974034
2.8945829148015036
3.70663444634647
4.43817851959102
5.00477233863603
5.360775220202413
5.482322519252193
5.357695707996754
5.006526488596137
4.43085198708286
3.709059536413406
2.883087233571132
2.0596776630227396
1.3143728141913016
0.7220124988816679
0.3484615045163082
0.10649722258312977
0.09446898059832165
0.07217497625606484
0.05073881962016458
0.01325368091420387
-0.011365102353011025
-0.03556921316339867
-0.061027911528071854
-0.06550082566900528
-0.06138484562325175
-0.0630005395214539
-0.056723056975897634
-0.03414389399040374
-0.014699742911034264
0.012037588152452372
0.04384357199887745
0.0770962446113117
0.08819347726239357
0.10280581021652324
-0.1096048043036717
-0.002082468388834968
0.10541828191344393
-0.10378523580584442
0.000808665543445386
0.10540411400506855
-0.10441073483070795
0.000914485358237016
0.10624617484108967
-0.10332618033135077
0.0029505954516935162
0.10926095929607982
-0.26927560466720024
-0.2786885506720864
-0.225081422518997
-0.11714143178687664
-0.006959996873774799
0.10454517741163727
0.1961237306604744
0.2634032560090418
0.300216652060044
0.316296937129664
0.3070527607596887
0.2611811833594402
0.19206758153086412
0.1092748492701503
0.0005833669820276555
-0.11776309327251511
-0.22593168775347294
-0.28024029890002566
-0.2725733546394622
-0.6757453820682713
-0.6339296735168318
-0.4848043998936191
-0.24357457400401472
0.016782335802417947
0.25220409068788285
0.45498569979099557
0.5980698170242249
0.6897132359190437
0.7223298385069938
0.6906167798078968
0.6027321092005877
0.45294446819025325
0.25083009092122666
0.012325056675763335
-0.2436365646608465
-0.48140213418082567
-0.6381337574566714
-0.6734230926485907
-1.3292324687790824
-1.1933333641063655
-0.8962237578343775
-0.4500030315830372
0.027050149790738942
0.4828406921806163
0.8645617158363166
1.1489068386472354
1.3213828125481086
1.3752383366736467
1.3201444595179055
1.1511426241231675
0.8686838227804401
0.49190558110785787
0.02591824119008379
-0.45385503879515454
-0.8923023970310169
-1.1932891870274034
-1.314117014007934
-2.1355271880238433
-1.895887458093057
-1.414536274063721
-0.7489291377205518
0.012427609017322538
0.757326932867727
1.3912922320887446
1.857836545772443
2.1499971644661855
2.24423326075339
2.1473587304499233
1.8669865580595797
1.3958697804591793
0.7501770269664121
0.011358815332641825
-0.7439114228582184
-1.4107042737014126
-1.8914005864462524
-2.1430868532515888
-3.0507638356539246
-2.6612426409847103
-2.0151503828019486
-1.1292855926621996
-0.08138625882565975
1.0092206948975218
1.9852549161732895
2.7133996491975267
3.1651866316351516
3.3114667436711898
3.159051723232551
2.715080436311837
1.9809944364278635
1.004657423873141
-0.07809583763446426
-1.1243522519507678
-2.012961265787453
-2.6639545641446603
-3.0524000513905776
-3.9465571708933567
-3.4374426478534588
-2.649483963192324
-1.5944856990608969
-0.29329857560878736
1.1397728946722054
2.536918924364727
3.6638122624317475
4.351643895650341
4.581308058524883
4.352124582794204
3.6643839507523808
2.536544091435644
1.1368930533717503
-0.295542959269369
-1.5916062937576498
-2.644693029054906
-3.4372922685724916
-3.951337593542121
-4.746449779318937
-4.138622333332023
-3.2407197462016484
-2.0755597435709205
-0.6393495233460271
1.0551692059125344
2.894734693461942
4.591627342455467
5.728899816873309
6.097424122399389
5.726224632097001
4.589341029841307
2.8979749112222635
1.0547061426623259
-0.6475185668423364
-2.0787737748833024
-3.2348147969787533
-4.138884201212932
-4.750287587827188
-5.375395391653001
-4.6890241826404235
-3.7100538956874516
-2.489492853957927
-1.0199110996545642
0.7450546878681052
2.8838975319013116
5.222591478490358
7.217031164516811
8.06009393507702
7.216967714277416
5.223843449013657
2.8872240258242527
0.7457147411769256
-1.01695492674844
-2.496982301592652
-3.7129917499478324
-4.681597926655741
-5.372780470273938
-5.767289780647843
-5.033771161946788
-4.021585685986793
-2.7745263195938605
-1.2889421789877815
0.4150357204962347
2.5124702251887356
5.2957695911500196
8.565380115593143
10.252922613093688
8.561954623321071
5.295975299264683
2.5114642770349747
0.41502656588636455
-1.2855886336492404
-2.7768680185981793
-4.023840625146477
-5.037365300071542
-5.766821087256176
-5.9073037648631725
-5.161281612527091
-4.131641599342402
-2.868309941022744
-1.4196650307785603
0.38058110313431825
2.0981454263528576
5.169528043377795
9.350871392849513
11.132249327794852
9.348042243160307
5.171522525066393
2.103362386857043
0.37996665097307414
-1.4145056257912074
-2.867135971027892
-4.136769841496061
-5.16037858485106
-5.905782371333771
-5.76630595844108
-5.0413677535361785
-4.02070762081712
-2.783049198020308
-1.28722316648782
0.4165832205871993
2.509583112288965
5.293846952343301
8.563188630610966
10.256431783011067
8.565238836985372
5.29351035063155
2.5149890451975807
0.4125116574759886
-1.2901790664309374
-2.7820267505921947
-4.014988693028499
-5.038734615054636
-5.7684642988842825
-5.363224014687148
-4.686943473134306
-3.7168590245055384
-2.493478734166274
-1.0227908115521132
0.7462438896254753
2.885401318955701
5.216320209994592
7.2176063849146885
8.052330156217067
7.220440592600426
5.219788350585077
2.888320154224857
0.7462690504071361
-1.0215944967549149
-2.4914253535298485
-3.7120929486391105
-4.687763290634393
-5.366689969379877
-4.749784157062095
-4.134315879968199
-3.2349079260711733
-2.079235450262786
-0.6457485325554444
1.0594118476765289
2.8981271805168944
4.594981050187926
5.729038120749465
6.101411900492167
5.725076977701974
4.5945104963011545
2.8980063133549265
1.0542012936984975
-0.6443816867777059
-2.077641793852308
-3.2333022893180896
-4.135920622222329
-4.745012108214723
-3.9507472037512343
-3.445069188688649
-2.652191421679163
-1.5891210946356296
-0.29827761054912116
1.1450373426232545
2.5384882193502563
3.666142991038214
4.356299779847177
4.582906563529832
4.350435935597488
3.6629127463147597
2.53958150327162
1.1432856440078467
-0.30025940274936147
-1.5930839873835794
-2.647528036408403
-3.4391727284764784
-3.9423025872956714
-3.051617496239487
-2.665287358508067
-2.0101748712440894
-1.1332811172615038
-0.08001429644355085
1.0063634844373155
1.984405667248211
2.714232807033113
3.1678467351721338
3.318475110561849
3.1666693792267324
2.715272611741966
1.9806063779633405
1.0040632360869495
-0.0698570101903897
-1.131628055967667
-2.0148525328440883
-2.666918389167222
-3.0531019312802528
-2.144004515117558
-1.8921799978961644
-1.4126143210560258
-0.7430801394511946
0.0066605835818336345
0.7551282134190842
1.392536594063131
1.867125495460641
2.149892194996937
2.2472693634135794
2.149943435104433
1.864009761129637
1.393792456105075
0.7582538687365741
0.008756832901781308
-0.7454404391228309
-1.4099900189594337
-1.887363577439828
-2.1423081161501614
-1.318268297760369
-1.194317950936238
-0.8948220586644311
-0.45114471785200294
0.025226000157999806
0.4850570851813245
0.8694268325889425
1.1504964666346496
1.3232434822421055
1.3758924247522373
1.3125981392659014
1.1451845807787322
0.8684460492877406
0.48367594212868426
0.02771036421017925
-0.45468053540935216
-0.8943045372579945
-1.195018664165218
-1.3177574382984858
-0.6729884463748022
-0.6406175064257695
-0.49043906786027947
-0.24465503630563035
0.011041067129553994
0.25084753652117797
0.4538743866905861
0.602194955046798
0.6867374836056115
0.7215982555608207
0.6922771560057299
0.5989826851382531
0.4577440378307074
0.2484359936997862
0.01374431765270856
-0.24500826832354505
-0.48685827421559225
-0.6348990852047791
-0.6728743070243581
-0.2709655033722811
-0.28439151454222156
-0.2232816775685933
-0.11674287629648461
-0.0046544145479856525
0.10593970209083636
0.19299266710004304
0.2587346725977113
0.2992743426693778
0.3163974059334578
0.30128907431026164
0.25747045094794885
0.19498285029294493
0.10433152861423878
0.0006655075458184001
-0.11303066071104695
-0.2247516849015483
-0.2792992126983336
-0.27045425009623614
0.26981931136833737
0.2787518988989177
0.22390099363110494
0.11490317433344899
0.0074536546162562445
-0.10489510746265296
-0.1962573662858631
-0.2622691016586032
-0.3000442533120804
-0.3150789295468712
-0.30742822046158835
-0.2596124876436079
-0.19132817803620128
-0.10875185625263839
0.0003116617808700539
0.11726825015648501
0.22504423646023497
0.28105561678967206
0.27111111478006933
0.6730617030989379
0.634661351046816
0.4849531979125459
0.2448717734296224
-0.015388190673547797
-0.25202431766228983
-0.45636977272079093
-0.5982590425810486
-0.6865930910789757
-0.7206895131421334
-0.6878591728382162
-0.6038697606054484
-0.45347718136326876
-0.2511969032639172
-0.010251204406813486
0.24272505182307214
0.4804662960959831
0.6361080086462607
0.6724934520789247
1.3264298646754469
1.1933458520798013
0.8943203956114303
0.4490288930319366
-0.028293654850131134
-0.4818797741718299
-0.865484395337262
-1.1466024178880616
-1.3188138909281406
-1.3746618477380252
-1.3169509541003208
-1.1496648993925191
-0.8681691082420002
-0.49061983950741705
-0.02693062315302086
0.45205679348509875
0.8897167126378918
1.1913606894013355
1.3125203660711122
2.134164835799311
1.8919201484131918
1.4131504859542474
0.7468215565822902
-0.011637141960818553
-0.7570615562253806
-1.3877891647316574
-1.8570939730598184
-2.145483446201979
-2.2400204147052136
-2.1457633771715336
-1.8648267645694432
-1.3962882529849594
-0.7501039108501573
-0.012263206557690864
0.745168250225106
1.4092320518320776
1.8896141346813238
2.1415248592747957
3.048144388707442
2.6593227670455235
2.0128079089699895
1.1274459109044983
0.08008016003805096
-1.0099929458956467
-1.9841459224990103
-2.709049975095695
-3.159405963604513
-3.3067584897034976
-3.154080679636536
-2.7118070490905666
-1.979520617685921
-1.0054760159255238
0.077922449036123
1.1205275743741367
2.0112533338469802
2.659952290363435
3.050044737083226
3.945110350876348
3.4339938800767413
2.6461345894713304
1.5910932308033807
0.29175738228150294
-1.1419344266796543
-2.5373637363190937
-3.66085354093957
-4.342876373390027
-4.572046003780997
-4.3425629234770895
-3.663095376716228
-2.535341041366337
-1.138890112626541
0.2922117543639615
1.5901167108750087
2.644004882306035
3.4323895554916817
3.948840024342644
4.743322262638685
4.134504933914286
3.236656844845129
2.0713409161071468
0.6370766279906093
-1.0571104583759734
-2.8957726700173225
-4.586283222044585
-5.718712220634188
-6.086013032228948
-5.714467902536853
-4.585109265510255
-2.8996819448366296
-1.0566519250969577
0.6434882045978156
2.075126888576051
3.229657847117778
4.1378278505653725
4.748341053767945
5.3715166215915815
4.685047280530853
3.703254134827148
2.4837472273902677
1.0148425689912983
-0.750743153901567
-2.886917969550268
-5.225061823319265
-7.201656214579998
-8.018376728214207
-7.2012528029081295
-5.226739128207555
-2.8894214058018406
-0.7510618108171911
1.0145691718207672
2.491685271023016
3.7078666162688023
4.678050730110044
5.367324946555527
5.7641460853410535
5.02950569175664
4.016192425595364
2.7687494122219505
1.2810608013242017
-0.42589689023952815
-2.529677013902983
-5.289542808532133
-8.528593446462764
-10.22079235520141
-8.527820497722132
-5.2900871214405925
-2.529275336622959
-0.4245836046466138
1.278530010526083
2.770985457189454
4.018521732181398
5.034045284530293
5.763474163761202
5.901591048525006
5.154561190833192
4.1278292598508415
2.861599924213806
1.4130017347124522
-0.3970206883568608
-2.1150765794154722
-5.300988391867577
-9.319468679383135
-10.812220336167229
-9.314745583134936
-5.301818178351823
-2.1188577726989024
-0.3959351267076272
1.40578122518491
2.8609937166020245
4.129622476757504
5.155791710651101
5.900085911514907
5.764182337989041
5.035277242979646
4.016151255633304
2.773135243129218
1.2801305313405464
-0.4268866279744543
-2.5265477221328183
-5.286453330558288
-8.527998615099932
-10.22296627954347
-8.532918663753662
-5.286724412570038
-2.531988090937375
-0.42218755299109034
1.2807443545316346
2.777430472748165
4.008105034523396
5.033594304031794
5.763767259977612
5.358838447351445
4.684155487015232
3.712399837520934
2.4897712748788763
1.0170980834809598
-0.7523986233936739
-2.887134897242504
-5.221856280553766
-7.201841203826916
-8.011051564910304
-7.202972849141588
-5.223732291713532
-2.8898023292731523
-0.7509760965058376
1.0165093470150168
2.4868485648294154
3.707268611429754
4.684850135903616
5.363955559447277
4.746409152157867
4.129730635511805
3.232135339116212
2.0743491859248024
0.6426894439100579
-1.0621855849749409
-2.900371638181241
-4.588296838992392
-5.716249352557497
-6.088178649766633
-5.714379995450145
-4.5901074477988
-2.898527569610451
-1.0576696808875568
0.6395780410639418
2.074531281085001
3.2292222049145494
4.131100486303694
4.742294116922494
3.9483067987712275
3.4412891206811764
2.6478452439332614
1.5870047551507014
0.29806469483082765
-1.1452204179222463
-2.5390380708231532
-3.661606027682865
-4.348511358890391
-4.5728280458533845
-4.345214848908654
-3.657624456571284
-2.5413571655499254
-1.1435329842188366
0.2989902390527277
1.5891598038142547
2.6439088281076693
3.4348743287036996
3.9408725080320437
3.0487700212070195
2.6608287448289047
2.008932735887356
1.1320094809234433
0.07799666954088025
-1.0066069802560378
-1.9830572846913128
-2.71209741653729
-3.164434468451873
-3.312484935937391
-3.1626948240627826
-2.7119987638725433
-1.978501968907949
-1.0055357422497764
0.06921857149609423
1.1271842154565093
2.0139353793920236
2.665590395896288
3.0494445248232296
2.141730840343371
1.8910359527435503
1.4102130522733205
0.7418122859526193
-0.008530220213287976
-0.7545469894284906
-1.3928910912618448
-1.8632703787043283
-2.144792810562649
-2.2448491008381097
-2.1455044396243466
-1.8647950894574024
-1.3922311118203652
-0.7585015505046613
-0.010738275399489794
0.7460074314667509
1.4095377152734727
1.885091595366248
2.138969344035104
1.3157374542897742
1.1927634479943663
0.896412642672658
0.4501744454173604
-0.02588700810156297
-0.4853514384267328
-0.8665136117051588
-1.149093450707369
-1.3215701917233673
-1.3744775936302176
-1.3108412364144897
-1.1449241551545128
-0.8686540029084426
-0.4817599378620798
-0.029450660567817977
0.4534217558302771
0.8937446103245748
1.1940162641931238
1.3173773290086501
0.6746341077669058
0.639044033439859
0.48959654653299367
0.24411559290092555
-0.011888233479112387
-0.2528357609298837
-0.45382452319609
-0.6016521682668099
-0.6843566293846379
-0.7189783710437041
-0.690877699673365
-0.5958781815352268
-0.4554636460943584
-0.24814683925069403
-0.014101577792644093
0.24357226033043844
0.4856561309825338
0.6352997405638234
0.6702760295115695
0.2697813793893147
0.2842376715816499
0.22284821090579499
0.11480589791608509
0.0044384052853274625
-0.10478255630005151
-0.18990318500073045
-0.25841412786758156
-0.299711867570295
-0.31646236016604234
-0.3000047949626605
-0.257901689832579
-0.19496599393278302
-0.10347961372553982
-0.0010293797186022857
0.11359324710520013
0.22225612889496915
0.279078807413498
0.2698137056424912
-0.17272260331810685
-0.0013715229506487958
0.16996350977569818
-0.3578472792796674
-0.00138130082632415
0.3550708274997305
-0.6571556909620995
-0.0014951608100091107
0.6541392571743927
-1.0339694321446586
-0.0017403216188540682
1.0304522219157661
-1.4496984995930688
-0.0010306131734978408
1.4476433628806262
-1.8640433365762874
-0.003552906182449078
1.8568797158150119
-2.2232623611525923
-0.0020267722866265103
2.21920245578076
-2.509796976355574
-0.0020825699975830503
2.505608093149931
-2.685844704934425
-0.000500501391798025
2.6848930702908547
-2.7540793582811602
-0.0017043400075635873
2.7506589316180907
-2.68940303630734
-0.001199305752379587
2.6870196850795764
-2.510441224916576
-0.000894019194674911
2.5086559404517175
-2.2208406825157
0.0010407250410935376
2.222970675200486
-1.8588485740910983
-0.0008416539058089256
1.8571653936051007
-1.44678721044329
-0.0015175947009993251
1.4437187424118747
-1.0320312488656782
0.0008227161742979661
1.0337477072280308
-0.6583745106399874
-0.0028282819330343045
0.6526522127169301
-0.3595144504906784
-0.0029356135346461087
0.3535811559158901
-0.17495663136651274
-0.0022060959054215346
0.1704891081462847
-0.04770789471149328
0.0015797360028955154
0.050901215661724564
-0.04380111915816087
0.002055628956441069
0.04796420675847912
-0.03255199523846386
0.0033134622499346733
0.03927071741054533
-0.017275668142247014
0.002552283251134213
0.02243463102786336
-0.0023719081036688294
0.0016664721406414174
0.005759478317486355
0.006159670385386562
-0.00014231012391974218
-0.006457984327425947
0.015761902097437996
-0.0005859268858330324
-0.01692624346105731
0.02926290253526531
-0.0003715259335876908
-0.030022094622836448
0.03673031174002972
0.001620926286705071
-0.03344099339483364
0.03520405847666552
0.0024540572176192654
-0.030231486318371026
0.03140182781498879
-0.0011771687186410418
-0.03380500210914761
0.028688806594800553
6.114914867794141e-06
-0.028691585088381544
0.01858347435882024
-2.7275473257759586e-06
-0.018580373745862744
0.007798051707140985
0.0010879575620492687
-0.005587166931945831
-0.0063728422683198005
0.00018924241248896578
0.00672519010186079
-0.018138201720830693
0.004199975876872486
0.026664430176424503
-0.03409358536328
0.0015728514790680492
0.03725884999266782
-0.04490230741521373
0.0018683380380934977
0.04868347936508144
-0.051824543234261
-9.684322594694095e-05
0.05160500720990058
-0.1681623914046213
0.0012590490098318696
0.17072828050640965
-0.3619436729854897
-0.0008492132151332044
0.36023287247371627
-0.6570874479289159
-0.0002928277885985153
0.6565296007124743
-1.0324552503307132
0.0007378583604804589
1.0339539983933719
-1.448020706026
0.0009753202457432053
1.4500200244629013
-1.8585117603734034
-0.0011889453899129876
1.8561536906408946
-2.2267365328098094
-0.002136259998223977
2.2224496086237195
-2.5110583468358527
-0.00229156907153083
2.506455246182668
-2.68962063926665
-0.0023225934455695096
2.6849466310268326
-2.7485330538092967
-0.0010055175753223011
2.7465348807309056
-2.686995498052056
-0.0016366477993869921
2.68374440910884
-2.5113340726620663
-0.0019056865003221901
2.50750692217116
-2.2253518761717714
-0.0035801206868200097
2.2181130134049454
-1.8605917621862318
-0.0017449862170906272
1.8570859738319996
-1.4478788659216661
-0.0026327987980039325
1.442549926097854
-1.0324971078116505
-0.001053121144650504
1.030399906769162
-0.6557336218320415
0.0009249831346096471
0.6576453801717435
-0.3595422506368777
0.0004605232606991194
0.36048119470797246
-0.17246687499573454
0.0005029411295254249
0.17348912100715097
-0.04665113853479852
0.003819910722086206
0.05440865832133568
-0.04343611431977479
0.0020966977899661288
0.04769801949078101
-0.03585650116656325
-0.00010845182259799913
0.035603921925940085
-0.022750028445443604
0.0015049288886075374
0.025809120750636794
-0.006731137618771754
-0.00012257103298907168
0.006483607652626233
0.0055043536121957
-6.85002378304489e-05
-0.005644044653308811
0.016903249783354113
-0.00044226261888979934
-0.01778903984813951
0.02959517562703695
-0.0003521289945638273
-0.030319204095576424
0.033643423554167384
0.0008544942356820684
-0.031916530526359566
0.03298245535552269
0.0017442454663978424
-0.029438483412377536
0.031136075020185672
3.667577402666211e-06
-0.03111753121993388
0.02676506769057596
-0.0007961297960719094
-0.028397905338351848
0.018317158603167627
0.0009755678947840352
-0.016362011407181853
0.005043366410973249
-0.0014271659347286914
-0.007958392248838209
-0.0069783705184818245
-0.0007072294101817533
0.005567435349803418
-0.02093230425089132
0.000457963535154704
0.02186553030333016
-0.0374488342058612
0.00040592886944068596
0.03828164214792196
-0.04694688402378233
-0.0022046701415092684
0.042480562544369604
-0.052104688467807136
-0.0009237329359166324
0.05024596827570349
-0.13379871453071246
0.00013239718100521713
0.13413417674019001
-0.13897283479309408
-5.103509465698153e-06
0.1389814512731391
-0.11232272261258913
-0.0004772509928443469
0.11131181730888784
-0.05881039723317372
-0.0009748107695486397
0.05678733500826638
-0.003330926334456308
0.00017720042160362937
0.003720627417351352
0.052147648220852716
-4.8760910431155935e-05
-0.05230875697452575
0.09780315580428578
6.843505980214104e-05
-0.09773496778871049
0.13152416851517046
0.0005665522039635107
-0.13039113036211347
0.14965228263827157
9.329118984169327e-05
-0.14946932918974198
0.15785306686666445
0.0005683024537574966
-0.15669618372339755
0.15286779813686735
-0.00015640052515664138
-0.15319655436542234
0.1304743619330111
0.0007147350297600497
-0.12900892455218127
0.09592091121157864
0.00036607290894608013
-0.09518728905823082
0.05463266558217583
0.0003070773818762973
-0.0540414158058411
0.000459479520941386
0.000350724996678764
0.00029074589838273823
-0.058815443193452666
-0.000299803741654614
0.05824294713966083
-0.1127091802918585
-0.0003703852271428332
0.11193139641545713
-0.13961801701589138
0.00027365308051230386
0.14023284479844733
-0.13585502615751466
-0.0007767889874230605
0.1343237563924049
-0.3378895014466252
-0.0012595225271070376
0.33532867254689336
-0.3167784306642716
0.00023481916286982596
0.31731388164917007
-0.2421209132153308
5.425372364697978e-05
0.24224006812437437
-0.12134262979088817
0.0005650509810948279
0.12251518936318462
0.008785714650002774
0.00061408429974108
-0.0075160823289479595
0.12619728436038713
0.00015753025581943803
-0.1259169221702905
0.22711679243002436
-0.00046311476035043597
-0.22815834763241583
0.2987302247165644
2.895368743338622e-05
-0.2987347220405354
0.34508056720733293
0.001443628683773568
-0.3421341874927748
0.36095566042058636
0.0007212812124635093
-0.3594634079672687
0.34536228913930245
0.0011993892658210825
-0.34287268798652804
0.3007635484500497
-0.0004513640196819324
-0.3017256706225453
0.22624499550511246
-0.00010308160199201666
-0.2265330400041421
0.12542683141873567
-3.063732947339304e-05
-0.12556534204122727
0.006783919692679774
0.0009620716737117618
-0.004821661550522549
-0.12181430437703966
-0.00040390075446339324
0.12097974059724947
-0.24066835039047874
-0.0004047261390951462
0.23982747780246427
-0.319377131825604
-0.0009023091006383765
0.317516328774218
-0.33637937638923177
-0.0004804762174899224
0.3354265820053115
-0.6653103574790293
-0.001195195596665144
0.6628155127400532
-0.5971712147729704
2.1449617634061724e-05
0.5972063674707897
-0.44866753665337455
-0.0007819320671842434
0.4470175135611498
-0.2251640378162847
-0.00035886426849174313
0.22438185826831614
0.013509563013940351
-0.000541994086233899
-0.014634056798968231
0.24198353016618057
0.00047763457041583024
-0.24102663618396036
0.4325047409038234
-0.00023988468819879927
-0.433096513064811
0.5752176152600441
0.0011467971053207293
-0.5729213357808476
0.6613358213617175
0.0011819057144748513
-0.6589210145757534
0.6877984074126289
0.00027180805773241445
-0.6872471816823236
0.6608364122366766
0.0014380645370692946
-0.6578801769937854
0.576068982558354
0.0007310808687179815
-0.5746027752975351
0.4347690051981772
0.0003693056023621466
-0.4340872769244015
0.24654641814777278
0.0006936902791494504
-0.24518462295964127
0.01305091353788157
-0.0003833078844763804
-0.013879707534215413
-0.22725963915945613
-0.000748244725400582
0.22568718298498425
-0.4468920153049112
-0.00108622436891892
0.4446157579332066
-0.5975930045788118
-0.0008662764412292745
0.5958109382154362
-0.6577584377264429
-0.00082538987044245
0.656121885025641
-1.0692718606223934
-0.0005919173127040267
1.0680429685671697
-0.9498853133627563
-0.0017129531152022537
0.9463229684115504
-0.7082662241882645
-0.0006002136433380656
0.7070184001895541
-0.3751190831135318
-0.0009825129200180527
0.3731178329217073
0.006647675792919472
0.00023189961211755872
-0.006101240993302781
0.3793702369366656
5.1811581215588376e-05
-0.3792258910907549
0.6972685942382668
0.0015980884818418417
-0.6939943265715556
0.9300560689189297
0.00047461547001148574
-0.9291592656772991
1.0767171850638988
0.0020214159158058465
-1.0725555335484387
1.123816476418142
0.001994341488170903
-1.119771378558653
1.074895288245898
0.0008429371919191908
-1.0732326529541751
0.9348349912725098
0.0010961710286210291
-0.9326509975617228
0.6987699832534418
5.548281478695571e-06
-0.6988672278966988
0.375890407965926
8.126756438286975e-05
-0.3757504133354814
0.0057373512390768155
-0.0005356260808184743
-0.006766314505512128
-0.37199587099894416
0.000492647541250335
0.37304955138097284
-0.7064028751628939
-0.0006272634927881882
0.7050932660604303
-0.9472828359321284
-0.0008318216023326386
0.9455878943663265
-1.073173118467821
-0.0008606139926996548
1.0714916323013313
-1.5282238561412669
-0.0012294489897612948
1.5257246567671245
-1.3329917382980057
-0.000924899573874427
1.3311243092211953
-1.0095544385476387
-0.0011646385064523201
1.0072215865875478
-0.5657590949085716
-0.0008941441337810829
0.5639578882364731
-0.040760648971627234
-0.0006947236215637531
0.039392454498738516
0.505584539470874
-0.0003768966380448546
-0.5063434203984798
0.9944295728600991
0.0004959865727869328
-0.9934087691653986
1.359378147917596
0.002017818180320319
-1.3552634599473095
1.5855163271226047
0.0027167825828655623
-1.5799953166897467
1.6584458072538837
0.002309264127688948
-1.6538049093251175
1.5823760939711065
0.0024169254647858907
-1.5775079139966692
1.360056421792251
0.0016414341553172562
-1.3567759774377919
0.9924912384121853
0.0007576722564408556
-0.9909863160901295
0.5032960034041025
-0.00044843523937743157
-0.5041735413542483
-0.03892083103346522
-0.00019673825590871274
0.038583359761105385
-0.5637671593140112
-0.0017493490195192862
0.5601857931687846
-1.0083378239251033
-0.0008484884347126354
1.0066379010677338
-1.3347375162120443
-0.001799005171051249
1.3310370972612873
-1.528980722923734
-0.0011338281037751585
1.526690724054788
-1.9769226628814067
-0.0007558615288871806
1.9754273571015801
-1.7220775694222539
-0.0015916897536953911
1.7188272269522713
-1.3274857449032424
-0.0014922014306648634
1.3244092930181068
-0.7992614398790465
-0.0014966094749979675
0.7961678882420529
-0.14732639862631913
-0.0007986407908902038
0.1457432975221309
0.5707369895062584
-0.0009907321436912753
-0.5727640533950762
1.2709790713706752
-0.0001569969936099369
-1.2713260868440557
1.8354619731835555
0.001446937647415325
-1.832551856219652
2.1805780764771043
0.004202795844321372
-2.172081077515031
2.2955396777470014
0.004538070548733231
-2.2864168286905624
2.1809468677420227
0.004477571146708215
-2.171838579026371
1.835468400728132
0.0008006757016119082
-1.8339462680778524
1.2712019601967768
0.0006213792366907
-1.2699689623623271
0.5693815619015368
-0.0009101915020437445
-0.5712465815340693
-0.1487761143616808
-0.0015713467546447646
0.1455858278895903
-0.7975853255738912
-0.0008460357239528093
0.7959444107727904
-1.3247070292418357
-0.0004653620781027712
1.3238381655173725
-1.7223342685974785
-0.002265447299578227
1.7177089789001911
-1.9794941993168322
-0.0012290538325032685
1.9770263321370294
-2.378145410832076
-0.001580525789904641
2.3749932895443635
-2.0733743473865616
-0.0019092081420239992
2.0694803946207685
-1.6238486179863685
-0.001844243332016049
1.6200657001209038
-1.040699795827095
-0.001984287733648671
1.0366682190178835
-0.32139416407517274
-0.0012271407540538348
0.3189857786928769
0.5276320742923417
-0.0009441138172405772
-0.529533465149143
1.4501966555435502
-0.000526362480741227
-1.451245690263022
2.3017794488332584
0.0026383014337625355
-2.296485888757161
2.871371321936749
0.005168191419215873
-2.8610730498512567
3.055498764049844
0.0056630774088262115
-3.044151815101941
2.8703740942255536
0.005817891909828177
-2.8587078912787547
2.300490413330408
0.0022364075521181803
-2.296078478175332
1.4516308114289131
-0.0008458079173578881
-1.4533262433833443
0.527369525287213
-0.0010108778114954475
-0.5293717068670958
-0.3257930443905934
-0.0020530224028334487
0.32170560742451926
-1.0422179440392938
-0.001840537050156854
1.0385455372997967
-1.6212969984553638
-0.002484015771187842
1.616280711525178
-2.0730144991903217
-0.0007532202180300374
2.071621361112193
-2.3797036886171554
-0.0009755969877005555
2.377753696182481
-2.6933799599100894
-0.0018947084572573658
2.6895679456429207
-2.349017833759717
-0.0018695385042519774
2.345218999980716
-1.8596499679879344
-0.0031233584631991107
1.8532642534228216
-1.2485426908315276
-0.0027557587782212067
1.2429718573439459
-0.5129188342980342
-0.0025504576005914714
0.5078258561261464
0.3702780256171536
-0.002858057585399365
-0.3759871869988274
1.4424416004076193
-0.0014082381167099811
-1.4453097194818838
2.616588058652269
-0.001324665550782811
-2.6191920017699886
3.6202107969584176
0.0076710089670086745
-3.6048606161602947
4.046827795158606
0.020773262996954145
-4.005238297231699
3.62022647048434
0.007787305690726498
-3.604616408185393
2.6170917358140287
-0.001520910438557621
-2.620096532842581
1.4442468177403498
-0.0010441564991197083
-1.4463628743906156
0.37060867672698805
-0.002782776235108031
-0.37611911627391237
-0.5110110870336939
-0.0015263480199791957
0.5081265728367725
-1.252214658568846
-0.002693552061828086
1.2468495947650808
-1.860849755406889
-0.0025449561144341715
1.855751106470052
-2.345384226866372
-0.0018352880124439253
2.341744219245811
-2.692416796409816
-0.002574177135102218
2.6871898411409347
-2.889670996381028
-0.0016276697133434936
2.8864440784709586
-2.5218487186903076
-0.0020950235521013383
2.517639904159296
-2.015420153598825
-0.002591880165709881
2.010183562484599
-1.3913582520981436
-0.0028296065756876487
1.3856695920039783
-0.6485410126042552
-0.003945107011531945
0.6406532361979771
0.2033908417688508
-0.005412022557720775
-0.21422449429883272
1.2505599187716143
-0.008694665535585955
-1.2679032500709582
2.650262201561418
0.003190784813341452
-2.6439195765779004
4.303087541033165
0.018175567980506457
-4.266626563268801
5.153789218922611
0.015671267035941128
-5.122248531835794
4.300931915811816
0.01712893889998668
-4.266705566547898
2.6503286298793682
0.003092479058977915
-2.6442185156192863
1.249915126401902
-0.008977733912615804
-1.2678342323706602
0.20365064631187124
-0.004840253295697039
-0.21330028137526824
-0.6468209977829247
-0.0037096850319358055
0.6394927613910113
-1.3926657700885698
-0.0030751623107789783
1.3865828852231061
-2.0165299425370904
-0.002604773730126908
2.011293120460323
-2.523435029961547
-0.0017134406880359165
2.5200346793371864
-2.8895053039068443
-0.0017282366534345783
2.8860760907427903
-2.960292828105594
-0.0027266137876722496
2.9547736195017933
-2.586181216316618
-0.0032436362489534076
2.5796347141258593
-2.0702378002206387
-0.0020222366947564296
2.0662521088270296
-1.438587680728233
-0.0032713321161281783
1.4320031772949733
-0.7134244999942894
-0.003331047402753029
0.7067624319570314
0.18363759105704958
-0.008210718420741614
-0.20006312414625427
1.0461124728171853
-0.008089729148196056
-1.0624833282345207
2.542568445944198
-0.06617623724741861
-2.674694386740157
4.692202066806203
0.01543277427481371
-4.66119976713162
5.689005702712166
0.16104565391651704
-5.367438789890002
4.691207397805556
0.016262243214441696
-4.65848655591617
2.543699710040528
-0.06575658539077267
-2.674904336930922
1.0489071780175436
-0.007532500294473721
-1.0640825220125407
0.18334270293235022
-0.008110152924928116
-0.1994994192809827
-0.7114866317388078
-0.00445600726743578
0.7026214673278446
-1.4380452711411635
-0.003233529543649638
1.4316601938207896
-2.073392494881773
-0.0033843207256722962
2.0665285236264026
-2.585232639008609
-0.0022173085726535646
2.5807598316660005
-2.9594943411666463
-0.00264591224186006
2.9541001944962773
-2.888929921617091
-0.001116127059503924
2.8867253650278144
-2.5259137118046056
-0.002848750096745789
2.5201169236279384
-2.014815164489846
-0.0022836500720586628
2.0102504909518757
-1.3963503655031673
-0.00459284698808915
1.3869802886438265
-0.6474196920680697
-0.0034943007267429493
0.6404051384270133
0.20428718224502518
-0.005144751030456973
-0.21458046300904243
1.249204245639703
-0.008568199464207282
-1.2662971906647726
2.649640798466862
0.003800080739893019
-2.642092348971346
4.301683867834072
0.01749947066855384
-4.2666369839898834
5.15587168420825
0.016375414092181018
-5.122940896759246
4.302167486501276
0.016344226663932204
-4.269572528908611
2.649250647677036
0.003435125941905426
-2.6424015988468454
1.251798190178306
-0.008648864044516813
-1.2690207580144488
0.20237696830372442
-0.004913806526019471
-0.21216648448353226
-0.6494487030013261
-0.004637753956558299
0.6401324865364586
-1.3948974280338007
-0.002453360191793763
1.3900693006271467
-2.012498057794801
-0.00327891490633192
2.0058576888768584
-2.5244088350209495
-0.002395322097072494
2.5195307991452864
-2.8904845247161575
-0.0021727645653299987
2.8860504560034315
-2.687468170395732
-0.0020628295751521364
2.6832770059190807
-2.347808499722305
-0.0014293012536654714
2.344967645167344
-1.8625819282497105
-0.0022254897266975604
1.8581287964552757
-1.2500467045101686
-0.0018807917331287172
1.2462988974584732
-0.514432836753258
-0.002793605781334918
0.5088186887478514
0.3707667145463347
-0.003031107975402847
-0.3768518170036259
1.4434603594672808
-0.0008319643093273044
-1.4451415516123234
2.6128504139160214
-0.002695508002943825
-2.618278443664167
3.6205151095273322
0.007731352638074895
-3.604976091930439
4.042949433642207
0.02063668565824628
-4.001674975581409
3.6223283832732704
0.008608015534264268
-3.6050485600644606
2.6148475252830394
-0.002031392827120726
-2.6188805089186644
1.444848342998739
-0.0008407801778957946
-1.4464798961889755
0.3710368190459121
-0.0024604916015960043
-0.37590379966604814
-0.5136834968216135
-0.0024889844280551188
0.5086784824216011
-1.2492797528666415
-0.002318964532605605
1.2446574903751753
-1.8603273756143608
-0.0023612117056472925
1.8555785826938518
-2.348298804634396
-0.0015573224100080552
2.3452351555115456
-2.68888379424061
-0.001398750209773425
2.6861021050008276
-2.3798544805576967
-0.0017045173663063906
2.3764535704031005
-2.0714392558402324
-0.002232033493783092
2.0669447333821154
-1.620800532771682
-0.0013975442307128105
1.6180111068715632
-1.0427093393045652
-0.0024072524392977357
1.0378764149827475
-0.3247370119097468
-0.0016403903209720738
0.32151187398994807
0.5295111958621419
-0.0013379771844483912
-0.5322118526637496
1.4516344025105354
-0.0009974095737561584
-1.4536920448990713
2.303703253670392
0.003207850517355837
-2.297219746196788
2.8719375677173957
0.006223334501555655
-2.8594049340354104
3.057871411092492
0.0064978666669048835
-3.0448157535029168
2.8696236978503293
0.005429759421531344
-2.858805499306982
2.302966895060308
0.0021742820117651718
-2.2986046703317697
1.4518880127543525
-0.0002970845798699884
-1.452463498160796
0.5268237182172015
-0.0016179309277504217
-0.5301179309135478
-0.3243220080530591
-0.0022575295606657164
0.3197342989678873
-1.0415281236037117
-0.001551882518469938
1.0384235007204552
-1.6202444245045626
-0.0018953311318909982
1.6163802328865131
-2.072212568959003
-0.0022244953106564935
2.0676702247710637
-2.377353794121518
-0.0013950167940492975
2.374581416901492
-1.97922921267309
-0.0012631472309294622
1.9767242197995074
-1.7259022846956213
-0.0017510791039967444
1.72232963213537
-1.329102147505182
-0.0020328894970589317
1.3249655443432857
-0.7964948969965917
-0.0011679620511131361
0.7942145373781386
-0.14957521353062475
-0.00033641664776951075
0.1490184050744574
0.5736942235962488
-0.0001851878514571581
-0.5740169991695439
1.2716851301593124
-0.0002319072409591172
-1.272170956923219
1.8368384007808345
0.0020414271493791603
-1.8326411290654505
2.1826544255309273
0.0037891647370997816
-2.1750230489815294
2.296458096639981
0.00489588068012381
-2.2865939073362824
2.1792574871269608
0.0026656759982870426
-2.173954058693198
1.8355082174457493
0.0024923405871959403
-1.830446678084627
1.2720904523157515
-0.0006288247222983046
-1.273478760758735
0.5729098166793847
-9.045177102962043e-05
-0.5731075244893873
-0.1506343629971525
-0.0006036678114469396
0.14941169737176097
-0.7986784935110336
-0.0017337038389086956
0.7950960303223837
-1.3266642142098135
-0.001710745673335623
1.3231926256448787
-1.7230567342430732
-0.0018823150412572431
1.7191574564594703
-1.9748226317715307
-0.000720953343261499
1.9733841657516678
-1.528654187794018
-0.001294070800213376
1.526000659683632
-1.3354439344948332
-0.0019535839492164087
1.3313972732357797
-1.0067974831545143
-0.0005808229179820046
1.0056160522326536
-0.5676263743189338
-0.0006590297271031886
0.5663199270420591
-0.04022827039079857
-0.0010048416552308481
0.038216136334085604
0.504255751882738
-0.00017714936257107183
-0.5045820849263691
0.9941031867019774
0.0006563362767337821
-0.9927811782763456
1.359329966307996
0.001081387777958298
-1.357174398341158
1.5863448337549926
0.0017380421195412055
-1.582885139661812
1.6621161027487688
0.0028628205545828678
-1.6563237221525924
1.5858853534809896
0.001967321280972101
-1.5819409666546562
1.3601203589205397
0.0016194557956623612
-1.3568729109447304
0.9924224127953494
0.0010233204830001341
-0.990361128540826
0.5029497666819225
-0.0006047723563824547
-0.5042254211803083
-0.034901252067356836
-0.00032340572761313524
0.03425682684428466
-0.5674781124234869
-0.0020479478280321928
0.5632944473909447
-1.0090820279756372
-0.0005105882219140767
1.0080867668675637
-1.3356649906909297
-0.0006625942978644161
1.334339084261046
-1.529584631810394
-0.0016860908308444778
1.5261411910405513
-1.073770231439994
-0.0011731098711607046
1.0714421110933472
-0.9475388306564128
-0.0005684393254341558
0.9464004783112614
-0.7075646236116881
-0.0010738887249317486
0.7053527825373749
-0.37206009472720325
-0.000576193087908905
0.370878960522532
0.0032847932270669844
-0.000896469322469784
-0.005096827175293583
0.3783919009983947
0.00022601674208999611
-0.37790726824096055
0.697091180125426
-6.116467193351127e-05
-0.697272372610314
0.9353114334917336
0.0019069944792136084
-0.9314867158864217
1.0768643659339432
0.0024174920326913707
-1.0719620281051903
1.1249725064571976
0.0012690131698036566
-1.122464296173348
1.0767841849501565
0.002140597656762111
-1.0724632075653062
0.9327652770480199
-0.00019795736625383142
-0.9332597884604183
0.6981618511217675
0.0008594287337473361
-0.6964827126284945
0.37981925980238884
-4.7534946133964695e-05
-0.3799529566531419
0.004262547377948067
-0.0009534878408885561
-0.006188399698658031
-0.372912447903218
0.00013954386031400645
0.3732642807544835
-0.7059127326192538
-0.00029514767720684176
0.7053575871368594
-0.9454486952618026
-0.0011228945613765973
0.9431966468964674
-1.0730955217695737
-0.0015503664044445031
1.069934962226398
-0.6599272792809643
-0.0011559166305232793
0.6575602066768624
-0.5980210430789157
-0.0007222518725029659
0.5965487862704322
-0.4473125091099064
0.0006354045035550371
0.4486644849057484
-0.22578747697843937
-0.00044954004624742083
0.22487045946763828
0.012711786439467687
-0.0003263369835622143
-0.013366329243581276
0.24276905637452728
-0.00010571652819635347
-0.24300137550017098
0.43553995241381926
0.0012804737234546337
-0.43288999995274935
0.5757859689929319
0.0007565274408989353
-0.5743001722639747
0.6621602227332914
0.0009334997848782223
-0.660342179962754
0.6884423992651136
0.0008233272819779813
-0.6868549172686471
0.656943313566444
0.0009398151960340329
-0.6550945483304531
0.5729530450626044
0.00025702629682200495
-0.572502809089201
0.4344998227952601
1.6032370695029385e-05
-0.43452815214732254
0.24254841895162826
0.0008386540921492269
-0.24081047154322732
0.013768389943834336
-0.0007194154750322923
-0.015282905441381445
-0.22754789791360963
-0.0005143062599017867
0.22646035238540208
-0.4474764660508299
-0.0002631585084600374
0.44694180358510494
-0.5983053839017884
-0.0005154928794581792
0.5972811255751367
-0.6593087319306505
-0.00031148446669249097
0.6587471551188173
-0.3356144297904393
0.0006664677493972704
0.3370258779323194
-0.32051490406593075
-0.0007475238708138932
0.31900039311585715
-0.245024146814103
-0.00031982532163965516
0.24433244434112567
-0.1221743558999151
-0.00019060105114476755
0.12175360337641905
0.005531478072953178
-0.00033097632694989443
-0.006240156941203168
0.12501899811832118
-0.0008477625488012563
-0.12678822813541046
0.2267800179834012
8.069828982115723e-05
-0.22664702971087536
0.3009306637031841
0.00038508299076056574
-0.3002174291268602
0.3434497935741092
0.001117720623369678
-0.34117806602080236
0.36087053852133977
0.0012197448231745511
-0.3583853365798859
0.34600558960846683
0.0006957083423912991
-0.34461209988330666
0.2997804678234388
0.0013592565755971009
-0.29696449060247687
0.22906389145282446
0.0009326992185378913
-0.22709355256301933
0.12424350092715031
4.5697876885242295e-05
-0.1241018379905654
0.006973182902584085
-8.621541928732768e-05
-0.007192050811681838
-0.12251132320579927
-0.0005161805092939176
0.1213769837468135
-0.24337912245937332
-0.0005105778564029606
0.24231204590159905
-0.3173412836931675
7.870488752814708e-05
0.3175598616917341
-0.33647496923367726
-0.0012323184159868106
0.3339767287907307
-0.13496068657696014
-0.0006024494578014128
0.13376088239238015
-0.1418567590881139
-0.0001676055799180176
0.14156714312412078
-0.11132973832354764
-0.00021035921599832363
0.1109050684790418
-0.058534749783575535
-0.0008132392467814498
0.056828958749974845
-0.002339762246265309
-0.00012282731040613726
0.0021016691462136805
0.05306826829837519
0.0004986247950000688
-0.052031249779247446
0.09683130609846557
0.0013251482669147663
-0.09406985547320801
0.12900156363502902
0.0001518606695753988
-0.12869336328003556
0.14906008738398668
-0.00015108429033716675
-0.1493964739038347
0.15767567059810972
3.73135699192062e-05
-0.15763617499760585
0.15050508978129074
0.0007178436062531546
-0.149107919756716
0.12828486266334949
-0.00012689790128206369
-0.12858333579242753
0.09713118490799388
-6.411211325030308e-05
-0.09722373172189691
0.05215368789686181
0.00030833678920316743
-0.05147808078345406
0.0002861480998035404
-0.00011806329166574869
-0.0005545469648495782
-0.05625332496128976
0.0002182310254283948
0.056721483574619924
-0.11250965080762398
-0.0011186113906660466
0.11020694330227343
-0.1393295420884897
-0.00014072544718146673
0.13906296835511966
-0.13453605287668324
-0.0002658387227256753
0.13397695854678204
SCALARS strain33 float
LOOKUP_TABLE default
-464.08255195617676
-567.3909112215042
-501.14799346309155
-487.3490613102913
415.7102363705635
540.0458647608757
469.6488602021709
448.4586949944496
-377.13015043735504
-679.3556562066078
-1029.15646225214
-1551.0441030859947
-2113.3772780299187
-2676.5161752700806
-3265.8495173454285
-3713.675370156765
-4119.839623808861
-3977.6849476099014
-4035.3656259179115
-3742.6553604602814
-3338.049513936043
-2722.461373448372
-2197.2692296504974
-1501.9849554300308
-1080.9433283805847
-609.8126177787781
-390.3265429735184
-379.5501762032509
-622.8411285877228
-1038.5772335529327
-1624.2644959390163
-2219.973516345024
-2758.524663180113
-3221.601480424404
-3706.6829164028168
-4020.034409850836
-4041.6854471862316
-3984.3645442426205
-3721.624689683318
-3281.5648751705885
-2776.2846686691046
-2131.186790637672
-1647.559638775885
-1085.0829040929675
-580.9155691415071
-347.12279826030135
-355.02938951924443
-675.2943009138107
-981.522353515029
-1600.7045084163547
-2302.7079632133245
-2809.686553314328
-3267.1756286770105
-3645.380687355995
-3911.6349968761206
-4023.2743708491325
-3835.7540176212788
-3625.724182188511
-3280.7123505175114
-2767.108346581459
-2215.2364691495895
-1607.1706467866898
-1014.179962605238
-611.6273628771305
-368.55949181318283
-402.7375113964081
-678.0720772147179
-959.585600912571
-1548.2036900520325
-2216.5804858207703
-2828.9352541565895
-3245.032802939415
-3671.3144316077232
-3982.9911480545998
-4038.3951471447945
-3953.9844157099724
-3600.059409081936
-3313.830352783203
-2790.3981860876083
-2140.0422732830048
-1531.7962738275528
-1001.2509298324585
-585.495175421238
-281.29718232154846
304.447529733181
605.7819074988365
1015.5919016003609
1494.537800014019
2106.836706697941
2667.713809609413
3255.8915581703186
3687.5578321814537
4046.69951403141
3940.660071849823
3961.1171954274178
3660.5983713269234
3313.4518746733665
2696.4591697454453
2176.331122457981
1514.0716515779495
1025.482649743557
550.2357699871063
373.2940891981125
293.65757459402084
651.3647707104683
979.5870586633682
1558.3079034984112
2232.9319069087505
2733.1727290451527
3277.024292320013
3747.4904340803623
3970.204738497734
4016.754989027977
4024.2591799497604
3730.423713877797
3339.511086076498
2827.3353577405214
2173.3737309873104
1634.1230374872684
1076.2220150604844
542.4469654858112
274.84601821377873
384.51332615315914
675.6385712586343
1015.7576092556119
1613.382565677166
2235.019161351025
2833.1665926128626
3247.9884741157293
3666.5135108977556
3939.5225192010403
4038.283825457096
3942.5841227173805
3672.065758526325
3333.705605149269
2777.5305087268353
2172.0162602961063
1585.6479185521603
1062.4654504954815
611.5161962807178
336.6407342851162
336.0069571733475
651.786603987217
988.2243368029594
1542.1812252402306
2145.6836347579956
2837.4317150712013
3253.69244492054
3702.5186770558357
3906.7103449106216
4069.7967440485954
3959.616546332836
3664.5980244874954
3321.659455537796
2746.2254422307014
2164.5204331874847
1535.3517085313797
1015.2875927686691
599.1552053689957
334.4813995361328
-242.10888934135437
-23.566921412944794
194.66396617889404
-288.3989884853363
-13.170768022537231
261.80051267147064
-256.4882767936215
-15.304892900399864
225.64821934327483
-251.37663543224335
-18.89997273683548
213.3011389374733
-255.0894394516945
-448.98632150888443
-800.2230612635612
-1162.9237633943558
-1583.4439626336098
-2042.7320078015327
-2450.8683174848557
-2773.0641787052155
-2885.7051298618317
-3022.42423504591
-2892.5495581030846
-2761.3990281820297
-2419.319411814213
-1995.1958997249603
-1644.738091826439
-1138.8142788112164
-733.6658018529415
-481.4309212267399
-297.50058364868164
-489.2226872444153
-673.2407011389732
-893.9675102233887
-1117.4204646945
-1305.3680773973465
-1682.573074579239
-1899.0058197975159
-2105.1189447641373
-2281.460517883301
-2339.349531531334
-2323.7979794740677
-2161.542994618416
-1879.916908621788
-1675.9875001609325
-1383.4359249770641
-1077.771467924118
-865.5233089923859
-645.5353760421276
-449.836161673069
-695.0809773802757
-877.8052484989166
-933.4602709412575
-962.2754657268524
-1031.848451435566
-1096.0177388191223
-1229.3834263682365
-1307.4046674370766
-1434.8590222001076
-1415.866244763136
-1409.4148943722248
-1328.9930292665958
-1229.148298740387
-1206.358767926693
-1022.3763795793056
-950.8779278993607
-944.858948469162
-870.4364197552204
-837.7294879555702
-1236.0397458672523
-1078.0117461681366
-951.716151714325
-749.9944884777069
-628.2078663110733
-469.9469964504242
-344.92853504419327
-277.5462847352028
-317.32351034879684
-293.59008768200874
-290.25271078944206
-331.708762049675
-370.09569159150124
-399.89313155412674
-553.1781620979309
-807.8250779211521
-978.5514178276062
-1049.9909990727901
-1201.3145320117474
-1635.4119500517845
-1379.1529893279076
-1042.6730207204819
-670.7075689435005
-83.26653462648392
419.3041763305664
665.960931956768
913.6760709583759
1042.4946083724499
948.5445355176926
1025.3970988690853
916.1846321821213
798.8071675896645
305.3286113142967
-51.60298591852188
-607.0993322134018
-960.939100921154
-1422.7504670917988
-1615.8514557480812
-2050.519649684429
-1669.5146775841713
-1099.3598901033401
-440.3404375910759
381.98299062252045
1267.6597230434418
1994.987670660019
2350.202689856291
2472.137810409069
2589.5667987167835
2540.4839736819267
2325.208398938179
1909.0643832981586
1235.2710417211056
385.0543512403965
-469.9833086133003
-1133.1578331291676
-1706.361217111349
-1983.7987827956676
-2447.0709936618805
-1858.252370595932
-1211.9101470708847
-332.7234988808632
723.8979839682579
1917.1016397476196
3138.268954694271
4014.5980379879475
4264.043463647366
4416.585207492113
4311.18868920207
3998.5402611792088
3100.3514362573624
1945.237234145403
734.9179894030094
-307.2033785581589
-1285.2096273899078
-1900.4966310858727
-2387.4449923336506
-2656.8467275500298
-2146.478705048561
-1370.3235196471214
-321.60428816080093
822.7598559260368
2286.131587743759
3996.416208744049
5703.844089388847
6627.609515070915
6370.068051666021
6603.176030218601
5695.28235784173
4008.276222497225
2251.2938443422318
874.4623071849346
-330.9586827158928
-1311.1103442311287
-2191.337846159935
-2648.696869403124
-2951.935360491276
-2269.1912202835083
-1520.1612911224365
-355.98249343037605
948.8562845885754
2506.977279871702
4244.759510338306
6560.474964112043
9423.322829991579
11136.581914275885
9351.747581541538
6661.7118909955025
4302.354113131762
2502.0205351412296
977.0805669426918
-320.16643819212914
-1422.443624585867
-2344.554003536701
-2933.813506811857
-2953.426894724369
-2326.946837902069
-1456.7552418410778
-303.51939219236374
1022.0466820597649
2568.72917842865
4488.999571889639
6317.42376062274
11084.316343456507
12310.358673632145
11062.500748574734
6357.132518351078
4518.337239563465
2495.646774470806
971.6564292609692
-321.9815788567066
-1412.6927482187748
-2308.932202488184
-2958.8295619785786
-2910.3148714900017
-2259.8648164868355
-1421.1350489854813
-332.568577170372
945.7439605593681
2503.7967004776
4293.394496679306
6567.559989452362
9391.262842208147
11141.635887533426
9342.12274107337
6557.201512515545
4217.125263392925
2511.391505807638
1000.765427082777
-360.9937127381563
-1445.0271464884281
-2293.884740129113
-2925.7771656513214
-2757.483083665371
-2163.2484101057053
-1341.8275151848793
-359.2036988735199
948.0758094787598
2401.287373036146
4014.8060950040817
5715.980519831181
6625.499500244856
6329.353885233402
6591.478306353092
5648.089608222246
3995.6255784630775
2291.01035900414
871.1640550494194
-375.3785361200571
-1320.143426477909
-2120.3896831274033
-2721.7948970496655
-2424.9181206822395
-1876.7336971759796
-1272.0335865318775
-353.301221460104
734.6028351783752
1936.4726777076721
3160.0685490965843
3951.1646426916122
4255.039756089449
4507.740903824568
4286.281334221363
3962.762219399214
3117.8419757932425
1905.818377405405
727.3392881304026
-330.0275200009346
-1301.4300778061152
-1925.7672850340605
-2394.620662868023
-2056.564923286438
-1666.530782341957
-1124.3774029016495
-436.3836562037468
384.4998506307602
1202.8884510695934
1908.7733088433743
2365.966212183237
2491.7047335505486
2529.874636352062
2522.2449663877487
2336.0251303315163
1972.3512225449085
1207.2650665044785
364.7268036156893
-407.0764082670212
-1069.2865711301565
-1666.1261050999165
-2041.0732467025518
-1580.0080285966396
-1357.8197357058525
-1025.713531523943
-604.927701830864
1.6810958087444305
365.05940064787865
705.5608687102795
894.4773400425911
939.8796980381012
993.2623379826546
973.1965233981609
877.6323721408844
709.5630565583706
374.1337683647871
-48.22317934036255
-476.9016415774822
-1112.6368106007576
-1405.2009589374065
-1561.7986159846187
-1179.525477051735
-1078.575029462576
-1016.9974032640457
-746.1269939541817
-576.3441053330898
-430.4906939268112
-369.05636364221573
-392.76880782842636
-367.91533479094505
-299.99276745319366
-333.0301289111376
-428.7273798286915
-333.5857240855694
-437.6866562217474
-576.8552801460028
-762.9515324383974
-923.396324031055
-1084.0752566978335
-1188.1062009260058
-789.7101014852524
-845.2411617338657
-891.2194221615791
-988.1831958889961
-1034.4769271314144
-1071.359008550644
-1310.6552726626396
-1300.3058692216873
-1423.6334758400917
-1464.2008752524853
-1343.8740506768227
-1338.772635743022
-1247.1395381391048
-1162.0852666646242
-1034.762161374092
-999.7951902598143
-860.8207489550114
-889.4167906343937
-797.2145606055856
-477.73234140872955
-685.0017712712288
-880.301840275526
-1140.1247674524784
-1365.9684630930424
-1677.0765673816204
-1967.579528838396
-2125.1221429109573
-2274.9003025591373
-2310.646728515625
-2289.643023431301
-2171.0531841367483
-1901.6963301748037
-1663.2217423915863
-1395.5733624994755
-1139.4148757085204
-933.123943246901
-650.8336627706885
-501.0197745859623
-214.54649674892426
-538.3304542601109
-729.493367254734
-1190.510961562395
-1501.2300042808056
-2038.757302492857
-2409.9275853037834
-2656.8993232548237
-2840.545597523451
-2980.634138584137
-2957.766446456313
-2710.8922872394323
-2451.124778524041
-2011.8777706623077
-1646.4112483635545
-1232.9446941018105
-763.9062150195241
-519.0811902657151
-241.34451473131776
239.43698394298553
459.0185672044754
805.9560576081276
1150.8663020133972
1583.9691489338875
2046.7721571326256
2451.2268794178963
2754.1083302497864
2889.781837642193
2998.7844592928886
2904.4891173243523
2775.4656993746758
2406.779146671295
2001.9409184455872
1674.3693779706955
1132.5691488683224
732.6698267161846
463.6077253818512
294.14941996335983
478.25927287340164
652.4903925657272
879.2548815011978
1091.7064138650894
1297.0355260968208
1648.3781175613403
1932.6872206926346
2126.4026881456375
2290.6337221860886
2375.0508059859276
2317.591256916523
2185.1723510921
1876.1046316027641
1669.3381651341915
1377.803493052721
1082.5832014679909
864.5169587433338
644.7363125681877
437.2485504746437
718.1861115098
856.3392263054848
950.0686929821968
972.4203748106956
1034.493006825447
1128.2738869786263
1224.6196597218513
1313.9631494283676
1412.859922170639
1392.6447912752628
1403.6772107183933
1317.679186820984
1232.021076142788
1223.8805947601795
1008.5668806135654
936.9977608025074
943.4453020691872
887.1873417198658
811.5110085010529
1235.685335278511
1087.1491587758064
956.6717585325241
767.2191220521927
614.5044119358063
452.97261983156204
365.0726315975189
273.8944060206413
307.27881905436516
314.0863125324249
288.50763362646103
352.9372203052044
361.53929656744003
409.88546520471573
556.0785185098648
816.5871125161648
993.7889730036259
1086.908046990633
1184.4154400527477
1634.3295230865479
1375.9489012360573
1066.3277086615562
672.6450546979904
81.79617649316788
-406.9312692284584
-677.4983124136925
-893.6264458298683
-1025.4794918298721
-956.03954449296
-1014.242850124836
-906.1712810397148
-776.4301015138626
-320.17862981557846
49.118592500686646
613.8169931173325
966.0435180366039
1431.0459483265877
1614.5017057359219
2055.4250342845917
1654.7642307281494
1076.8686193227768
446.7587233185768
-373.74632650613785
-1256.17393887043
-1993.6095383167267
-2341.235515475273
-2495.459843546152
-2573.308283954859
-2557.419731259346
-2335.163143992424
-1903.1658498644829
-1218.0421292185783
-377.84108969569206
469.51441568136215
1104.6507223248482
1709.2273277640343
1995.0981499254704
2427.8330184817314
1893.5184350013733
1210.337618649006
352.80320250988007
-716.4886568188667
-1933.5138436555862
-3137.5708170831203
-4003.6716183125973
-4279.6327975690365
-4409.42688190937
-4304.3948610424995
-4001.7404630184174
-3100.4986071288586
-1935.7400587797165
-738.8132253289223
309.757198959589
1295.4188055992126
1888.1258952319622
2381.2713423371315
2684.694163620472
2146.423774957657
1361.190864264965
329.61210185289383
-834.0123445987701
-2287.5256529450417
-3992.879346370697
-5699.328917920589
-6632.164347141981
-6367.579193532467
-6623.602397680283
-5677.8121383190155
-4000.0607174038887
-2287.07741394639
-862.7018805146217
317.36644673347473
1308.9327062368393
2208.6595242917538
2667.5879140496254
2948.9361642599106
2277.765820503235
1514.7960616350174
363.25701841712
-928.5907145142555
-2513.9077507555485
-4269.148092955351
-6547.340460985899
-9434.198405951262
-11126.855355590582
-9347.633963257074
-6665.640693217516
-4304.76491984725
-2494.6467797756195
-995.3646450042725
316.457897990942
1457.7750152647495
2333.4443268477917
2904.446520447731
2970.874683737755
2333.719855964184
1455.5052281320095
296.9470563530922
-1038.787173718214
-2535.1469527482986
-4477.037312030792
-6324.961196482182
-11103.90995630622
-12309.279545366764
-11079.916897207499
-6336.950545430183
-4503.437629580498
-2495.84686717391
-958.4200347661972
305.8549259006977
1413.1140583753586
2293.4633682370186
2963.5423767268658
2906.26745647192
2263.196526288986
1449.1370397210121
363.70095324516296
-966.6859982609749
-2521.5127698779106
-4286.779922157526
-6598.613583803177
-9397.849170804024
-11141.852261394262
-9345.22932034731
-6550.733479321003
-4226.734134912491
-2530.931307166815
-980.9441978931427
373.88550589978695
1436.5408995747566
2289.776337772608
2921.1228346526623
2759.3728494644165
2139.1272796094418
1350.7821537554264
350.56023675203323
-930.4663908481598
-2380.13723936677
-4016.6640718579292
-5679.2415408194065
-6606.712682783604
-6346.042274266481
-6599.4140802025795
-5645.034336954355
-3999.642845660448
-2288.7357586473227
-864.2371300756931
368.2813159674406
1320.723799109459
2114.597444549203
2732.368940860033
2441.4305931329727
1901.6686015427113
1246.0349929332733
359.32885414361954
-734.6731033921242
-1949.4245883226395
-3144.79790738225
-3975.3671496510506
-4246.948976516724
-4508.3151063025
-4297.2350914776325
-3965.6094335615635
-3107.6998181045055
-1911.7924482375383
-714.8490976542234
335.63973566889763
1319.8309523165226
1946.2952377945185
2405.1866425573826
2076.589919447899
1687.7373701334
1116.8651509284973
451.32665327191353
-383.3021128475666
-1216.3567800819874
-1923.2877732813358
-2350.620292186737
-2498.7834319472313
-2525.4501346349716
-2523.7642618715763
-2310.0808934420347
-1961.9054808616638
-1209.6896717846394
-359.61885422468185
402.40229009091854
1080.101281106472
1669.8873763680458
2034.105806156993
1558.7829169034958
1358.2687597572803
1032.9537250101566
607.0853064656258
27.411659121513367
-375.31697684526443
-701.7386881411076
-893.2916761934757
-942.1410200595856
-997.5848912894726
-969.0675109624863
-884.0983543097973
-704.877672702074
-386.7757952362299
47.3442227691412
506.08841878175735
1107.3237518370152
1369.5481144338846
1573.6921665519476
1139.3059889674187
1090.1324248313904
1012.4666641950607
789.6437043249607
571.2932560145855
428.6883397400379
387.06234616041183
394.6303500831127
366.3005965948105
316.6190322637558
340.35321843624115
449.7841695398092
335.33090414106846
434.0018386244774
548.7731926143169
760.9454883038998
926.1329288631678
1103.5355037227273
1164.1025352030993
804.4561212062836
841.5029266774654
869.9675767421722
976.9237486124039
1038.0406158268452
1080.4062164127827
1309.8469606041908
1329.383251041174
1410.4723369181156
1465.4240337312222
1359.639948129654
1341.249867811799
1270.6376362890005
1151.5749699771404
1050.1166933774948
1011.0325665473938
842.1664062961936
897.3650409281254
792.2230013385415
456.3737380206585
710.0159971117973
881.9396404325962
1136.655524790287
1345.7527093589306
1701.9637294113636
1948.7922623157501
2116.288060158491
2292.0522125959396
2304.7728861272335
2294.792749866843
2158.251483350992
1898.1147555112839
1668.9611941576004
1396.7234414219856
1154.7067302688956
927.8945318758488
624.5594263896346
494.9372209087014
218.54197171330452
514.6491514444351
726.6525340974331
1199.7831509411335
1512.8489431738853
2037.9762784540653
2377.2688398361206
2663.960085809231
2853.088253378868
2982.439422994852
2954.426344513893
2736.4083267748356
2426.709559455514
2016.791500389576
1651.4374012872577
1219.2034238278866
781.2238135188818
523.6234943568707
222.57783772051334
-202.21857184171677
-34.278146147727966
132.61805856227875
-351.19791227579117
-34.34344691038132
281.26831847429276
-510.2473313808441
-6.79642516374588
496.6608852148056
-776.5772975683212
-26.417180001735687
722.8222324848175
-1042.3046423196793
-3.1034034490585327
1036.0203666090965
-1320.0487939715385
-3.7453678846359253
1312.224573791027
-1611.3395102024078
-4.779716610908508
1601.6884410977364
-1836.4711509346962
-13.093144297599792
1810.3020386695862
-2047.9273151755333
-35.35956698656082
1976.594881594181
-1968.9053667783737
-18.549034237861633
1931.8318397402763
-2005.8333175182343
-35.27400779724121
1934.364386022091
-1863.1147683262825
-38.88635832071304
1784.2737131118774
-1651.0033513307571
-12.4684317111969
1626.1605147719383
-1347.3970375061035
-12.683866202831268
1321.8761928081512
-1087.305912733078
-9.760710895061493
1067.4417529702187
-736.5070585012436
5.977419555187225
748.5155096054077
-545.012286067009
-26.02450531721115
492.1071805357933
-313.12089973688126
-27.404831767082214
257.1064266562462
-195.5561462044716
-7.578159213066101
179.92912352085114
-206.37733426690102
-40.40928012132645
124.26730254292488
-299.7965498864651
13.404972732067108
327.0375746190548
-524.7551640868187
-27.537938445806503
468.69288289546967
-815.4205948412418
-31.245637476444244
752.0553400814533
-1091.0270486176014
5.802467614412308
1102.9696912765503
-1364.6428054273129
-11.678569614887238
1340.7798460125923
-1573.8689374923706
26.620612025260925
1627.667035460472
-1816.634994328022
19.67663338780403
1856.3606582581997
-1992.700338602066
-23.775235801935196
1944.582601517439
-1997.2761501073837
-12.097668021917343
1972.8955543637276
-1953.9620765596628
18.755597561597824
1992.079008102417
-1831.3878992795944
4.486923202872276
1840.3208093345165
-1603.0389592647552
27.62195712327957
1658.9819897860289
-1356.4914507120848
23.447057366371155
1404.4436186105013
-1040.4287395477295
19.154499500989914
1079.7300032898784
-814.4817458763719
-6.10409439355135
801.9650164842606
-536.0363838002086
-3.76848828792572
528.1723843887448
-294.3453360982239
-17.900380589067936
257.86775443330407
-187.25720678269863
-33.9729786105454
118.23330216482282
-167.3206589538604
14.378658194094896
196.26867691986263
-331.60563376918435
1.1148238517343998
333.35497527197003
-474.7188946008682
16.666027449071407
508.2797705158591
-785.04944036901
6.620266444981098
798.1583054512739
-1150.1620195433497
-31.691946670413017
1085.7049305960536
-1378.6146482527256
11.246654286980629
1401.3684189468622
-1613.7504270374775
-8.676356136798859
1595.9418355673552
-1790.8393244594336
10.24430701136589
1811.4935923814774
-1920.378567442298
13.517085447907448
1947.6354026198387
-1978.3473632335663
7.716004580259323
1993.6762057840824
-1864.8083085417747
50.52762970328331
1967.3260543346405
-1775.315682977438
22.172423243522644
1820.1770638525486
-1603.7945764660835
25.485800564289093
1655.2947406172752
-1360.7490601837635
5.111561983823776
1371.0312639176846
-1101.6758970916271
-20.793112993240356
1059.683330744505
-796.5449918210506
-10.141184359788895
775.9599139094353
-487.6544154882431
23.244759142398834
534.5997261404991
-300.49112778902054
0.5404521524906158
301.2713726758957
-188.04079857468605
-14.395281821489334
158.45638230443
-212.89747834205627
-30.799041390419006
150.01315826177597
-339.7832586169243
-12.282580196857452
314.79113072156906
-465.9244792461395
13.159611284732819
492.83396768569946
-764.0191931128502
-3.0534300208091736
757.9376467466354
-1108.5499640107155
-33.797969341278076
1040.1227585673332
-1392.3392392992973
3.3739876747131348
1399.5374812483788
-1596.6356587409973
3.9886929988861084
1604.788237452507
-1801.8103629946709
14.295578479766846
1831.063077867031
-1980.2318186759949
-36.17882436513901
1906.8838720321655
-1982.4706909060478
14.736158788204193
2012.4360016584396
-1946.5646519064903
3.047181189060211
1952.5471187829971
-1758.3802517652512
30.608659744262695
1820.4442269802094
-1631.2355853319168
3.3083614110946655
1638.170817911625
-1385.0060431957245
-20.86954814195633
1342.668549478054
-1048.2515777945518
11.84309583902359
1072.1554735898972
-753.1629828214645
2.2467488646507263
757.4321838021278
-489.3775561451912
6.892728507518768
503.2306455373764
-284.27375906705856
7.132513165473938
298.39330315589905
-125.23032689094543
25.72590136528015
177.12757444381714
-123.07631719112396
-5.239835679531097
111.29284912347794
-210.61026883125305
6.225069165229797
222.46060168743134
-382.18132454156876
3.164010763168335
388.3695123195648
-560.9225570559502
-5.2057976722717285
550.0904559493065
-761.0045164227486
0.009135663509368896
761.1578914523125
-982.0165954232216
1.2849469184875488
984.9692223072052
-1179.526470541954
-0.3709911108016968
1179.0736422538757
-1338.3158940672874
-7.768741309642792
1321.9231876134872
-1386.2367580533028
3.3060524463653564
1392.2243060469627
-1460.2757778167725
-11.029126048088074
1437.8149966597557
-1389.8409179449081
4.244117319583893
1399.2109627723694
-1327.394182920456
4.537758409976959
1337.726629436016
-1167.1610603928566
-6.433654725551605
1154.3847501277924
-958.5628551840782
1.6863062381744385
962.7878871560097
-784.8359730541706
13.144602328538895
811.9740695953369
-547.7978393137455
-2.487855464220047
542.5113702714443
-352.06393641233444
-1.3354801535606384
349.8223922550678
-232.8559376001358
-6.851217120885849
218.11237585544586
-140.47709292173386
1.1305594146251678
141.32810857892036
-235.4571967124939
-3.786212146282196
227.03198099136353
-326.41793555021286
-8.687546133995056
308.19916194677353
-431.33221900463104
-5.5985963344573975
419.2531241774559
-541.362546980381
-10.841837108135223
518.6706829667091
-628.1176453828812
-4.050193190574646
619.9587267041206
-816.0797067284584
-15.075236737728119
784.916264295578
-905.8585833311081
14.34108680486679
935.8174384236336
-1007.597655236721
8.715279638767242
1026.010716021061
-1096.1381947398186
2.669553816318512
1102.4535126686096
-1119.2562769055367
13.329161822795868
1148.1989033818245
-1120.2897381782532
-4.253654360771179
1112.3648750185966
-1035.7044144272804
8.869984447956085
1054.9403662979603
-904.2351069748402
-2.1541722118854523
900.0438473522663
-807.5117933452129
-3.7512633204460144
800.227608948946
-665.5773121118546
-2.406974971294403
660.5647435188293
-516.0533912479877
1.9987595975399017
520.2745463550091
-415.52816864848137
-0.9715767800807953
413.81837913393974
-308.14186561107635
0.714951902627945
309.02483052015305
-216.04635745286942
-4.090411514043808
206.7535338997841
-327.8486980199814
9.297845184803009
347.58431392908096
-425.8710278868675
-10.045313656330109
405.44405686855316
-445.0073633790016
6.473003625869751
458.88427102565765
-460.04778093099594
3.8596959114074707
468.39914214611053
-495.7693353295326
-0.09468168020248413
496.3055285811424
-519.5462659597397
14.053015768527985
548.7045865058899
-592.6135212182999
-2.7398619651794434
587.3119933605194
-628.1482329964638
1.6395052671432495
632.2659941911697
-695.7952507138252
-10.526905715465546
674.5065003633499
-685.9172011315823
-10.577274829149246
664.2507131993771
-679.4756937026978
-2.8640966415405273
673.744921296835
-642.3279429972172
-6.127922415733337
630.3083168566227
-591.3562698662281
-0.34618762135505676
591.5703926384449
-578.3234895169735
5.6732490956783295
591.2330888807774
-493.7012026309967
-6.210672289133072
480.93683606386185
-458.9625305533409
-6.181184709072113
446.22898679971695
-454.1805712878704
-1.317681610584259
451.8662965595722
-414.018946826458
6.919924437999725
428.59836542606354
-406.96572998166084
-10.780508041381836
384.2388636767864
-594.3899497389793
-0.23904949426651
593.9501966834068
-516.0289243459702
2.81395423412323
522.5412293076515
-455.89765870571136
1.3965973258018494
459.23373579978943
-356.1223700642586
7.220383167266846
371.2757308483124
-305.4655805826187
-6.836838006973267
291.79179632663727
-230.31289911270142
-8.211177587509155
213.75199741125107
-163.03096920251846
7.5871493220329285
179.4654245376587
-136.21879124641418
-3.465398907661438
130.1150929927826
-156.47405284643173
-5.263812750577927
146.06886240839958
-138.5760553777218
7.979664534330368
155.69055065512657
-142.03324508666992
-2.3593995571136475
138.07063746452332
-158.31467413902283
6.545259863138199
173.46656042337418
-182.13071486353874
-5.9210138618946075
171.12467622756958
-190.20934063196182
3.585781902074814
198.09792256355286
-264.548749089241
1.2180344760417938
267.10330033302307
-386.6614461541176
2.9087940454483032
393.23772898316383
-467.5624306499958
5.263351082801819
479.27552729845047
-496.51277455687523
14.68894749879837
527.7992375195026
-580.1354421675205
-6.9625449776649475
565.471595197916
-786.4980319738388
-0.343372642993927
785.724393248558
-663.6734789013863
-2.306259274482727
659.4254450798035
-495.8063257932663
10.148349404335022
516.9548745155334
-322.36330181360245
0.817324697971344
324.0838024020195
-40.48856806755066
-1.129504919052124
38.435342609882355
203.84102314710617
4.752487599849701
-193.61023437976837
315.6956379413605
-5.911221206188202
-327.44555991888046
440.7731502056122
7.384412705898285
-424.66781255602837
502.58540374040604
6.580259203910828
-488.4456244111061
450.86730962991714
-4.049981415271759
-458.81139156222343
492.5362282693386
3.4898099303245544
-484.50525560975075
439.3418222665787
2.1832863092422485
-433.54642727971077
387.39019653201103
7.91655695438385
-369.9070054292679
141.7952303290367
-7.858315616846085
-157.29078441858292
-25.099465787410736
-1.7332777082920074
21.88319543004036
-290.5786617100239
2.5398463904857635
296.0789233446121
-459.847173422575
1.6911230683326721
463.67704993486404
-682.6179817914963
2.849700152873993
688.9745266139507
-777.0702641606331
-0.7733129560947418
775.577919781208
-985.1590461134911
2.5462818145751953
990.2091151475906
-806.1953263878822
-7.330228745937347
791.5141310691833
-532.8065562844276
-10.205739676952362
511.87136775255203
-210.43161672353745
2.4853098392486572
215.7694070339203
184.85376369953156
3.1260673999786377
-178.098270714283
611.5558084249496
4.613413214683533
-601.7600440382957
958.6706563532352
-0.2312988042831421
-958.6653290987015
1128.826488018036
2.7653436958789825
-1122.4262456595898
1180.0829646587372
-10.041440188884735
-1200.986699104309
1245.9704223275185
8.242613971233368
-1229.536978393793
1215.1695367991924
-7.385999113321304
-1230.4843820631504
1113.0573723316193
-5.227897018194199
-1123.3841335773468
918.0910501778126
2.7002338469028473
-912.5630674660206
596.2126949429512
6.227522253990173
-582.5494088828564
184.48898801207542
0.5951316654682159
-181.7825948894024
-227.43341034650803
-1.5643105506896973
224.9854616522789
-551.7033867537975
-14.184708446264267
523.2992797195911
-821.0444787144661
-0.3709876835346222
821.221530020237
-951.3323060870171
4.68922832608223
961.1981454491615
-1181.9249486923218
-8.730990588665009
1164.0180261135101
-887.1800230145454
12.992880284786224
915.510476231575
-583.5361387133598
-1.749886393547058
580.5264204144478
-157.01420414447784
7.288179993629456
172.98580539226532
347.88582944869995
1.6838035583496094
-343.49499440193176
916.9199087321758
-7.855257719755173
-932.8044945895672
1507.551204919815
-0.5341226756572723
-1508.1769699156284
1930.1936177015305
4.0960942804813385
-1921.311891168356
2042.9551961421967
-5.971235603094101
-2055.811971694231
2121.4623728096485
3.779900908470154
-2114.000949472189
2069.7030933499336
2.48709437251091
-2064.2658447623253
1918.875796943903
-3.045554131269455
-1924.2361608147621
1489.0676960647106
-0.49990713596343994
-1489.850841641426
936.0182604193687
3.414940983057022
-928.5133664011955
350.75728130340576
-3.298455059528351
-356.6719416975975
-148.0308057665825
-0.22044864296913147
148.3410940170288
-617.0775284171104
3.3634767830371857
624.687479197979
-915.3519843220711
-5.0095833241939545
904.7413333058357
-1149.2098445892334
-2.11577969789505
1144.5023205280304
-1272.3631068468094
11.54883897304535
1296.6729778051376
-1033.0138926506042
-1.2350691556930542
1031.1653411984444
-661.5581780076027
-4.547777831554413
652.4466966986656
-154.58153992891312
2.0702136754989624
159.70095759630203
390.30569368600845
-5.896638661623001
-401.95908802747726
1096.1927957236767
-0.7250163853168488
-1097.6206533014774
1919.7002514898777
0.5552483797073364
-1917.970704317093
2742.5367019176483
1.4952244758605957
-2739.1553607583046
3183.913174778223
-0.6918824315071106
-3186.093965768814
3053.1242608428
1.7792492806911469
-3049.8335988521576
3167.1240241527557
-9.552867263555527
-3186.5651275515556
2740.4173411130905
6.371541261672974
-2726.477237701416
1927.0651297271252
3.1725562512874603
-1920.2429506778717
1072.1473943293095
-15.726269334554672
-1104.690378576517
420.9330496788025
4.898486793041229
-410.6381230056286
-162.81796330213547
-5.751272261142731
150.79464811086655
-630.7851263284683
-1.2610138058662415
628.3587864041328
-1050.6029185056686
7.5297181606292725
1066.2408144772053
-1269.5950584709644
8.601154744625092
1287.242654979229
-1422.6609832048416
-2.9735133051872253
1417.458535373211
-1090.6067190170288
1.7331648468971252
1095.363552749157
-734.6526480317116
-4.158404111862183
727.0800577402115
-172.8005874156952
0.35441410541534424
175.1610995233059
457.75815707445145
8.259813696146011
-440.28773215413094
1200.824013531208
-3.1257939636707306
-1207.2443206310272
2030.9255227148533
-10.859926551580429
-2053.318683743477
3153.1789512336254
4.7895859479904175
-3142.696558356285
4532.925224244595
-3.265899419784546
-4540.552155017853
5370.475347131491
6.028488606214523
-5359.0016431212425
4499.786164075136
1.8476609885692596
-4495.987213432789
3199.324716538191
-2.284111112356186
-3203.7294447124004
2064.1334015727043
-0.5194380581378937
-2065.5165941417217
1201.6104283630848
3.49075186252594
-1194.5240595638752
463.34855419397354
-8.767732918262482
-481.06997552514076
-156.16567280888557
-2.058247208595276
152.1606501340866
-677.6393622756004
14.608752697706223
708.4184654057026
-1130.7140949070454
-5.394413143396378
1119.851514428854
-1418.5742158293724
-13.374639183282852
1391.170936614275
-1418.6393492817879
5.818788409233093
1431.758627653122
-1119.7011886239052
0.04513758420944214
1121.4816104769707
-702.1717622578144
-1.883916288614273
699.039976388216
-149.59709477424622
-5.049191623926163
140.38872376084328
484.94914907217026
-8.674111247062683
-502.14439630508423
1237.5762998759747
13.425673633813858
-1209.0208417773247
2157.3538516163826
4.874852538108826
-2147.0440303087234
3024.4541495740414
-3.824701249599457
-3032.0738349854946
5338.216769725084
-7.509504497051239
-5354.389861315489
5930.654990911484
1.9658836424350739
-5927.440197318792
5328.03473380208
-6.66955292224884
-5342.403805881739
3049.521678030491
8.1384936273098
-3032.253869920969
2172.754460334778
6.764291077852249
-2158.8726367652416
1195.70845079422
-0.06237003207206726
-1195.8454105854034
467.03412264585495
5.0911054611206055
-456.073867470026
-159.26507660746574
-7.250268876552582
144.3534900844097
-679.6007671058178
-0.30527254939079285
679.2544822394848
-1114.1465330719948
-7.8823564648628235
1098.4636834859848
-1423.5545043349266
0.9462607204914093
1426.1643289029598
-1401.3769040703773
-2.0388296246528625
1397.3137155771255
-1086.3419454097748
0.5142389535903931
1087.9581436514854
-679.3130089044571
10.134671747684479
701.5402102768421
-155.8513604402542
11.891585439443588
181.49557822942734
447.0866679549217
-10.098108559846878
-467.4715636372566
1196.4921172261238
-8.12997418642044
-1213.1174851357937
2061.4595829844475
3.1583442389965057
-2055.065568238497
3149.008320450783
-12.165230393409729
-3175.034475684166
4517.3645195662975
-2.4697143733501434
-4522.71830740571
5369.823516964912
0.19467684626579285
-5369.583942145109
4494.012461423874
-1.0231858789920807
-4496.323726326227
3150.711734712124
2.5973936021327972
-3145.1925811469555
2021.2771167755127
-3.4096014201641083
-2028.7918328344822
1201.0539722442627
-8.1324422955513
-1218.147678077221
482.5275931060314
7.162670761346817
-466.8176457583904
-173.27633121609688
4.218122765421867
182.83601865172386
-697.8845451772213
-4.719117984175682
688.6870108693838
-1104.7399219423532
-2.8407293409109116
1099.4538372457027
-1410.1780904978514
-3.6640067398548126
1403.5296184271574
-1326.3148028850555
1.3879960179328918
1328.8740245103836
-1045.447135746479
-10.780276417732239
1023.2414515316486
-644.4430356025696
2.40285262465477
650.2966604828835
-176.16324850916862
-4.271442294120789
167.5989969074726
457.5135645866394
6.481041759252548
-443.3736181259155
1156.5539413690567
8.226363956928253
-1138.9105338454247
1928.1787323057652
-0.8069005012512207
-1929.8546994924545
2756.1856595873833
16.76988250017166
-2721.830653220415
3187.3173666894436
8.933447808027267
-3169.212523460388
3028.7084339261055
-7.221607446670532
-3043.7142747342587
3164.9912389814854
-3.082616448402405
-3171.5989977419376
2715.04690772295
1.054285705089569
-2712.6948317289352
1917.917444229126
-2.856649786233902
-1923.2025945782661
1098.7620460689068
-0.1859552264213562
-1098.4659625291824
417.255138784647
1.297721967101097
-413.56120052933693
-184.3753503113985
-4.5909478813409805
175.71832935512066
-635.6983470618725
-1.3815837353467941
633.7856193482876
-1021.5057932585478
-3.913764789700508
1014.1933659017086
-1308.8402453660965
2.9254233837127686
1315.8926301896572
-1163.3055503964424
6.815648019313812
1177.673371911049
-897.3305845856667
9.519638806581497
917.8663619160652
-618.7532045543194
-13.374240010976791
592.1913748383522
-169.9876969754696
1.3181394636631012
173.48159050941467
351.6882548928261
-0.996825635433197
-353.1943835616112
926.6515713632107
-6.501200646162033
-939.6463702023029
1521.4934234321117
6.181243002414703
-1508.394006371498
1892.8133250772953
-10.037908613681793
-1913.9318765997887
2043.25584551692
4.163217604160309
-2034.9857557713985
2163.384421169758
-1.0924150049686432
-2165.1583286225796
2053.778648465872
-5.341064423322678
-2064.530348956585
1902.2546941041946
-1.8927511274814606
-1905.8019087910652
1498.9856064915657
2.819672927260399
-1492.2055556625128
913.3882388472557
-3.467521160840988
-920.0802386105061
350.3399725854397
3.6840673089027405
-341.67127345502377
-158.79746210575104
0.8885251879692078
161.54116222262383
-623.9534105360508
6.395196318626404
638.1673799753189
-923.0476118177176
6.950150161981583
938.6228510141373
-1149.8534501791
4.257710218429565
1158.8958397060633
-985.2924110293388
8.573127448558807
1003.1673529744148
-797.6806012690067
7.529529452323914
814.2975962758064
-543.0516907572746
-5.171527534723282
533.4239524006844
-207.62888878583908
5.149706691503525
219.10288378596306
183.80378779768944
-1.0989360511302948
-185.14473181962967
574.2272874116898
-6.777621686458588
-587.7578517496586
912.9283780753613
-7.260399788618088
-927.449432104826
1138.3445119559765
5.771491706371307
-1125.837404280901
1193.3981691002846
-3.0911861062049866
-1199.8071828484535
1213.069830596447
1.564951866865158
-1209.610757023096
1208.4585798680782
-2.1177661418914795
-1212.0101957321167
1125.7028109431267
10.108528167009354
-1104.037103280425
949.6229722499847
3.813302829861641
-941.2861441969872
578.9270779341459
-1.6898145526647568
-582.0632949769497
174.99054291844368
0.9485284388065338
-172.2805823534727
-197.7379201799631
-3.7823944240808487
190.90125472843647
-510.7152096480131
4.824613511562347
520.666203185916
-800.4690228849649
0.8756976276636124
802.7379542738199
-983.0706319659948
-3.3229658156633377
976.3524663448334
-763.2637081742287
-8.75665083527565
744.816884547472
-652.8381000161171
-1.0656251907348633
651.3603345155716
-491.81868958473206
1.8780036270618439
496.45118749141693
-291.5448928177357
-0.9656360447406769
290.64184778928757
6.367906779050827
10.526420891284943
16.71800199151039
172.04525130987167
-5.87286376953125
-183.41712719202042
338.7302420735359
1.0634130537509918
-336.17647910118103
428.19911736249924
-0.6700182855129242
-428.8996652364731
448.5527528524399
-1.8032095730304718
-451.8222065269947
474.3018843829632
-2.0981277525424957
-478.5292501151562
466.66042989492416
1.694680094718933
-463.07934868335724
418.8338031023741
-3.131943166255951
-425.145525097847
340.5587333589792
1.1808240115642548
-337.6083405315876
176.35133349895477
-6.454487681388855
-189.18480902910233
-23.679457530379295
-1.5853440910577774
21.084596201777458
-222.71312062442303
11.505593568086624
247.2919209599495
-535.4662705808878
-1.1556493490934372
532.4115334451199
-682.3653695434332
-15.60913522541523
650.0262193381786
-747.3739502951503
5.25258632004261
758.2472103759646
-574.100443571806
-16.3927481174469
539.4385998249054
-515.4568519592285
4.453192204236984
525.0470575988293
-490.4576676785946
-3.2384967505931854
484.4700679779053
-350.9725823700428
15.778185337781906
385.5552418231964
-280.29762759804726
-5.605138927698135
270.6330797076225
-208.85261556506157
-2.9487229585647583
203.986142963171
-175.37874421477318
6.168364405632019
189.15141996741295
-190.70440396666527
-0.19023463129997253
190.89315670728683
-179.40202137827873
-1.8537002503871918
176.2220658659935
-142.2930515408516
6.251064270734787
155.83825439214706
-160.95306506752968
1.6089891344308853
165.20689529180527
-204.24497272074223
8.422844469547272
222.15621830523014
-161.5124671459198
-1.0359516441822052
160.40147185325623
-211.57295873761177
-2.2512166500091553
207.2769694030285
-282.4459132552147
-12.090012640750501
257.27590833407885
-367.6641001994285
-2.4722779244184494
363.4621030539274
-442.6500343158841
0.4491802901029587
444.01059172302485
-516.1496137529612
8.184316582977772
533.3064860850573
-574.5915396437049
-9.305919960141182
554.6189343333244
-374.45547649264336
7.8402266800403595
389.90762293338776
-405.2137531340122
-0.9648741781711578
402.826752781868
-431.3592076897621
-9.203898966312408
412.23651361465454
-478.39908587932587
-7.090700089931488
464.9615243971348
-497.3658565878868
-0.23218455910682678
497.9239681661129
-514.1920087039471
1.2036424279212952
518.2736922502518
-632.0855420827866
-1.8199160695075989
629.1642499566078
-620.4448430538177
10.540416806936264
643.5498307943344
-688.6029771566391
-7.18112251162529
674.5458050966263
-704.7890200912952
0.10566949844360352
705.2615623176098
-643.1930812746286
5.869429767131805
655.955122679472
-643.5535872131586
0.7363101541996002
645.2898346036673
-595.5579662770033
9.16115029156208
615.19797706604
-560.9881039261818
-4.922973573207855
550.9818487018347
-494.50946721434593
5.352146774530411
506.39225271344185
-479.3585434406996
2.789530448615551
486.37161196023226
-416.1885147020221
-8.452347300946712
398.8465209752321
-423.5298939049244
5.341124728322029
433.5460941493511
-381.4315609559417
0.25105880945920944
380.5503285601735
-231.124925583601
-7.260814338922501
214.88167080283165
-322.482469946146
11.745699167251587
346.3699086010456
-421.58599960803986
0.8873602449893951
423.3442040681839
-548.4431103169918
-1.7956328690052032
544.8824923634529
-660.8378749787807
-9.711973816156387
641.2132562696934
-802.1547803580761
9.201481252908707
822.2117129266262
-949.8282119035721
-7.774376213550568
933.4626765132707
-1024.8082657385094
-5.758762903162278
1013.96888256073
-1090.927762657404
6.603590041399002
1105.1411539912224
-1112.5965380370617
-3.2279843389987946
1106.2859568595886
-1100.5140492618084
1.4526061117649078
1103.994585454464
-1046.674989104271
-5.393266633152962
1035.3865521550179
-914.2712193876505
-1.2677529603242874
911.4775798022747
-798.0857529938221
2.1558265686035156
802.7590032815933
-670.9383717924356
-0.812699943780899
670.020779773593
-544.6338766291738
5.347586028277874
556.4957327768207
-449.28267023712397
-2.426735445857048
444.34933008253574
-314.5191651955247
-8.798340521752834
294.7457567304373
-238.42332112789154
0.34373488649725914
237.40489225834608
-98.25684878230095
4.214247405529022
105.56890144944191
-261.9148218333721
-9.07687658071518
242.36438077688217
-348.4286215901375
0.20043256878852844
348.02718782424927
-569.4420644342899
4.915838599205017
579.1407983601093
-718.559273391962
4.338554352521896
727.9818824827671
-981.1119484603405
-0.7074486911296844
979.862072378397
-1166.0437616109848
-14.125458180904388
1136.688476383686
-1276.1857181191444
3.347000300884247
1282.9762153625488
-1363.2458740770817
5.780762165784836
1375.0630716383457
-1434.0618001520634
0.6140294671058655
1435.435264647007
-1424.9936111420393
-2.460360497236252
1420.476670280099
-1299.3873478770256
10.283740103244781
1321.2110624015331
-1184.4723973721266
-10.539285495877266
1162.5595348477364
-967.6921957731247
0.1417437046766281
969.1486317366362
-792.1860526427627
0.1356184333562851
793.6489390134811
-595.5570555627346
-6.697362907230854
582.0760700032115
-361.35007923841476
8.230464473366737
378.0361090898514
-245.6288538388908
4.580225355923176
253.63065557926893
-116.42054017182454
-6.145469697468798
102.51005158048065
SCALARS strain23 float
LOOKUP_TABLE default
-2.091821796086151
-2.078258277120767
2.2203093934904246
2.357048876263434
-2.295704172574915
-2.048085480055306
2.320018599444211
2.007749123906251
-2.8399845815147273
-7.129618476552423
-14.221988578618038
-23.422443838237086
-33.2601826453174
-43.39593907078961
-52.030329782748595
-59.11043019374483
-63.44663044530898
-64.75403354893206
-63.35272591401008
-59.039274953247514
-52.21337341997423
-43.42408553647692
-33.18601267403574
-23.236028555285884
-14.174430180515628
-7.203104691638146
-3.0683631260471884
-0.689774820319144
-2.392143419216154
-3.510922667104751
-4.841067968358402
-5.21520786563633
-4.998919334742823
-4.389726832770975
-3.4281662529101595
-1.7510227813909296
0.07667636123369448
1.8406416942598298
3.131640373787377
4.493863272022281
5.108720830648963
5.273190356536361
4.6670385682919004
3.657135705194378
2.133712989574633
0.8578896375629483
2.6863220495424684
7.139253674768042
14.156570089457091
23.27989857956345
33.39363207114366
43.49574552795093
52.161775105858396
59.17852097361174
63.250384046536055
64.95564743102295
63.295858084617066
59.18367345223669
52.28494406105892
43.66522982263996
33.29362129900255
23.26398215854715
14.010464493796462
6.952993997401791
2.9368417601799592
0.7030060156539548
2.2438038211257663
3.4198111019213684
4.934526289696805
5.356984346988611
5.248008100519655
4.522873621550389
3.3413828140182886
1.964336534612812
0.06253772758645937
-1.8019133405177854
-3.296276498498628
-4.334313983243192
-5.213063092611264
-5.438699680875288
-4.739496708934894
-3.6036291804048233
-2.1972937282407656
-0.7256706915795803
-2.9111364540294744
-7.08569337654626
-14.116047584975604
-23.127956463285955
-33.56538085237844
-43.2648040233762
-52.1727686743543
-58.93619200808462
-63.30969970455044
-64.89787090732716
-63.42572776885936
-58.97721647657454
-52.0716359676735
-43.16882502834778
-33.36430275836028
-23.26394359584083
-13.980348988901824
-6.938107929105172
-2.7035041310300585
-0.6530689337523654
-2.1142041313578375
-3.4992980564420577
-4.675266346486751
-5.221549862937536
-5.367015864321729
-4.560525673019583
-3.1782903970597545
-1.6499933679733658
-0.0380055919958977
1.6438110623130342
3.572518813816714
4.4882585588420625
5.240573022630997
5.259441373302252
4.817455406853696
3.553947307904309
2.5213873319698905
0.7941927056217537
2.81151929254429
7.180048658219675
14.08214628739006
23.337213691036595
33.369078832394734
43.366628041469085
52.25542902000598
58.8798753455485
63.4276730655547
64.89430933704716
63.44011691992637
58.88992971985135
52.15102564358676
43.09878470035619
33.38535439374391
23.01702590023342
14.208489759883378
7.0987328516785055
2.703291926183738
0.7501331305829808
2.1994485133036505
3.611252822272945
4.575055895460537
5.19717482701526
5.0911608230671845
4.485591088538058
3.272298923926428
1.6711958340601996
0.10704252772848122
-1.7664878307259642
-3.2136684960278217
-4.598169994947966
-5.027123391191708
-4.988521773862885
-4.6855329987592995
-3.6299403914017603
-2.3406284977972973
-0.7563129930058494
-2.1876492701121606
-2.2534717664530035
-2.2893915541062597
-2.117564289015718
-2.1259822084684856
-2.1029403416614514
2.2891451641166896
2.328465474382938
2.338598718960384
2.314806367852725
2.243029067234602
2.140880317572737
3.271371656737756
2.949536304862704
4.924679811345413
5.435100803239038
5.580240769253578
5.251215146970935
4.24956777994521
3.0540482366341166
1.7847992220777087
-0.021915042016189545
-1.496257791761309
-2.983305071858922
-4.25895182901877
-5.072288706927793
-5.733310417999746
-5.476498036005069
-5.0899965010466985
-2.9070716974965762
-3.3578237418842036
2.8564633008500095
1.6373104486847296
3.196108172327513
3.651485676673474
4.129156205483014
4.044005301140714
3.3900588735414203
2.5066026953572873
1.260925299837254
0.011726002412615344
-1.4508854298037477
-2.364849836798385
-3.4741020939545706
-3.9922930058673956
-4.0590801137150265
-3.7871430623636115
-3.2000933172821533
-1.586414370831335
-2.843643085041549
1.7341384421742987
0.49786331845098175
1.3195293761964422
1.3152036414539907
1.7955166567699052
1.837431961321272
1.6413265651499387
1.2749972698220517
0.5969833338749595
0.02760136275901459
-0.6026651398569811
-1.1358969025604893
-1.6459278161055408
-1.8329540451813955
-1.6551505290844943
-1.3343469120445661
-1.2267492899263743
-0.5314078634837642
-1.8608860343520064
0.09560481528751552
-0.04911059042206034
0.4283812762296293
0.2890913383162115
1.0362272480560932
1.4337734173168428
1.7377430483757053
1.4494734271720517
0.673388243507361
-0.06891651402111165
-0.7794828920159489
-1.3415790276776534
-1.576185228623217
-1.686928239039844
-1.0475014994444791
-0.4642913499410497
-0.45060144366289023
0.08231673977570608
-0.31312088393315207
-1.705165460734861
-0.9864709408720955
-1.2260056658706162
-1.7226563593139872
-1.294360896165017
0.020315310364821926
0.8396107378066517
0.8848928170627914
0.6944160831917543
-0.1608973939146381
-0.6640216701489408
-0.9145397369866259
-0.7259492415760178
-0.1120108984032413
1.1725566184904892
1.8211275063076755
1.0776224365254166
1.1795761378161842
1.5488316115515772
-3.262724585190881
-1.7182569616707042
-2.6769511936290655
-3.000757470203098
-3.6720140261168126
-2.8801045601139776
0.3716454588866327
0.9403307791508269
1.0151731904188637
0.05359629722079262
-0.9618531800224446
-0.9962311363051413
-0.34625812248850707
2.723497975443024
3.5419115693075582
3.26011738316447
2.8510860788810533
1.6308249960566172
3.4513178264314774
-4.6522105218609795
-2.3699008434196003
-3.742611397523433
-4.618226117134327
-5.221994813386118
-6.209387560957111
-4.7285591134859715
2.7722106268338393
0.29864668313530274
-0.07738448784220964
-0.22829727467615157
-2.8817953122779727
4.831865764193935
6.120663360343315
5.233104809114593
4.437055876071099
3.6937211501062848
2.240137617904111
4.846835373711656
-5.8467127464246005
-2.7375134114699904
-4.5772075256682
-5.304385009221733
-6.498751802020706
-6.823961793706985
-10.6822404996783
-8.58034459152259
12.651870080590015
-0.04663231001177337
-12.646640875318553
8.73158096849511
10.63078209158266
6.682660441758344
6.207994126307312
5.231001704887603
4.570092049223604
2.749313314256142
5.923184210405452
-6.80951865928364
-2.9345126136031467
-5.070639459067024
-5.666564275219571
-6.794361446576659
-8.51812998461537
-7.24484127634787
-18.310904443074833
-21.08829649456311
-0.08938094510813244
21.054810072208056
18.241100201383233
7.504225370488712
8.501055281900335
6.942594023057609
5.909762315597618
4.997942992064054
2.688813139378908
6.431336942172493
-6.807653890486108
-2.995362549641868
-5.169718618068146
-5.8399926469428465
-7.386014647228876
-7.105919145338703
-13.553067194996402
-1.9115132471197285
-44.88468257042405
0.3625694526126608
44.89240254405013
2.129855248145759
13.556598349066917
6.898686853499385
7.541712386810104
5.787628169346135
5.330276188702555
2.9726809475105256
6.854615473217564
-6.690900631481782
-2.9597441109945066
-5.012399270402966
-5.942642788548255
-6.877041700499831
-8.413682760990923
-7.246889988062321
-18.63850482464477
-20.959756789627136
-0.04333960745134391
21.16527330374811
18.34148251345323
7.218088108595111
8.612760982432519
6.882745949129458
5.713774172778358
5.075634760403773
2.9751498466648627
6.865632462518988
-5.946913668565685
-2.559089482179843
-4.48968066793168
-5.194569628278259
-6.470840798254358
-6.873031508148415
-10.553187411569525
-8.664860145683633
12.735107219370548
-0.07109781433246098
-12.626656808381085
8.68257734614599
10.607234761468135
6.823008493796806
6.290673441195395
5.167473593130126
4.37689915674855
2.778294590105361
5.866586250442197
-4.901150030025747
-2.298085390299093
-3.8363393494219054
-4.334956809034338
-5.303814790415345
-6.203821591378073
-4.761716035092832
2.9647636856680037
0.33128785096050706
-0.04161825623305049
-0.19555835548089817
-2.73356088505534
4.842315299101756
6.087458217385574
5.184402765298728
4.449646747911174
3.8291913208086044
2.1880587876585196
4.802260205127823
-3.3780099608411547
-1.8310124211129732
-2.4843045701854862
-3.0281587243953254
-3.6096529680653475
-2.8843532954342663
0.2691458094486734
0.9403329456981737
0.9045422520139255
0.04759238378028385
-1.006802567280829
-1.0900360280793393
-0.2894716669979971
2.8922902610793244
3.7772175335267093
3.187582027669123
2.4647971189333475
1.7631306410694378
3.4748797047141124
-1.5979386179242283
-0.8875231625279412
-1.5381180855620187
-1.6182050500647165
-1.1570112375920871
-0.18190400082676206
0.6558608025370631
1.0085449087055167
0.39915619953535497
0.0048089937918120995
-0.5791344406170538
-0.8208112383872503
-0.7529452805174515
0.13669480988755822
1.1063543486088747
1.6181333362910664
1.341599492021487
1.1319535063448711
1.4289482253516326
0.2666429153177887
-0.011779060965636745
0.24064938817173243
0.7587591316987528
1.1632749359559966
1.6101123092375929
1.8219599835720146
1.3292383727239212
0.6728656972845783
0.1554167102003703
-0.6640987187420251
-1.3602137880952796
-1.5289437929168344
-1.5914267729094718
-1.030269702161604
-0.4091617132144165
-0.520708282085252
-0.05667514102970017
-0.17142527095711557
1.7053957080934197
0.3237061268882826
1.2656651428260375
1.4520565063285176
1.6891437268350273
1.8893543925514678
1.5957956643251237
1.1484664241288556
0.6309057585749542
0.15430427202954888
-0.6799738566624001
-1.2727186861156952
-1.7246521174747613
-1.828566304873675
-1.7803685028047767
-1.1451373979070922
-1.3090825978688372
-0.542942038122419
-1.7463530307977635
3.0114356820413377
1.7175197409233078
3.294362505635945
3.8683193409233354
4.056930400300189
3.9815921690460527
3.3021841030131327
2.48952294922492
1.2785397455008933
-0.03323462796106469
-1.2024082579882815
-2.4493392576332553
-3.5361490578361554
-3.979875419950986
-4.1680761853276636
-3.760097595230036
-3.4141522793761396
-1.5710777838357899
-3.218046538095223
3.2281974905054085
3.0049770507321227
4.787953045772156
5.3663964524748735
5.494159548252355
5.0824583684734534
4.470691631519003
2.9100667970633367
1.5984246419247938
-0.02439411655359436
-1.703774844892905
-3.1442316096363356
-4.096451697936573
-5.038418953976361
-5.734559780132258
-5.3757056913709675
-4.8758287645250675
-2.970904047409931
-3.257354763600233
3.3417516961926594
2.875682303070789
4.974654557212489
5.400850661069853
5.674177627457539
5.120105932583101
4.2504064195090905
3.001379075314617
1.3642802741087507
0.000486282748170197
-1.632239387196023
-3.080303375143558
-4.210818781837588
-5.242835764598567
-5.503409685421502
-5.397627049533185
-4.7798392952245194
-2.938183515390847
-3.2315549810009543
2.9953346791735385
1.7141539120639209
3.4676418841117993
3.7501865224039648
4.163727875129553
3.915939573547803
3.4708039795514196
2.4560656654066406
1.3411855231970549
0.009152582613751292
-1.1911684985389002
-2.6422118306800257
-3.444620130758267
-4.00885782338446
-4.2162787222187035
-3.658972701377934
-3.4690734902978875
-1.7660378488653805
-3.0279414772521704
1.8181511578441132
0.4429488659661729
1.3937821291037835
1.379279916814994
1.732361507427413
1.7887822118646
1.5760952162381727
1.151112619205378
0.7107193960109726
-0.0698249009437859
-0.6951905283494852
-1.2832869258709252
-1.6043307736399584
-1.8689921319601126
-1.739106129243737
-1.380093562998809
-1.4534123589401133
-0.4694977975159418
-1.7621674294932745
0.31396523118019104
0.005669329111697152
0.3763385104830377
0.5596179009880871
1.1991845330339856
1.807815721258521
1.6152814810629934
1.246751287340885
0.7946488744637463
0.06591506933909841
-0.7324861855304334
-1.378725602698978
-1.6856096071132924
-1.4976038302411325
-1.1883548089826945
-0.4358633243391523
-0.38186706727719866
0.018803833983838558
-0.0987641256506322
-1.5588280118245166
-1.0652794163033832
-1.4264363493130077
-1.636410029779654
-1.2870485135936178
-0.07359625594108365
0.9076853701844811
0.9348226293514017
0.4884050741093233
0.19374773011077195
-0.5125924889871385
-0.8695849361247383
-0.993807005288545
0.08686470008979086
1.3267536997009302
1.5472170364664635
1.6507728852302535
0.8230843764758902
1.717070127822808
-3.4548402794462163
-1.728307781246258
-2.5987667994049843
-3.2008583348069806
-3.5696092831494752
-2.6913585378497373
0.08995945556671359
1.149599697731901
0.6148216208675876
-0.040107546490617096
-0.7380720146175008
-1.1146534231374972
-0.008545075441361405
2.8242210195603548
3.7333725176285952
2.942011989944149
2.425465478459955
1.7760103269247338
3.162216842712951
-4.957141826831503
-2.1734355893859174
-3.702256021730136
-4.266306956327753
-5.096371385501698
-6.3053983214485925
-4.695470306556672
2.3223106743826065
1.4699992538662627
0.08114527398720384
-1.5244880296231713
-2.167570373014314
4.569888361700578
6.421131084076478
5.159592511408846
4.42175372831116
3.8129990484158043
2.328346169029828
4.760479855845915
-5.926693294604775
-2.5788157538336236
-4.504785499360878
-5.3144647857989185
-6.316476814390626
-6.604342144593829
-10.929034923872678
-6.745904232579051
7.47471414374013
-0.0005029595486121252
-7.5087600920087425
6.512070934972144
10.993582115785102
6.749030278617283
6.6237958616547985
5.234859679942019
4.586339104978833
2.593879055348225
5.870371604236425
-6.388648605032358
-2.913446904567536
-4.779648879281012
-5.9437403807241935
-6.564421874150867
-9.694807823514566
-3.309514376189327
-31.19762337904831
7.739800427094451
0.08287926069169771
-7.763034708987107
31.277369568066206
3.0795987083693035
9.71897157188505
6.376882241747808
5.7762023158575175
4.922666221216787
3.1559690527647035
6.697039130624034
-6.846136062347796
-2.8993237412942108
-5.470213147607865
-5.074625045846915
-10.003647468460258
1.577361112635117
-40.51667635294143
79.81621855765115
-246.51037814826122
-0.33094247413100675
246.58175268000923
-80.04522872102098
40.52373729000101
-1.4960655359755037
9.868119652805035
5.118287102886825
5.224507627717685
2.9918599252414424
6.796691586991074
-6.398451614251826
-2.9538765050238
-4.973624934995314
-5.7255738628446124
-6.46038430504268
-9.678860921296291
-3.38533957193431
-30.95174597336154
7.61840774177108
0.0855434109835187
-7.907444308657432
31.205095537487068
3.3455105978500796
9.583305668638786
6.482530270412099
5.898668938447372
4.9134899711061735
2.786916125929565
6.368704314008937
-5.870127149391919
-2.7546289965102915
-4.571225376043003
-5.296733126306208
-6.408466410415713
-6.650314057100331
-10.998160511502647
-6.626694357182714
7.335666196013335
0.04146423291240353
-7.527929094503634
6.577919534480316
11.008981214181404
6.6630400698049925
6.4787146738381125
5.396863801041036
4.664797474353691
2.5907249590818537
5.918775706610177
-4.699556498031598
-2.264663777052192
-3.6251152213371824
-4.461849113955395
-5.072882519103587
-6.3468531994731165
-4.639301080984296
2.1054740457911976
1.5711983210785547
-0.011072460489231162
-1.5371969340048963
-2.35314594587544
4.616260759765282
6.343591101889615
5.203749699401669
4.435369611113856
3.7304187997069675
2.354777261178242
4.806415896695398
-3.3053655628464185
-1.5944355772226118
-2.762499562901212
-3.309007587347878
-3.538230959966313
-2.6749810931651155
0.0806351543724304
1.1628869089181535
0.717575906906859
0.000782983799581416
-0.6891709042538423
-0.9831375707726693
-0.1044209301326191
2.672116193076363
3.5081470814184286
3.0484975912841037
2.774130205747497
1.6281224784106598
3.1652822516698507
-1.6304956116655376
-1.1644590830255765
-1.1281155928445514
-1.6766424260858912
-1.4148118655721191
0.16547782253473997
1.071476466153399
0.8770333515567472
0.7722517157089897
0.017358273922582157
-0.6869927270163316
-0.9761387323233066
-0.9602476978907362
-0.14064320109173423
1.4914923310134327
1.6545105758996215
1.3538555174527573
0.9450207848203718
1.811476503884478
0.20456986682256684
-0.05457294330699369
0.5346129423705861
0.20888435425877105
0.9745151799434097
1.6126927875448018
1.4760210040694801
1.406366632960271
0.7907609054382192
-0.17275340264313854
-0.6832487034844235
-1.3976225141523173
-1.7623770107820746
-1.6507171404009569
-1.1998849383671768
-0.5045943756049383
-0.3026364205725258
0.14631725519575411
-0.27592604286473943
1.850656430789968
0.6516179478785489
1.3800505533290561
1.3032424477423774
1.770211985669448
1.775124039821094
1.6753706044110004
1.3608154080720851
0.6733030015602708
-0.19034535899118055
-0.582643709203694
-1.2465153282682877
-1.5177838582603727
-1.8643782213766826
-1.700697992768255
-1.6067636943844263
-1.3856288645220047
-0.4093719834490912
-1.800494907049142
2.7927976545179263
1.6492163789225742
3.3572000639978796
3.5954648353072116
4.259213394994731
3.9800086291506886
3.550469391353545
2.4791022906720173
1.3577970522019314
0.010950078241876327
-1.3881293623126112
-2.4842492002790095
-3.361476925383613
-3.9288678339798935
-4.122626124371891
-3.6785916857188568
-3.271437644136313
-1.8197322476553381
-2.679775200336735
3.366566509415861
2.8157711528183427
5.035302491480252
5.473307020554785
5.76351099133899
5.241694432581426
4.060137320382637
3.119391008207458
1.487287534881034
0.034011287963949144
-1.4473665145633277
-2.9436860497153248
-4.435886643856065
-5.291811689661699
-5.554860357195139
-5.407429876981041
-4.993169089695584
-2.849369883475447
-3.3177027190104127
-3.044708493340295
-3.1248340357269626
-3.0798443649546243
-7.329348047991516
-7.389055423380341
-7.3075047400197946
-14.324615863501094
-14.342301736935042
-14.27285201131599
-23.350961739430204
-23.279619725683006
-23.205699473648565
-33.19067957170773
-33.218129879795015
-33.34263901138911
-43.077956542983884
-42.95031423642649
-43.012539682677016
-51.664213544427184
-51.56519665627275
-51.734265877719736
-58.57275693982956
-58.36501395632513
-58.48637009624508
-62.861857131676516
-62.64488523549517
-62.7945390100067
-64.22394127462758
-64.07104741336661
-64.29559746952145
-62.82259554852499
-62.65803465535282
-62.85904313318315
-58.53206562908599
-58.35293512255885
-58.501424075540854
-51.77449153640191
-51.60551125725033
-51.704929241444916
-43.07619828209863
-42.91910496723722
-42.95053032480064
-33.09138970414642
-33.08930623478955
-33.17983990965877
-23.247154758049874
-23.255548973975237
-23.26077562928549
-14.258529219776392
-14.255497973732417
-14.162895737943472
-7.347943861357635
-7.353241944627371
-7.216650536720408
-3.1612246727163438
-3.1329191405093297
-2.9806603008764796
-0.8812957912741695
-0.9395870298903901
-0.8633378221129533
-2.5556178471888416
-2.5644020950130653
-2.417324384470703
-3.8139627195487265
-3.9136068637599237
-3.8085534186684527
-5.137121427003876
-5.209204483777285
-5.0553358009055955
-5.567592681822134
-5.686699715050054
-5.571195718715899
-5.415757212598692
-5.6153971863677725
-5.598431214151788
-4.704882018486387
-4.837458619382232
-4.788534205115866
-3.5587608782370808
-3.5615973465755815
-3.4350033999799052
-1.827562609105371
-1.836691393982619
-1.7776034415437607
0.047854025062406436
0.01938441614038311
-0.0091063763393322
1.8928724340948975
1.8777397347730584
1.794727409214829
3.434515128923522
3.6076851450052345
3.6528702361611067
4.763466693322698
4.852514195241383
4.760519134579226
5.466815817882889
5.608323378961359
5.5325626545673
5.6193443388838205
5.732751565759827
5.61247441006708
5.043950769038929
5.19451749692962
5.118500887390837
3.9343197729613166
4.009820225819567
3.882739524669887
2.4644631939827377
2.6381649246104644
2.656304841448218
1.037104731940417
1.08616451211401
1.0047535554376736
2.909379645429908
3.004361854093986
2.9710919627341354
7.357764387630596
7.437270096052089
7.377402998246907
14.271277592502884
14.297531462001643
14.234211642215087
23.29610758214767
23.310951232080697
23.324240523368644
33.24495968344854
33.19120259909687
33.232252778812835
43.17514074216888
43.04740039549506
43.111412661659415
51.77921726632485
51.66706482914742
51.82562366572529
58.61046855328459
58.372210722423915
58.46239134493953
62.7485719078104
62.61073278286494
62.837021667000954
64.37003574280243
64.16491670056712
64.33982183635817
62.78424369127606
62.63750358433754
62.85601295843662
58.61564799457847
58.378619303475716
58.47065129996918
51.84424465437769
51.67593327378563
51.77856110027642
43.23579690894985
43.00024988297082
42.95543048050604
33.174260775660514
33.15027694789751
33.22061298211338
23.21046955710335
23.15235310967546
23.087879966915352
14.193130395578919
14.286521097703371
14.29093329020543
7.203720315883402
7.3115880525438115
7.276005906809587
3.067154050891986
3.072582715336466
2.9512377443898004
0.9136711737082805
0.9917846453899983
0.9368779467768036
2.4694811535300687
2.537145807320485
2.446762720035622
3.7750254864804447
3.9247953713929746
3.8695065462670755
5.183950540027581
5.208148595818784
5.005232999683358
5.665383114857832
5.74193526696763
5.585612665890949
5.533276886824751
5.603065417497419
5.455693754483946
4.783435663761338
4.864306230621878
4.764823621080723
3.5172713010397274
3.5649781292886473
3.48340031481348
1.9883124060288537
1.9483903743093833
1.8430693648697343
0.07077595259761438
0.08074372191913426
0.0927546648599673
-1.8912281297671143
-1.9145276846538763
-1.87259774497943
-3.470516867702827
-3.514880406582961
-3.429043550102506
-4.67180306930095
-4.827887866704259
-4.8028229891788214
-5.492729624151252
-5.555928550311364
-5.40080698786187
-5.675521493918495
-5.681448494869983
-5.452962781768292
-5.067045693780528
-5.168036855029641
-5.040799658105243
-3.913291626377031
-4.021155407652259
-3.926439113856759
-2.4685198824154213
-2.5824289187439717
-2.5393228885659482
-0.9301677120965905
-1.003484275919618
-0.945132982393261
2.2387263016134966
1.902419915277278
2.2735360870719887
1.817228705593152
1.424429062200943
1.7805723917554133
3.4628727761737537
2.9788585547357798
3.487257392203901
3.775897033774527
3.2118859624897595
3.7585978942515794
3.9005824522464536
3.349938577564899
3.9458193982718512
3.6227689524239395
3.053722154843854
3.557945906330133
2.917745545913931
2.470146436156938
2.918458531581564
2.0852193380414974
1.7518129690142814
2.060627229133388
1.1795794368372299
0.9089736856403761
0.9733811238256749
-0.015852011420065537
-0.009919776319293305
-0.004396105010528117
-1.034317130339332
-0.8999163369589951
-1.0999145262758248
-2.0533592127321754
-1.7557429747539572
-2.1004400389792863
-2.9183363324264064
-2.459559478040319
-2.8944569713203236
-3.5237424425431527
-3.0300541888864245
-3.6073794104449917
-3.9716006109374575
-3.341554418497253
-3.857782566337846
-3.803333084710175
-3.228020443144487
-3.7649212646938395
-3.534595826116856
-2.961805636237841
-3.382566997781396
-1.7977698834438343
-1.4297288567468058
-1.8130227708024904
-2.274838117795298
-1.8894887797068805
-2.2121298147540074
1.7461748696514405
1.3943964477221016
1.814264842774719
0.6426769855606835
0.32022305636201054
0.6797586400934961
1.96957536455011
1.5998820671229623
2.1021869966643862
2.1847921523149125
1.7069567930011544
2.2329381599847693
2.493677819817094
1.9492258811369538
2.511042953643482
2.387296255736146
1.809143986349227
2.323889326886274
1.9865749547607265
1.5275579738081433
2.0264858840673696
1.4413650735514238
1.0750592454278376
1.4166771219170187
0.7210759365989361
0.55220498010749
0.7602882742939983
0.00968374838703312
0.008348352392204106
0.008074506185948849
-0.8255873192974832
-0.5729299897211604
-0.6968366376822814
-1.3814325563434977
-1.0941634717746638
-1.516370376193663
-2.0373365749255754
-1.549292376061203
-2.022844436665764
-2.368268746213289
-1.82417640107451
-2.375792147795437
-2.4549968070641626
-1.9396998746087775
-2.5310339202405885
-2.2569353755388875
-1.72088855234324
-2.192831462016329
-1.9685391782550141
-1.5968556112493388
-2.100049918226432
-0.6148113922390621
-0.3163506129931193
-0.7020686792093329
-1.7434883878740948
-1.4025867748132441
-1.8341716575087048
1.0813520619121846
0.8740636280272156
1.1217675244552083
0.27304523522616364
0.1886337736796122
0.24602758846594952
1.2048379904881585
1.1771906010399107
1.2402202930534258
1.1989099558850285
1.1691070469387341
1.2292918754683342
1.4869279398117214
1.3721841291990131
1.4549919795244932
1.391426372807473
1.232878348819213
1.3666241370956413
1.1376666169962846
0.9574796531524044
1.105179520585807
0.8247675242892001
0.6529889138764702
0.7631052642536815
0.3849983876571059
0.3323367311095353
0.44147074257489294
0.00607117498293519
-0.01656667809584178
-0.04150268589728512
-0.3866418542456813
-0.3288850527314935
-0.43218615173827857
-0.7549416660913266
-0.6494294555741362
-0.8258438048651442
-1.143553319532657
-0.9676923658989836
-1.1228517892595846
-1.401560300932033
-1.2619073434034362
-1.4189953436143696
-1.3925498338066973
-1.316911832196638
-1.4329664475517347
-1.2122902740957215
-1.177830061322311
-1.2339814613515045
-1.1513510605145711
-1.1615100280032493
-1.2618961633415893
-0.29687430159538053
-0.20766828375053592
-0.2658296448062174
-1.1526045180216897
-0.8985247485397849
-1.1049043725070078
0.1448643345211167
0.19466325247776695
0.2508447199361399
0.6051726422447246
0.83320116676623
0.632048909261357
1.4287856501468923
1.7550309567595832
1.4021553450147621
1.5564315396477468
2.024260596896056
1.688711187831359
2.108516969863558
2.4932679522316903
2.1877842274843715
2.1954618345189374
2.5105637350061443
2.3798253714921884
2.0236899898736738
2.098954185639741
1.9631912940531038
1.4873778711189516
1.4671689569659065
1.388084531208733
0.7070858935185242
0.7379904010740574
0.7673873774474487
-0.033227381063625216
0.000615783326793462
0.03340867246151902
-0.7672431981191039
-0.7548849479935598
-0.7436078919272404
-1.4382074239256326
-1.4759374544664752
-1.4564438876113854
-1.9243551886174828
-2.0580562993127387
-1.978342831484042
-2.3092343652097043
-2.4873465759737883
-2.2169428298948333
-2.114259571011644
-2.494632318877848
-2.184180256415857
-1.652060648877523
-2.045302130296477
-1.637523075536592
-1.4439292826573364
-1.7654440958140185
-1.409580271007144
-0.5738779960374814
-0.8039412005746271
-0.6050502115249401
-0.24804649024736136
-0.190755220290157
-0.14239562558941543
-0.9158534026064444
-0.6281324548763223
-0.8440425714361481
0.5981125126418192
1.116883046401199
0.5593438668001909
1.0319949041004293
1.7576314744655974
0.9339451086125337
1.098409318830818
2.058919360715663
1.140992525353795
1.5391839505755343
2.4905477486609016
1.5421595353982411
2.282957799208816
3.0263064477185253
2.236599902738817
2.328690393449506
2.8390320594480727
2.3632790995470714
1.6931745803740341
1.9727549580857158
1.7194910475227516
0.9641514047398232
1.0219661330338567
0.8641298736038152
-0.07094501299434341
0.016146047913935035
0.10339285622467287
-0.9448608566890471
-1.0152235096902587
-0.8717747485789005
-1.701556608255487
-1.9577365521981847
-1.6796503190416843
-2.2676056150812656
-2.8278905819461215
-2.400761196797248
-2.3456072482513264
-3.063854610605631
-2.2499069941113703
-1.6179273457237286
-2.529527878112276
-1.5424363799975254
-1.0487107265507802
-2.055455127483583
-1.1831684823700925
-1.0890540633554338
-1.723710517748259
-0.8069808246509638
-0.5138384041638346
-1.1398391147522489
-0.6903437616856536
0.8408121571847005
0.631286058211117
0.9243119479797315
-1.844237482524477
-1.3990129316225648
-1.9381884958420414
0.7519925920350943
1.5787543791520875
0.7468782951473258
0.8039249006542377
1.9843940815480892
0.842551423527766
1.1934204550634604
2.567745574750006
1.0938631719036493
1.0793192453857046
2.690041975758504
1.1294064122776035
1.6199338351434562
3.160761971230386
1.7136508080293424
3.435876514442498
4.4177504963299725
3.2975966301746666
2.6763837437028997
3.2922524114255793
2.7810765175672714
1.6150743103644345
1.7497559866751544
1.4160137819417287
0.0318195927538909
0.009033166483277455
-0.01489775360096246
-1.601130330353044
-1.7781273996515665
-1.4900354132405482
-2.710120260293479
-3.3041288014064776
-2.7704056224029046
-3.405924950231565
-4.377371376918745
-3.2401863124978263
-1.7037425675225677
-3.174518984320457
-1.6564044369733892
-1.1388819793937728
-2.678921600294416
-1.0447341992112342
-1.069771540525835
-2.573005762620596
-1.225253812604933
-0.7179955877800239
-1.9846451151825022
-0.9286437614064198
-0.801243203561171
-1.593422681951779
-0.729607311062864
1.9171764407801675
1.3567216863302747
1.7757474315585569
-2.661884589906549
-2.042795668938197
-2.8114735060662497
0.8652909089287277
1.9818377018091269
0.9618464299710467
0.6614634874276817
2.1455282821843866
0.6814521444903221
0.8828207462793216
2.7844166876457166
1.0550740340258926
1.0777857950306498
3.2112371664261445
1.1386559203383513
0.5769903275649995
2.8393614190863445
0.529669193434529
1.3826007934403606
3.4402253833250143
1.4008755693794228
6.000900486920727
7.007340174226556
5.77647970491671
1.8211206999549177
2.525415658019483
2.4075872548564803
-0.03709815135516692
0.0019514257146511227
0.040965548003441654
-1.7859436642902438
-2.5231441712967353
-2.435370654304279
-6.04949321107415
-6.9933803686872125
-5.695612709067063
-1.34026722885028
-3.4549053017544793
-1.4707800210890127
-0.6147388525423594
-2.827198869912536
-0.4669155076844618
-1.0570236825733446
-3.180025321737048
-1.0939846144028706
-0.9797770894801943
-2.7994110918662045
-0.9870487334846985
-0.6777193369634915
-2.1246923814032925
-0.6184282498434186
-0.9230296792520676
-1.9698051681771176
-0.8797737065906404
2.7588998856954277
2.045149715297157
2.7174408939754358
-3.350986923032906
-2.5271364579966757
-3.3915969080117065
1.0100643829500768
2.291504882683512
1.0867814891389571
0.504924265522277
2.221313219430158
0.5402707816683687
0.9064926503633615
2.98858293556259
0.9017090717388783
0.8361852051166352
3.3264064246614
0.925849859660957
1.5127391351852566
4.345811060222331
1.621460864727851
-1.3215973301848862
1.7803810684126802
-1.4453071854368318
0.17306437843944877
3.4207439748279285
1.096271098649595
13.769971021771198
13.277386821253458
11.17870295413013
-0.03071016547619365
-0.018024909964879043
-0.00813653800287284
-13.771336321980925
-13.286816670180997
-11.198704994225409
-0.11511001562757883
-3.455407858346007
-1.2269164363242453
1.2987308744195616
-1.7741094560187776
1.4808496464247582
-1.5772697395877913
-4.339883351392928
-1.5471963124000467
-0.9753560236276826
-3.319113666890189
-0.7715938371402444
-0.9744080075033708
-3.0560250791313592
-0.9732719239545986
-0.49832860368769616
-2.19622611401428
-0.49058432261517737
-0.9980139309045626
-2.280031418587896
-1.07491687622678
3.395101760237594
2.5389673547033453
3.370276309113251
-3.909169429272879
-2.8686101207858883
-3.7029060109343845
1.0947158247290645
2.4482907445926685
1.1034535836661234
0.4525049725489225
2.3516355098690838
0.5949690305278637
0.9219362249423284
3.087288672599243
0.7852345950959716
1.0893893243628554
3.7727044806815684
1.2049836841470096
0.29148823002469726
3.055062781146262
-0.29214667406631634
4.110723425110336
8.566757991386112
6.067932180681964
-7.315549617429497
-5.718062697007554
-13.697784802367096
-0.5180842770787422
11.178474863248994
13.895700576409581
-0.042922650289256126
0.0007543242536485195
0.04241440794430673
0.4962739089387469
-11.194865283265244
-13.91270201165753
7.285089217621135
5.7264751147449715
13.743341787005193
-3.9779889716155594
-8.554968230469967
-6.1755979274603305
-0.2978963956265943
-3.0511797626386397
0.3061621130909771
-1.022514845317346
-3.787049534919788
-1.3032159556314582
-0.7839207019424066
-3.0509193565521855
-0.8497669411008246
-0.4753261784790084
-2.3239890854310943
-0.5130553350463742
-1.2154395817051409
-2.450194505494437
-0.9863998966175131
3.710382135148393
2.8395122378715314
3.840561180288205
-3.9335823820729274
-2.9755055092682596
-3.9530809696298093
1.1537270976987202
2.5605798788601533
1.2009431853075512
0.3547588632500265
2.1585173410130665
0.20505585882347077
1.1274439013795927
3.589596021483885
1.5070606474764645
0.057166950980899855
2.126188735332107
-1.2419030613964424
3.9641463784791995
9.09485333741759
8.27027440466918
-8.066675628928351
-10.611360187715036
-21.41709915177489
28.537711046505137
51.98707400719286
68.91179384717543
-59.90877721403376
-97.09837368964509
-158.80620078442735
0.18313267434132285
0.01206858346995432
-0.15710339070938062
59.927220526573365
97.13282068411354
158.8592419829074
-28.429631945909932
-51.987736443014
-69.02354759596346
8.072318359772908
10.618107088797842
21.424218935528188
-4.091933741248795
-9.149731916346354
-8.25633582266164
0.025218442839104682
-2.115549640613608
1.180526725584059
-1.1510030402278062
-3.5881964339059778
-1.483593944038148
-0.2904931192024378
-2.192117835569661
-0.3410491293761879
-1.1489875328697963
-2.5283786869986216
-1.139875742213917
3.9561676593730226
2.974536623485619
3.928440267132828
-3.8291642432450317
-2.822405961022014
-3.686385481414618
1.0717225009284448
2.4237219888018444
1.0731513024948072
0.4571208125271369
2.2978958929306827
0.4757347687263973
0.7707653765683062
3.0572567006456666
0.8768853793153539
1.0513835087185726
3.779279195063282
1.2582068035262637
0.36642076561111026
3.105680344509892
-0.26099622467882
4.0944840747106355
8.532786813026178
6.013714511107537
-7.493011982369353
-5.754271024314221
-13.59509138778958
-0.4579359546332853
11.176466142744175
13.834344865405
-0.01494415444904007
0.0166955673485063
0.0505686896503903
0.5435351465857821
-11.209221361204982
-13.990003575003357
7.342177976999665
5.741282680712175
13.715496267948765
-4.122359103726922
-8.562827555462718
-6.048083592802868
-0.2457423266605474
-3.058907761485898
0.23639503664162476
-1.0421706139604794
-3.7661621140287025
-1.2407791539735626
-0.8960191266232869
-3.0837789326324128
-0.8053800806083018
-0.42255518824094906
-2.292956028250046
-0.5021390230103862
-1.089805949406582
-2.4821636964625213
-1.1807118498400087
3.9469985042669578
2.8881085954635637
3.703374485645327
-3.4127575315651484
-2.550350797828287
-3.3755828367429785
1.0995383999543265
2.295301697246032
1.0036550282966346
0.5551821868284605
2.2348550418391824
0.5156091373646632
0.983760437433375
3.040153433190426
0.9337506020383444
0.8375811903097201
3.2995855127519462
0.8681693510734476
1.468232274215552
4.303634636089555
1.5789010412700009
-1.2476953830337152
1.8032449710153742
-1.4698865651153028
0.13965948310215026
3.436934475597809
1.1626548879721668
13.798181245583692
13.251358754845569
11.09748109987413
-0.04227236610313412
-0.01426577995880507
0.01346091105369851
-13.760278555826517
-13.284772944607539
-11.206496282014996
-0.13481510100245941
-3.4465392514539417
-1.1896918954735156
1.2856422122131335
-1.7776275407231878
1.4866212252090918
-1.4988908201921731
-4.317790188433719
-1.5788311043288559
-0.9442000781855313
-3.3415411094902083
-0.8520273291942431
-0.9815781670477008
-3.0080955372104654
-0.8695633767201798
-0.6120373168523656
-2.2397274723334704
-0.47087884292704985
-0.9777743397280574
-2.2669278611137997
-1.0690366331109544
3.364767469880462
2.534456263842003
3.3918109531441587
-2.784663979226025
-2.0431271136912983
-2.6870264575991314
0.8977913572161924
1.9746112952998374
0.9136705360433552
0.6163460427487735
2.144709196873009
0.7211573488311842
1.0415452989109326
2.8252591355121695
0.9795703779382166
1.0233612987212837
3.1838244666869286
1.1373507056559902
0.5741920840373496
2.826302957619191
0.5038863147201482
1.3745666586473817
3.4553667651634896
1.4373469280981226
6.090891169515089
6.997695807600394
5.665934412798379
1.8618636871833587
2.5806316389207495
2.4832090946583776
-0.031970175812602974
-0.023467183564207517
-0.016421675245510414
-1.7628361436509294
-2.5095928084338084
-2.433156281505944
-5.98374120486551
-7.008951323805377
-5.794076530015445
-1.3226798830437474
-3.429354562118533
-1.4358114091592142
-0.6540822618990205
-2.875938611658057
-0.5284066988388076
-1.0799598438316025
-3.1793578451906797
-1.0711720174294896
-0.9660331742852577
-2.7855799831086188
-0.9734737656399375
-0.5976637920466601
-2.099256825153134
-0.6470922415319365
-0.9567431544928695
-1.9843504025484435
-0.8742977352449088
2.7350125285665854
2.042232130013872
2.7373392927402165
-1.8958236413891427
-1.3878794320044108
-1.8613154302584007
0.7016120490152389
1.5890963392448612
0.8180619853956159
0.907251631404506
2.0000608164118603
0.7699464885517955
1.1535895093693398
2.5120560320210643
1.0162110457313247
1.1280668918479932
2.7300288467667997
1.1641388437710702
1.620431551054935
3.165906958980486
1.7239072513475548
3.3663206419732887
4.373996557813371
3.2734711386583513
2.680102932237787
3.299043355800677
2.790881305001676
1.556116339241271
1.7421196858485928
1.4615536816127133
0.035453718577628024
0.023572595993755385
0.01200883554702159
-1.6230331622937229
-1.7765976221126039
-1.4648416397103574
-2.7522065063531045
-3.291870429631672
-2.7004797761183
-3.3865286237560213
-4.394276727209217
-3.294734103779774
-1.615746273950208
-3.1635366596310632
-1.723755990868085
-1.0206164853079827
-2.673799526957737
-1.1527802100972622
-1.094760982952721
-2.5543129325742484
-1.1637354498016066
-0.9162696305211284
-2.0010143145700567
-0.7643579925061204
-0.7420105124401744
-1.604256453574635
-0.8089688308464247
1.9330504747267696
1.3661867534610792
1.7807375841075554
-0.8607108075229917
-0.6182684733066708
-0.875468611746328
0.6457256720750593
1.1161499982117675
0.5105611179606058
0.8754790191887878
1.7517207613273058
1.0781432322401088
1.1621604259999003
2.0861141750065144
1.1341254313010722
1.6085813241516007
2.4953458586969646
1.4823436418519123
2.1900208685692633
3.0411707617458887
2.3610641369159566
2.233326965215383
2.8285840987664415
2.437986868346343
1.767365430103382
1.9997491633548634
1.7022814929659944
0.8159836768609239
1.0154514916212065
0.9996799065265805
0.011594541851081885
0.01574324803368654
0.017542833331390284
-0.920611970272148
-1.0523951415962074
-0.9742103310563834
-1.6590729174786247
-1.9634855107724434
-1.7339732102991547
-2.281892894534394
-2.8257124267111067
-2.3815514107991476
-2.219329105479119
-3.053513447579462
-2.355369451579463
-1.6325815493619302
-2.489751941160648
-1.4434195547219133
-1.167187597042357
-2.0965224581814255
-1.1502534281244152
-0.9655526889764587
-1.73796812393266
-0.9601181242105667
-0.5217351134051569
-1.1062019380551646
-0.6133909767668229
0.7768084684867063
0.6201953940762905
0.9652959589802776
0.2392374097253196
0.219083307456458
0.20856922172242776
0.6185710208956152
0.8227335753908847
0.5972447590902448
1.33006413228577
1.7424992147716694
1.474692532705376
1.8085132017440628
2.072559184845886
1.538871411830769
2.1503936147346394
2.4514084732800256
2.0586491972208023
2.277114728698507
2.5008801763906376
2.2789586714061443
2.0497532690496882
2.069218802251271
1.8787557634786936
1.4355774242867483
1.4832204234116944
1.473825012348243
0.7092128490330651
0.7399897205323214
0.7671518588031176
0.07535486313281581
-0.0035749903763644397
-0.08507506048772484
-0.6769854715530528
-0.6834989675990073
-0.6855440113286022
-1.4575442828936502
-1.4948835255054291
-1.4749216230848106
-1.9083212650293717
-2.072069089328579
-2.0227593996824
-2.2705393904980156
-2.5070743835240137
-2.2996768788070767
-2.1057072731564404
-2.493333541562606
-2.189354804395407
-1.6268214734955109
-2.050111970100261
-1.6733771830549813
-1.4739146053907461
-1.758212947701395
-1.3664567796804477
-0.6464780519090709
-0.8114039024148951
-0.5464932876784587
-0.18880696537235053
-0.21129040377491037
-0.24128380962793017
1.067634021077538
0.8752110272180289
1.138109422638081
0.19406128491391428
0.20220069662900642
0.3540279522712808
1.163508656900376
1.1461345866555348
1.2180734664725605
1.2757075302070007
1.1930129150132416
1.203576441417681
1.4196556561946636
1.3429597158974502
1.4612510809092782
1.4178270556149073
1.2410335818276508
1.3620607547927648
1.1223480472544907
0.9751429484895198
1.1604594420496142
0.7776213464967441
0.686172808505944
0.8808627345133573
0.4011910264089238
0.33066912984941155
0.42190791852772236
0.06681763840606436
-0.017197376597323455
-0.10162360573303886
-0.41897332060034387
-0.3149006967723835
-0.37005662886076607
-0.8422138285823166
-0.6935881952522323
-0.82988156103238
-1.1803128288302105
-0.9647154664708069
-1.0796408015303314
-1.393554033995315
-1.2532341298865504
-1.4117731150108739
-1.468309738440439
-1.3499008561921073
-1.4284740630318993
-1.123923819322954
-1.1904240576768643
-1.3506415963493055
-1.1938345328999276
-1.1672290743590565
-1.231646672476927
-0.29897208601323655
-0.19510714245188865
-0.23270357164437883
-1.0845138172226143
-0.8699444922094699
-1.1110272706173419
1.815130268863868
1.3765160975744948
1.7065354452061001
0.6849302809278015
0.3261464675888419
0.6502214217325673
2.0159486022021156
1.5956354916561395
2.0463916420703754
2.3010642709123204
1.729934281349415
2.1667013567639515
2.463386093178997
1.959757046366576
2.5629427750682225
2.3554886756755877
1.8081307984975865
2.354616706536035
1.939534684002865
1.5210030433227075
2.0616671317402506
1.432971893780632
1.0751187135319924
1.426642351638293
0.7394775297434535
0.5707349568838254
0.77825171983568
-0.020070229686098173
-0.008336298953508958
0.001981882960535586
-0.6924023238680093
-0.5509597184427548
-0.7841811412363313
-1.406862484938756
-1.0622190014400985
-1.4246160217298893
-2.063827216385107
-1.5404483883758076
-1.9777930942582316
-2.3441216695209732
-1.7852841741914744
-2.31845525202516
-2.5100479723259923
-1.9452703926799586
-2.4881821655726526
-2.2422394581953995
-1.718703025879222
-2.202388503246766
-2.0812326056184247
-1.609458451384853
-2.0103636442690913
-0.6153525275913125
-0.3341758611568366
-0.7378999594657216
-1.9320565042180533
-1.4124526468713157
-1.667002610356576
2.213183000625577
1.8930193225387484
2.2803985912178177
1.8446749654831365
1.4233469730534125
1.7504242160648573
3.3832864650175907
2.950136424129596
3.504663614439778
3.7451072218245827
3.2163552528072614
3.797017616641824
3.858770761231426
3.3509333436377347
3.989956978475675
3.531506618252024
3.0353298819973134
3.60980031460349
3.033770225592889
2.4848977661458775
2.8322865589580033
2.0090101782989223
1.7394699478027178
2.1118387949099997
1.0755695004481822
0.8811002608126728
1.0197255971143022
-0.008116616940242238
0.006759332842193544
0.020687371812528
-1.1369407750462415
-0.9054596813657554
-1.011279775062576
-2.1348010749716195
-1.7642260429929593
-2.037808516441146
-2.849387012727675
-2.4842239444406005
-3.016047304678068
-3.5111198595695896
-3.0376629210586543
-3.6352129483493627
-3.9806645623975783
-3.3615543905834784
-3.8919448374799686
-3.735975318657438
-3.189508560753893
-3.751748803912051
-3.4349501787728514
-2.9687709220270335
-3.4924051018497266
-1.8234281392251432
-1.4186984174630197
-1.7645693870108516
-2.220778017417615
-1.8826128309228807
-2.25228657182015
SCALARS strain13 float
LOOKUP_TABLE default
-2.0028403950855136
2.026170160388574
2.27103347107186
-2.1572320067789406
-2.4242664384655654
2.228916800348088
2.0302995445745182
-2.397366782417521
-0.7121671377681196
-2.364328881725669
-3.6108603519387543
-4.945649488363415
-5.230664364993572
-5.193533819168806
-4.242763044312596
-3.101705548586324
-1.5618866502773017
0.1896934628020972
1.5977252023294568
3.067528747022152
4.193296949379146
5.188893388258293
5.351914915489033
4.993093038443476
3.5443802578374743
2.1637854061555117
0.6191202253103256
2.657038699137047
6.919422796461731
14.24309120955877
23.340291203930974
33.49463228927925
43.264880527509376
52.28236222430132
59.073749713017605
63.56396607437637
65.12719123798888
63.42320880352054
59.05619022785686
52.357377430191264
43.37500502803596
33.27713426167611
23.216673084010836
14.148973485891474
7.120915124047315
2.8783387746443623
0.6830588707161951
2.1222094347467646
3.4007072910899296
4.806723672547378
5.396091258968227
5.2321026918361895
4.565682688902598
3.2704440883826464
1.6996506378054619
0.057901461026631296
-1.8436021690722555
-3.550317060435191
-4.678454453474842
-5.073257648386061
-5.384099608520046
-4.630967596778646
-3.755418114596978
-2.2376017190981656
-0.708489584736526
-2.976505360333249
-7.166139139095321
-14.064129113452509
-23.26596279023215
-33.49023006716743
-43.31142052030191
-52.20243302313611
-59.06415249872953
-63.42751509952359
-65.07440317003056
-63.51869235583581
-58.887453058036044
-52.13382976455614
-43.51420145761222
-33.48131600744091
-23.198406444862485
-14.359110129997134
-7.146814679028466
-2.778775395359844
-0.6502978969365358
-2.228251314954832
-3.5877898090984672
-4.600632795831189
-5.370153114432469
-5.111796882003546
-4.716730854474008
-3.485199410934001
-1.9072130038402975
-0.16058528353460133
1.7800553312990814
3.3802299795206636
4.630989670054987
5.188827981008217
5.368168778251857
4.54976949817501
3.5547487798612565
2.3345636022277176
0.7644396806135774
2.872930975165218
7.178360000718385
13.985029637115076
23.150618774816394
33.21760139754042
43.56185624678619
52.13710356678348
59.11022539541591
63.3207819344243
64.65394334332086
63.20157793094404
58.95932063413784
51.8593199934694
43.16787836572621
33.40681285050232
23.443044006242417
14.105347356380662
6.969032382097794
2.694772246548382
0.7215876150876284
2.4705368692521006
3.887882945884485
4.720380067359656
5.239593334204983
5.332050326804165
4.613300308177713
3.178026621346362
1.7065053675323725
-0.023984875646419823
-1.5605771928094327
-3.1836822062032297
-4.2927535803755745
-5.193264388944954
-5.079060796182603
-4.926474238280207
-3.639898701105267
-2.5288568341638893
-0.9368379812221974
-2.749708689050749
-7.033789721783251
-14.243745882529765
-23.32692951359786
-33.27417412539944
-43.28989933663979
-52.2322186534293
-58.97028778074309
-63.27634710073471
-64.61432978673838
-63.26431726152077
-59.054449578979984
-52.10378582193516
-43.148954750504345
-33.195763705763966
-23.324443894904107
-14.121149651240557
-7.004937339806929
-2.8220552722923458
-2.1532054650597274
-2.273018620442599
-2.3630699799396098
2.12312046228908
2.1888678537216038
2.2238743451889604
2.2560206930938875
2.211376458610175
2.136341705430823
-2.2608639204408973
-2.3353057473432273
-2.3807219492737204
3.301289967028424
2.946423821384087
1.6923163756728172
0.27290733298286796
-1.7618477803189307
-3.436509310035035
-4.7817537183873355
-5.925194332841784
-6.538262449903414
-6.870824719546363
-6.49034197605215
-5.933632466709241
-4.854539314983413
-3.3150356812402606
-1.5511652112472802
0.18042014143429697
1.7497522316407412
2.9500789584126323
3.3849405227229
2.9106470954138786
1.6972664871718735
0.42917451495304704
-0.08703921246342361
-0.9699516925029457
-1.641241401899606
-2.091624667402357
-2.7136253665667027
-2.884944115765393
-2.852414747700095
-2.8828845671378076
-2.669590641045943
-2.447097609983757
-1.7415447842795402
-1.0822886531241238
-0.056757515762001276
0.6870903258677572
1.736354697495699
2.873847556533292
5.097447344334796
3.336222192738205
1.3884273113217205
0.25862920517101884
-1.4012867955025285
-2.5815904911141843
-3.757860781624913
-4.5290151762310416
-5.015037985052913
-5.266786855412647
-5.006717709591612
-4.436365394387394
-3.737420212943107
-2.464643908664584
-1.318300963146612
0.37017996422946453
1.221731990808621
3.3084745910018682
4.749616850866005
5.43573953397572
3.675952509744093
1.2307787090539932
0.33727023540996015
-1.6023339135572314
-3.2762828615959734
-4.380757810547948
-5.426682665944099
-5.771577581064776
-5.791114156367257
-5.788346063578501
-5.267767117358744
-4.50758918421343
-3.1131347483024
-1.7011043566744775
0.5271720613818616
1.4759384733624756
3.7153182444162667
5.45570527180098
5.627198906149715
4.141549052903429
1.667889878153801
1.111676718806848
-1.2151073929853737
-3.5815900780726224
-5.152777672512457
-6.504004557617009
-6.965304218465462
-7.440131734823808
-6.92001176206395
-6.41871812613681
-5.069677033927292
-3.5677064419724047
-1.2813411026727408
1.0385261459741741
1.7243080604821444
4.301067281281576
5.759649963118136
5.080109140835702
3.9480160642415285
1.682300599757582
1.6001540231518447
0.0710763840470463
-2.6803876576013863
-6.134351119864732
-6.842674440937117
-8.522048777202144
-7.050517308758572
-8.372426415327936
-6.838439226849005
-6.292297711130232
-2.7539267977699637
-0.10698783677071333
1.610203924588859
1.6725196100305766
4.043763590510935
4.961381112225354
4.0873448888305575
3.5243778922595084
1.7229096749797463
1.6195258926600218
0.8160881719086319
0.2734423875808716
-4.901885433588177
-10.522096690023318
-7.16102003143169
-13.66389593319036
-7.129281723871827
-10.438360540894791
-4.722625041380525
0.14834213466383517
0.9300776689779013
1.694604646298103
1.6908266455866396
3.3528837896883488
4.3905534107470885
2.9696045683231205
2.525964013999328
1.2043918047565967
1.237571184290573
1.0603635834995657
0.8688451589550823
2.77335474640131
-8.59347822656855
-18.43484736420214
-2.088908601552248
-18.52506675478071
-8.616396773373708
2.658593173371628
1.165632820338942
0.9494683103403077
1.4459480008808896
1.0573424539761618
2.4538560886867344
3.0308785520028323
1.5098554329015315
1.3666660382878035
0.6646600221283734
0.6371981045231223
0.728362969122827
0.9515039136167616
0.15119333192706108
12.683616498019546
-21.00355701567605
-44.67085521784611
-21.30306912236847
12.794685430941172
-0.06540016387589276
1.1695121563971043
0.5463472519768402
0.7465404763352126
0.6701979748904705
1.3432146070990711
1.5666054128669202
0.06169900018721819
0.0645964143332094
-0.022609828505665064
-0.028602059930562973
-0.05885425745509565
-0.17577781481668353
0.012576817534863949
0.010843019001185894
-0.22823377908207476
0.1277801760006696
0.10831802734173834
0.07341976393945515
0.05552012787666172
0.044632495497353375
-0.018499903730116785
-0.02958729036618024
-0.01950558030512184
0.14815270993858576
-0.14526120549999177
-1.5773725577164441
-1.4975288221612573
-0.573859381955117
-0.7785023832693696
-0.493454216979444
-0.8392346631735563
-0.24975477764382958
-12.748881274135783
21.087251358199865
44.97981233301107
21.137266233796254
-12.807858666055836
-0.19034610083326697
-1.0688690497772768
-0.5399745311588049
-0.7111714746570215
-0.5061986182117835
-1.3532285389956087
-1.6391641257796437
-2.97584114712663
-2.4241478859912604
-1.3753024030011147
-1.48894131090492
-0.9437101401854306
-0.982193369185552
-2.850526364054531
8.546898833708838
18.4565635654144
1.7185155048500746
18.32541743433103
8.568274981691502
-2.715657528839074
-0.9767506938660517
-0.957540625706315
-1.5148057725746185
-1.1593551298137754
-2.4968201766023412
-3.094169253250584
-4.289976722560823
-3.479354277253151
-1.683299329597503
-1.7595690952148288
-0.8277516234666109
-0.2552275958005339
4.967694800812751
10.575965501368046
7.336645280010998
13.369197723921388
7.4555762524250895
10.514812030480243
4.756736176554114
-0.3181606160942465
-0.7745825264137238
-1.5738749620504677
-1.499375370098278
-3.280008187633939
-4.476006923592649
-5.273487941361964
-4.085945403203368
-1.7355512625072151
-1.6824008605908602
0.055078423116356134
2.8479532436467707
6.142051384784281
6.843168729916215
8.412767129135318
6.869647953077219
8.54090838402044
6.962844906025566
6.193794628721662
2.803040225757286
-0.051343630300834775
-1.5825207304442301
-1.9604102307930589
-4.042628027906176
-5.080485790676903
-5.550492309732363
-4.109394202008843
-1.8125562809873372
-1.3406749463174492
1.2603715383447707
3.7651000902988017
5.140484429895878
6.62692254781723
6.907316706026904
7.526305255712941
6.895580176729709
6.333489025942981
5.1774190632859245
3.558756467420608
1.423268136975821
-1.2418421236798167
-1.7362805704469793
-4.261311227048282
-5.5979510836768895
-5.395224705571309
-3.531223113881424
-1.3612447355408221
-0.4931045761331916
1.4439107158686966
3.0793877486139536
4.258163289166987
5.320075739873573
5.881737588206306
5.821303966687992
5.699386508902535
5.263985246070661
4.563205117941834
3.1927478754660115
1.7040306543349288
-0.482904082222376
-1.2877962000784464
-3.8053003440145403
-5.320154200657271
-4.847253916086629
-3.395152860088274
-1.2679250549990684
-0.29628651146776974
1.5355601869523525
2.6131498175673187
3.644468641025014
4.587262342683971
5.047456223517656
5.0506976653123274
4.906191090820357
4.542047255439684
3.837485186755657
2.5341820892645046
1.31008425593609
-0.2586839231662452
-1.47601798560936
-3.212308271526126
-4.910785094398307
-2.772742866538465
-1.6408771162386984
-0.5641568980645388
-0.031068042619153857
1.0760991503484547
1.5926283046137542
2.282822559354827
2.499333447194658
2.804239801829681
3.01964326237794
2.832693080068566
2.75683092023246
2.2577196090715006
1.8970597964944318
1.0481678406358697
0.18461851764004678
-0.47217773311422206
-1.5915178059076425
-2.8469791975512635
-3.375372252659872
-2.895908512873575
-1.6380927097052336
-0.33030777773819864
1.6420695565175265
3.4506672916468233
4.7940699610626325
5.791207651840523
6.57758641068358
6.748791188234463
6.59274293249473
5.8590179844759405
4.857854849193245
3.4375499670859426
1.7439339721458964
-0.13459476415300742
-1.6866902048059274
-3.041639753180789
-3.293638249277137
3.268685230985284
2.9532699410337955
1.8715776337776333
0.2078263235744089
-1.5533575071021914
-3.1705860225483775
-4.8583630251232535
-5.8630795802455395
-6.628962831106037
-6.831911076093093
-6.676843439694494
-5.806049439124763
-4.798025029711425
-3.293670088984072
-1.677352876169607
0.27837694250047207
1.831132881110534
2.912210733629763
3.189204143360257
2.886421605478972
1.7290453377645463
0.5506507435347885
0.023116779513657093
-1.0633976303506643
-1.7319363404531032
-2.4795983161311597
-2.678295975551009
-2.9150743887294084
-3.000777071574703
-2.9524392390158027
-2.7297347497660667
-2.108174839289859
-1.6222351484466344
-1.025075025158003
-0.03563169878907502
0.4154424180742353
1.6347094574011862
2.8941091438755393
4.767076273681596
3.292182877426967
1.3221868390683085
0.5736771952360868
-1.3176494312938303
-2.6074248845689
-3.785255783703178
-4.4913983340375125
-4.954464314505458
-5.356984249083325
-4.948918356560171
-4.613331449450925
-3.7002793403808028
-2.8000814707484096
-1.3630113394465297
0.48993888357654214
1.4251184342429042
3.3476502606645226
5.188199096824974
5.432621375890449
3.8083698281552643
1.4618637866806239
0.5251084112096578
-1.6707865945063531
-3.1387588472571224
-4.477007336681709
-5.088895054766908
-5.851687668124214
-5.060247800545767
-5.922808065544814
-5.32231090660207
-4.377467793412507
-3.1575049296952784
-1.633331541204825
0.31405839370563626
1.3153260583058
3.6994840463157743
5.412287161219865
5.613895551068708
4.13274514186196
1.8252259732689708
1.0978342795278877
-1.4003091119229794
-3.622777472715825
-5.233634217176586
-6.332998058525845
-6.371196859749034
-9.964704113546759
-6.34527927543968
-6.428225961048156
-5.334847264457494
-3.591768162790686
-1.3123960553202778
1.121296441880986
1.8104828223586082
3.981629460118711
5.466312489239499
5.241711811162531
4.111519762780517
1.9449545363895595
1.5963668504264206
-0.06608146568760276
-2.8030271667521447
-6.387125579174608
-6.622678456129506
-9.623248813208193
1.5713573675602674
-9.76491030305624
-6.668731251265854
-6.188282112590969
-2.8221761668100953
0.1595834766048938
1.6770230990368873
1.9076493049506098
4.028321054531261
5.336794843664393
4.469961314694956
3.3301306900102645
1.5400144681334496
1.6790976214688271
0.9468483529053628
0.08248024294152856
-4.538486121688038
-11.030408741440624
-3.407360710669309
-40.45280788769014
-3.4491390001494437
-11.131811402970925
-4.725622008321807
0.20455286419019103
0.7713309919927269
1.6242104293778539
1.5809676602948457
3.4492123090894893
4.100224086781964
3.093568277079612
2.3928125356324017
1.258560797199607
1.443146986886859
0.7892346899025142
1.1785359713248909
2.2479180674999952
-6.657736157299951
-31.124022391159087
79.94133315305226
-31.04963231412694
-6.629403062397614
2.387272981693968
0.9393963672919199
0.8524827897781506
1.3119520081672817
1.4517344464547932
2.4675965178757906
3.1161844432353973
1.5853520445525646
1.2420410483609885
0.6457601417787373
0.8238382127601653
0.5226524113677442
0.6741743464954197
1.6135969425085932
7.51349007547833
7.69596593035385
-246.71591435326263
8.076643899315968
7.319661508430727
1.784091204055585
0.5044440514175221
0.6757177371764556
0.7362993148854002
0.5988810582784936
1.310197189101018
1.4883830120088533
-0.02799688559025526
-0.03820106782950461
0.05201583658345044
0.004676002310588956
0.036034634336829185
0.2046451165806502
0.01701538823544979
-0.030725613003596663
0.15217209770344198
-0.09968796162866056
-0.14831851655617356
-0.07619969022925943
-0.01760522380936891
-0.06859774771146476
-0.046971311792731285
0.14238592702895403
0.008530453662388027
-0.1515473717590794
0.17001723125576973
-1.5584850618615746
-1.164185441331938
-0.6955426891800016
-0.7343856121879071
-0.7604525561910123
-0.8222268070094287
-1.5155896549113095
-7.326455640839413
-7.7131540584377944
246.4419203188736
-7.801973702036776
-7.279556231223978
-1.5715702786110342
-0.5843445132486522
-0.6368682228494436
-0.8251057944726199
-0.801011370960623
-1.2982021262869239
-1.447892170981504
-3.026976302731782
-2.5142392977140844
-1.0528903438244015
-1.2805703338235617
-0.8271084502339363
-1.1004051002673805
-2.2483855774626136
6.828456554561853
31.026757378480397
-79.64952446438838
31.18300749885384
6.685667873476632
-2.3229690892621875
-1.0850575948134065
-0.8387122129788622
-1.1608575389254838
-1.2546655592741445
-2.4919492211192846
-2.8927901226561517
-4.209430702263489
-3.420459072338417
-1.570214142324403
-1.4986036540940404
-0.8896428656298667
-0.09119146480225027
4.51958853774704
10.918990346603096
3.3068351794499904
40.72789447044488
3.183035431895405
11.038077023462392
4.689565947279334
-0.0819468607660383
-0.9618166713044047
-1.7612587874755263
-1.7750470777973533
-3.5336999833816662
-4.13546043203678
-5.057765376055613
-3.889934865059331
-1.9247525185346603
-1.5395395290106535
-0.023315529339015484
2.6297410225961357
6.321166806854308
6.641690327203833
9.748203833703883
-1.3392864583292976
9.646461465046741
6.50950299075339
6.3652723809937015
2.7235979435499758
0.03464248694945127
-1.6707468465901911
-1.630754777812399
-3.913164400437381
-5.201408374588937
-5.739362364402041
-4.206945678917691
-1.6532182185910642
-0.9194058666471392
1.217926284763962
3.5254868913907558
5.222106565488502
6.25182909052819
6.398741548298858
9.809115890064277
6.428254466620274
6.503550891764462
5.1428017967846245
3.665095936274156
1.221339707262814
-0.9643752467236482
-1.8152364238048904
-4.106528784963302
-5.6714684124453925
-5.454896099166945
-3.8752425631973892
-1.318543660454452
-0.37644694233313203
1.882235233206302
3.1226188791915774
4.55061778659001
5.231477402849123
5.774239072808996
5.106801474001259
5.936106707667932
5.284789253608324
4.313168844557367
3.050322398892604
1.6139430069015361
-0.42052131867967546
-1.3730202579754405
-3.589489941310603
-5.473696592904162
-5.028958709910512
-3.2432761292438954
-1.3746945227030665
-0.5354461262468249
1.1436145137995481
2.662663876544684
3.894594428362325
4.476415010751225
4.948174061253667
5.5263197051826864
4.9967127026757225
4.481210403610021
3.71345292404294
2.703053171746433
1.3278928404324688
-0.5272789219161496
-1.2065351364435628
-3.450013320572907
-5.02960475475993
-3.075989303411916
-1.7540288190357387
-0.42111292644403875
0.16287381178699434
1.0138126884121448
1.6694239943753928
2.3072979380376637
2.8353494540788233
2.9817211646586657
2.854738857364282
2.952765397261828
2.666333269327879
2.324186011450365
1.5251563997589983
0.9781776412273757
-0.08853950392222032
-0.5353167722350918
-1.834856823697919
-2.93609046380152
-3.1091551445424557
-3.019159998279065
-1.9172696345485747
-0.11881455313414335
1.6742530490737408
3.2447999047581106
4.731412699678913
6.005264366976917
6.690898624365218
6.8932187089230865
6.560303341364488
5.97340079722926
4.7403951158048585
3.1674724627519026
1.5157866950030439
-0.3588669878663495
-1.8505999294866342
-2.844750248652417
-3.2665782663971186
-0.8969589457847178
-0.9485130901448429
-0.8659842927008867
-2.5639441278763115
-2.6084596526343375
-2.4966399231925607
-3.9087514572311193
-4.004360547987744
-3.8970235879532993
-5.197827565483749
-5.225515088066459
-5.026575316907838
-5.614663018612191
-5.7656278444919735
-5.6835488982032984
-5.498997592134401
-5.587604088475928
-5.4583261869847775
-4.634009330067784
-4.84233401552774
-4.869029880966991
-3.3927186739165336
-3.552390869706869
-3.5823421783279628
-1.7508889690507203
-1.8702766792848706
-1.9216895732097328
0.09993534372188151
0.012806972721591592
-0.0734523858409375
1.7463403057772666
1.8257142479997128
1.8365537668578327
3.341086871922016
3.4835548216942698
3.4959721649065614
4.576977307675406
4.776807931950316
4.793958957307041
5.5129316069651395
5.6210958221927285
5.51272948551923
5.701084187021479
5.8208250685129315
5.709745489992201
5.218943637795746
5.222014648839831
4.99936744151637
3.851055573904887
3.9553860938176513
3.8563564247451723
2.4405728911515325
2.561353335622698
2.525768281891942
0.8549374099820852
0.9573545958846807
0.926546307746321
2.9012983159627765
3.0180542038287967
3.007765075424686
7.198423776309937
7.33418460842222
7.326726777013391
14.31014788034372
14.29051234642975
14.182159687159583
23.297415854642168
23.252131518675014
23.203131476882845
33.28070184425451
33.16415140568279
33.143297917209566
43.052713020471856
43.030918867792934
43.20020828023553
51.84066231409088
51.66950907220598
51.76840042939875
58.58666293497663
58.43024965689983
58.60466997337062
62.95144012232777
62.70748932042625
62.83097334927879
64.4392637956189
64.13243333552964
64.20467466209084
62.82230984128546
62.58588732033968
62.712675133603625
58.53810467128642
58.34958019817714
58.49011755781248
51.829049520834815
51.571774081967305
51.58268483186839
43.04145582468482
42.89712288486771
42.93976828100858
33.168077995302156
33.15347116382327
33.232819799508434
23.27514570800122
23.332190442539286
23.387696576304734
14.271222165494692
14.305260530760279
14.249746961373603
7.2965494811942335
7.330568076344207
7.2211793550523
3.0212001596955815
3.039074173786503
2.9301942039528512
0.8917066145586432
0.9680017946811859
0.9110291648757993
2.4431423296628054
2.6074561032583006
2.615967629913939
3.825578172225505
4.047498366446234
4.0674135521112476
5.1239639286650345
5.215852960536722
5.0811510914354585
5.704214072204195
5.781266184640117
5.626160119660199
5.577765191614162
5.709847000078298
5.62767060357146
4.8454487677663565
4.946439758874476
4.868664942856412
3.4436361506814137
3.4859356619417667
3.39714989438653
1.8031563019612804
1.8386373481480405
1.806231239112094
0.03657064959406853
0.01574725902173668
-0.0044576594373211265
-1.875881721265614
-1.8403591106180102
-1.7356016783742234
-3.6491042483830824
-3.6224375881720334
-3.4678441279102117
-4.852663918747567
-4.847501799580641
-4.661063460051082
-5.42950928513892
-5.5684369169175625
-5.489373720251024
-5.6580512032378465
-5.69952924340032
-5.50654274225235
-5.0447146305814385
-5.231390185886994
-5.191260512219742
-4.025923581793904
-4.0975428151432425
-3.9688152465969324
-2.541197681101039
-2.6900220601819456
-2.685208295006305
-0.9604755062609911
-1.0817861484829336
-1.0731393301393837
-3.1058379616588354
-3.1119875251315534
-2.9931965707801282
-7.344239663798362
-7.382147049065679
-7.27839116496034
-14.241555841639638
-14.330522735370323
-14.330717340810224
-23.284492544597015
-23.30121559696272
-23.31517028878443
-33.2929255545605
-33.19194986880757
-33.18585877120495
-43.02487752959132
-42.925890614511445
-43.01409817091189
-51.803237188607454
-51.67511510406621
-51.81805045157671
-58.548111277632415
-58.36077403253876
-58.50159125123173
-62.84138701367192
-62.621233880054206
-62.76643759733997
-64.3926720826421
-64.09019094682299
-64.16476567997597
-62.90616301773116
-62.66039411444217
-62.780206815339625
-58.438054903876036
-58.315583259332925
-58.520739080384374
-51.722474137553945
-51.580409390619025
-51.707434080773965
-43.13854995416477
-42.953931982629
-42.957962206797674
-33.26786523871124
-33.150432682130486
-33.12675523199141
-23.23536160076037
-23.26879118476063
-23.29813378304243
-14.427332912804559
-14.41158907697536
-14.309678321704268
-7.324248590739444
-7.360528281657025
-7.25388263980858
-2.9793379730544984
-3.05342766828835
-3.0004980005323887
2.244064810452983
1.8825291944667697
2.2276058439165354
1.7984693350736052
1.4125700418371707
1.8012352564837784
1.0605271661188453
0.8756624800153077
1.1478849668055773
0.24459258327260613
0.22313087806105614
0.21164236799813807
-0.9546897148247808
-0.6513356724753976
-0.8528315406292677
-1.907987541751936
-1.353089204756543
-1.7778638808522373
-2.730785278836265
-2.0552053316496313
-2.768888554535806
-3.395349954487756
-2.535922289825976
-3.3641630155034363
-3.7725010521244258
-2.8588613807223737
-3.817184628918767
-3.976520693395287
-2.9986436488106847
-3.957109861308709
-3.7484477888792753
-2.8579382644966245
-3.8398667082656175
-3.3899601669982076
-2.516059466637671
-3.3275540547911078
-2.7715697602834553
-2.0640960645396262
-2.7445697486400604
-1.8512050795834512
-1.3569271608721465
-1.8408081291709095
-0.8352518239989877
-0.6159423827193677
-0.8974747678730637
0.1931802227627486
0.21208676742389798
0.24099655775353312
1.090210105990991
0.8810240637976676
1.1305252716410905
1.7943349268753082
1.3991660790052265
1.7758649373427033
2.2884542329702526
1.8879130489658564
2.1922981350217015
1.7923022429458797
1.4122965261340141
1.7802545824088156
0.6866070788819343
0.35170479072257876
0.7018137236591429
0.24645831505768
0.20398574555292726
0.30540915252640843
0.5813528324943036
0.8224991376046091
0.6346998724620789
0.6108352153096348
1.1253676689229906
0.5639543896540999
0.8051063907332718
1.6110581310931593
0.760592384962365
0.9982255201321095
1.9724698865320534
0.80788968433626
1.0055102237965912
2.258726848522201
1.0232347422279418
1.1282209816854447
2.4687795522622764
1.1127182226628065
1.2291756509803236
2.573996469611302
1.1560338714625686
1.1188031490892172
2.4498006517533213
1.0848168772645295
1.0254050306975842
2.2546704292763025
0.9954269849695265
0.826416828436777
1.978253474459052
0.9923580447211862
0.7572668588254601
1.6142572266981006
0.8155538162682205
0.5408021989278495
1.0946266734972596
0.5693359358701855
0.5867071147076786
0.8061302315909415
0.5976608672644943
0.3932018168270588
0.25083668739534914
0.2596822241321206
0.6935148569755256
0.3266130252741277
0.6434219884686172
1.7686303320806473
1.4006222884636372
1.779135155491531
3.5425016738008708
2.9664629336912185
3.380289369262755
2.0304480670019984
1.5839667024556547
2.008593704085797
1.237313514109701
1.1751839849166572
1.2040706565603614
1.350437524029985
1.766423549503088
1.5044869794510305
0.9317099067848176
1.7270569391548634
0.9717139408458024
0.8701162345241755
2.023824931588024
0.8572110368404537
0.6347808879800141
2.104330288246274
0.621724319877103
0.5434474714566022
2.2511574428062886
0.5619556661695242
0.45847940840758383
2.304730370407924
0.48875521728768945
0.30851018778048456
2.163006411632523
0.2620892634149641
0.46335611562244594
2.3077242414001375
0.49185865209437907
0.5818650503642857
2.2371593536809087
0.4951963881030679
0.6657804111018777
2.1487811119295657
0.683786901878193
0.9088716963306069
1.9870134925004095
0.7442906890064478
0.9792561219073832
1.7430873347911984
0.9576315430458635
1.4078044020570815
1.7748756620567292
1.466784195508808
1.1381324382964522
1.1427605475764722
1.2386957893613726
2.021228486439213
1.5940752413589507
2.0399426724761724
3.3862759980838746
2.9974313536658883
3.601289604557678
3.7836281277704984
3.2270144673530012
3.781658767024055
2.2117731724865735
1.7402832850348204
2.276644798228517
1.1558857127092779
1.1673423375468701
1.2691997615620494
1.5836180860642344
2.0310287242755294
1.6750952056609094
1.1759909016545862
2.096903236815706
1.141897082561627
1.0178265299182385
2.480533479945734
1.0851914908271283
1.0077435330022126
2.799720914568752
0.9597839121706784
0.8674505818635225
3.033231792971492
1.0335870389826596
0.8668123069219291
3.080355750164017
0.8267220838461071
1.1627817193511873
3.6146096871234477
1.525090429931879
0.8404126579407603
3.0420139487832785
0.7735936176031828
0.9303995808586478
3.0008351483847946
0.903389579616487
0.9370795940048993
2.784709637518972
1.0011115563102067
1.1237215765286237
2.5388525971211493
1.1029309444129467
1.1131865461356938
2.0684613992925733
1.1466799818444997
1.6714876058977097
2.02071743295528
1.5664580948650837
1.294498339528218
1.207900597481057
1.2161358371376991
2.213925169315189
1.706669638864696
2.206666541052982
3.7928530930075794
3.2264671875163913
3.771513380110264
3.9194141337648034
3.3419069601222873
3.9116061059758067
2.495814602356404
1.939298216253519
2.4893313297070563
1.41760846786201
1.3580397844780236
1.4943741858005524
2.1424512395169586
2.485046711517498
2.1350176227279007
1.571831680368632
2.4773243414238095
1.4811390072572976
1.1331060046795756
2.709182753227651
1.1136723565869033
1.097496475558728
3.1826042062602937
1.0589450306724757
0.8295081101823598
3.3169768918305635
0.9129340110812336
1.0086170479189605
3.779698271304369
1.301817037165165
0.025045167421922088
2.116276268614456
-1.2284445052500814
1.046471151523292
3.8127348192501813
1.3313638640102
0.8722920946311206
3.3166303385514766
0.8671216261573136
1.136994272004813
3.177229419350624
1.0068377477582544
1.148208154598251
2.7278474452905357
1.1377965961582959
1.5437819419894367
2.4866735965479165
1.5286491978913546
2.0945458756759763
2.46138287615031
2.1349858925677836
1.4527036836370826
1.3747439177241176
1.494738878449425
2.574089572764933
1.9421883162576705
2.41750804358162
3.9812130744103342
3.335887597175315
3.8369973772205412
3.529473438858986
3.0328476245049387
3.607530891429633
2.3593346148263663
1.8501655908767134
2.438355192076415
1.3117543701082468
1.2285404289141297
1.4400315613020211
2.2691416703164577
2.491678043268621
2.26654635486193
2.320906405104324
3.053265936905518
2.253686013398692
1.735094499308616
3.197614442324266
1.6758163631893694
0.6116378181613982
2.8357424973510206
0.48791282647289336
1.4928192684892565
4.326460184529424
1.6030724009033293
0.3007967530284077
3.081263744039461
-0.24519784841686487
3.9998707249760628
9.115090331528336
8.277284052222967
0.3774086688645184
3.086771331494674
-0.31157204741612077
1.4881593834143132
4.310437849722803
1.573231325717643
0.5446061079856008
2.856485571246594
0.5963143811095506
1.6822372970636934
3.1601037536747754
1.649193149060011
2.241944198263809
3.0725707274395972
2.373522140085697
2.2882044387515634
2.52497670520097
2.3201641568448395
1.2932165670208633
1.2026382079347968
1.407959837699309
2.4084746649023145
1.8556277682073414
2.400522707030177
3.4654893283732235
3.0229714608285576
3.6507955878041685
2.850722991861403
2.496620688820258
3.03954039956443
2.0523783834651113
1.5256218942813575
1.9562026113271713
1.1858470756560564
0.9752606123220176
1.0950647264253348
1.9536456887144595
2.0744933469686657
1.9829327329061925
2.319820508128032
2.8450478960294276
2.3850941888522357
3.368046151008457
4.37463174154982
3.2742685636039823
1.2973987038712949
3.437381869647652
1.4776844822335988
-1.2328969028312713
1.8027441198937595
-1.4857249101623893
4.1476575571578
8.558737248880789
6.015447172569111
-8.133867209311575
-10.635502960067242
-21.39787352993153
4.161198096117005
8.554716178681701
5.993375003570691
-1.1954518288839608
1.7956339081283659
-1.5382572042290121
1.3821624997071922
3.431630374165252
1.3823319098446518
3.3040535000618547
4.371324366657063
3.33253902499564
2.3621645581442863
2.816080813994631
2.283905442338437
1.990975561318919
2.078621986671351
1.9568372378125787
1.1685502250911668
0.9750358709134161
1.1142523512244225
1.9555360720260069
1.500952850561589
2.00289497745689
2.986880053766072
2.467649745522067
2.8432834206614643
2.0442076986655593
1.7533271329011768
2.105883253738284
1.442493915790692
1.0568482361268252
1.3772319508716464
0.7987843442242593
0.6707993412856013
0.8250258453190327
1.3798124636523426
1.4596577938646078
1.4805105212144554
1.7861654968000948
1.985323185333982
1.6528304764069617
2.6383804401848465
3.281114334007725
2.7916932126972824
5.991110598435625
6.9815889277961105
5.729275715071708
0.17996064550243318
3.4501575715839863
1.152296737069264
-7.391244455939159
-5.746210425160825
-13.676899954443797
28.435562984785065
51.958243211731315
68.95762240607291
-7.435308711137623
-5.749511916190386
-13.641758993733674
0.17327126977033913
3.4579472166951746
1.1720026088878512
5.937695718836039
6.990671022795141
5.802481289487332
2.793065106146969
3.3025785934878513
2.683661425136961
1.7213916663313285
1.964455662877299
1.6743797946255654
1.4948940728791058
1.4890866200439632
1.4289082585601136
0.7317741911392659
0.6853464746382087
0.92540803772863
1.406772791990079
1.0561527229147032
1.4125681521836668
2.0913776990491897
1.7881833133287728
2.13199732452631
1.0313784389290959
0.8834009119309485
1.0697196817491204
0.7758534830063581
0.5575649759266526
0.7151976458262652
0.4202913111075759
0.3349969028495252
0.4108590923715383
0.6892009018920362
0.7360066738910973
0.780551222153008
0.9921815847046673
1.0470458208583295
0.8908257815055549
1.5816521577071398
1.7462071527261287
1.4430480471346527
1.747726206900552
2.523751534987241
2.47752280626446
13.79619795223698
13.30233357148245
11.207567761652172
-0.4735535830259323
11.188937146915123
13.877128016902134
-59.80237704818137
-97.09596308204345
-158.90690612141043
-0.6019975449889898
11.228006612509489
14.08448729896918
13.836320187780075
13.269378606346436
11.097282457631081
1.6323246560059488
2.5043709927704185
2.5523201774340123
1.6994225466623902
1.7679071247112006
1.3699052821611986
0.8967972664395347
1.0355606984812766
0.9617373161017895
0.7442637617932633
0.7412686152383685
0.738848066655919
0.4129352354211733
0.3145810215501115
0.3772454734425992
0.7743417914025486
0.5777668001828715
0.7582221410702914
1.0521209980361164
0.8661812578793615
1.0130944366101176
0.03392683947458863
0.01079260092228651
-0.009275470161810517
0.03680382180027664
0.01066927658393979
-0.014191608875989914
-0.003459630999714136
0.01455950504168868
0.03265874902717769
-0.01647725678049028
-0.007623447570949793
-0.000961031299084425
-0.03386487043462694
-0.01022811746224761
0.012811692198738456
-0.08053590543568134
0.012973067350685596
0.10722303204238415
0.011212168959900737
0.01101015298627317
0.012719538994133472
0.0015602379571646452
-0.008749473839998245
-0.019667586078867316
-0.1260298180859536
-0.03108158428221941
0.06034707580693066
0.06981611135415733
0.014347511576488614
-0.0412675563711673
0.04669804766308516
-0.01491042086854577
-0.07909177080728114
0.03506255825050175
-0.0016055500600486994
-0.038169188308529556
0.03433105337899178
0.01522489101625979
-0.001993809244595468
0.017132287146523595
-0.00959500705357641
-0.037526118103414774
-0.022269564564339817
-0.027957731275819242
-0.036069469759240746
0.005538476747460663
0.0446815729374066
0.08974619524087757
-0.012316505541093647
-0.004999032476916909
0.002062757150270045
0.07249969837721437
-0.0008323215879499912
-0.07460042764432728
-0.06583985162433237
0.011759783141314983
0.08967453555669636
-1.0738781678956002
-0.9028243862558156
-1.066532994620502
-0.848572438582778
-0.5774132010992616
-0.6855293777771294
-0.3660708870738745
-0.31628557993099093
-0.42674168571829796
-0.7684916718862951
-0.7581619566772133
-0.7474707057699561
-0.8767438016366214
-1.0482127047143877
-1.0087284923065454
-1.5327677829191089
-1.7608203459531069
-1.5228173222858459
-1.7970401716884226
-2.525241911644116
-2.430594254285097
-13.808099274756387
-13.25594797031954
-11.095580105902627
0.5245050939265639
-11.165745227830485
-13.876618017442524
59.96018426970113
97.10914035176393
158.77762655168772
0.5411198906367645
-11.182181835523807
-13.927608250989579
-13.839593443204649
-13.261036839685403
-11.074738831375726
-1.7687017088755965
-2.526027919840999
-2.459239133633673
-1.6454232926480472
-1.758215436246246
-1.4041764556895941
-0.8848179037449881
-1.0158660395536572
-0.9328382965177298
-0.740241466788575
-0.7681536336895078
-0.7965632107807323
-0.3409604874905199
-0.3322407597443089
-0.48525116860400885
-0.7799647975480184
-0.5781734986230731
-0.7526995526859537
-1.096339926472865
-0.8839874854311347
-1.0035962488036603
-2.035112176788971
-1.7275587779004127
-2.0611535478383303
-1.3916895524598658
-1.0596636754926294
-1.4371890865731984
-0.8735317043028772
-0.6537576329428703
-0.7160184641834348
-1.5237373462878168
-1.502061198465526
-1.4224098098929971
-1.7141894835513085
-1.9536957666277885
-1.657636899733916
-2.6986671267077327
-3.2938487108331174
-2.7593544034752995
-6.04502507369034
-7.015565962763503
-5.745770041365176
-0.18257111683487892
-3.4029475622810423
-1.0477774657774717
7.383027293370105
5.708500830922276
13.60964076127857
-28.635865367017686
-51.99641712696757
-68.83425073395483
7.324621695210226
5.720776287023909
13.692744794185273
-0.19469283777289093
-3.4533019966911525
-1.1415913747623563
-5.966796235414222
-6.9904327157419175
-5.771205705474131
-2.6907000704668462
-3.283195168711245
-2.746133524691686
-1.7256651320494711
-1.9638424882432446
-1.6677534147165716
-1.515897685661912
-1.459216148010455
-1.3424773436272517
-0.7671143555780873
-0.6499421421904117
-0.8131622161017731
-1.4452310148626566
-1.0905693419044837
-1.4425899024354294
-2.0931248840643093
-1.7247989131137729
-1.9950413395417854
-2.9370473029557616
-2.469876384595409
-2.8986215540207922
-2.0354478352237493
-1.5409313621930778
-2.0074474960565567
-1.1622055738698691
-0.9693016491364688
-1.1074206593912095
-2.014739441918209
-2.05803975998424
-1.8870046741794795
-2.320596811361611
-2.8306090633850545
-2.351255062967539
-3.3603613604791462
-4.374823437770829
-3.2798310227226466
-1.2590594831854105
-3.421832143329084
-1.480941996909678
1.2452908616978675
-1.8307579646352679
1.4169110793154687
-4.0469782270956784
-8.527939273160882
-6.051136376801878
7.982727796654217
10.622714716126211
21.52492144808639
-3.990483647561632
-8.531582552939653
-6.1143051938852295
1.2267437013797462
-1.8064527821261436
1.4864223313052207
-1.3672086821170524
-3.435330906417221
-1.4033216484822333
-3.3979209501994774
-4.392279007122852
-3.2819243483245373
-2.2927410999545828
-2.8310312286484987
-2.3845097086159512
-1.9385056920582429
-2.089993101893924
-2.030446636141278
-1.0805634873686358
-0.9840144211193547
-1.2163385330932215
-1.9245658584404737
-1.5093105570413172
-2.04931227886118
-3.0543459869222715
-2.521393050905317
-2.886659196112305
-3.6257637932430953
-3.0372529791202396
-3.5202196484897286
-2.4103268526960164
-1.8155476276297122
-2.314451104728505
-1.3458895727526397
-1.245325630530715
-1.4393436899408698
-2.312945795012638
-2.5008867557626218
-2.2429155842401087
-2.2514145467430353
-3.0366606055758893
-2.289054463384673
-1.6558521611150354
-3.202249146066606
-1.763442576630041
-0.6223843416664749
-2.863946150057018
-0.5340590472333133
-1.4894005708629265
-4.318509969394654
-1.5896959002129734
-0.35308032005559653
-3.076407187851146
0.30870084825437516
-4.081276075565256
-9.095938490121625
-8.154321806621738
-0.2872673685196787
-3.0676442680414766
0.2626596863847226
-1.43298225174658
-4.324014091282152
-1.6574934743111953
-0.5777535369852558
-2.8234346852404997
-0.4939036938594654
-1.6684713622089475
-3.182532806764357
-1.7089778827503324
-2.310726964031346
-3.054040319286287
-2.2679676613770425
-2.270759197883308
-2.5147592703578994
-2.313767501269467
-1.4432221390889026
-1.2162517176475376
-1.2811001155059785
-2.387434834789019
-1.8102821867214516
-2.3244216479943134
-3.524416124273557
-3.020431361743249
-3.5839381456607953
-3.893817905103788
-3.3663612792734057
-3.986080568516627
-2.488068812061101
-1.9577758298255503
-2.5353516817558557
-1.481875804020092
-1.3453739969991148
-1.404290060279891
-2.262810327578336
-2.5048924379516393
-2.0571080988738686
-1.576538595603779
-2.5353916950989515
-1.5978678662795573
-1.0232444158755243
-2.6689584550913423
-1.1416092393919826
-1.1065381625667214
-3.1897643520496786
-1.0666199699044228
-0.7603633345570415
-3.2981786095770076
-0.9434314457466826
-1.0441007749177516
-3.794091860880144
-1.295549035887234
0.003585663391277194
-2.1460847632260993
1.1377142822602764
-1.044591760612093
-3.7846971543040127
-1.2765220907749608
-0.9141003976110369
-3.31751419918146
-0.829127135570161
-1.0992224186193198
-3.2101055254461244
-1.115052443696186
-1.1403757533989847
-2.7006573571125045
-1.0887281531468034
-1.463090632285457
-2.464903983171098
-1.5639454007614404
-2.203074031684082
-2.4801451097009704
-2.066239873471204
-1.4620865400065668
-1.3828905459376983
-1.5017826097318903
-2.573352844279725
-1.980912251630798
-2.497669755714014
-3.911458410206251
-3.355889245576691
-3.947651884809602
-3.7630531911272556
-3.2229357743635774
-3.7915793722495437
-2.125410282984376
-1.707777857547626
-2.2947705255355686
-1.2155824967194349
-1.159734929446131
-1.194880158873275
-1.659049998037517
-2.031880650902167
-1.602771046338603
-1.2423680177889764
-2.073666528100148
-1.0273902334738523
-1.153017434058711
-2.5665463325567544
-1.1323658202309161
-1.0709322014590725
-2.8127919413382187
-0.9284918503835797
-0.9119747498771176
-3.0165973270777613
-0.9551125561119989
-0.8108691235538572
-3.0718635086668655
-0.8617164123570547
-1.1332626692019403
-3.583648966276087
-1.4889485101448372
-0.8992943185148761
-3.075299349031411
-0.7835941642988473
-0.9399044229649007
-3.017783427145332
-0.9296482426580042
-0.914458837825805
-2.791881580487825
-1.0366481008240953
-1.0939904958941042
-2.5549195975763723
-1.163653658120893
-1.1173620884655975
-2.0785071519203484
-1.1617146324715577
-1.6631476188194938
-2.048491205787286
-1.6320295701152645
-1.1757207352202386
-1.1517355978721753
-1.2180213058600202
-2.2554701094632037
-1.6993178267148323
-2.1490858773468062
-3.710948724881746
-3.1944027252029628
-3.7867749377619475
-3.4234390943311155
-2.9733365124557167
-3.5126207037828863
-2.064604016719386
-1.5919932015240192
-1.9889761332888156
-1.1658423452172428
-1.1476680436171591
-1.2172456665430218
-1.3672767512034625
-1.7642974122427404
-1.4843056390527636
-0.8732005660422146
-1.7440987755544484
-1.0657577191013843
-0.8335040002129972
-1.9814443204086274
-0.8085399973206222
-0.6900569108547643
-2.104922074242495
-0.568340428872034
-0.5045754126040265
-2.2312887751031667
-0.5601766564650461
-0.4377561924047768
-2.2936186835868284
-0.48629686946514994
-0.4263248771894723
-2.18621557590086
-0.190776122151874
-0.5241423656698316
-2.331876060576178
-0.4805020533967763
-0.5337450110819191
-2.2467136569321156
-0.5642743217758834
-0.5956783909350634
-2.1025618977146223
-0.656214279239066
-0.8838225863873959
-2.00286927446723
-0.8000228931196034
-0.9941698865150101
-1.7639901797519997
-0.9849317054031417
-1.3397487723268569
-1.7445495395222679
-1.4707531899912283
-1.274715056468267
-1.1626420262618922
-1.140833610901609
-1.9757383315009065
-1.5979092025663704
-2.0927289820683654
-3.464487244054908
-2.9968461738026235
-3.5228979345120024
-1.7352636160794646
-1.4351360946893692
-1.8845370393246412
-0.6521521988324821
-0.3375190480146557
-0.7071378529071808
-0.31523857917636633
-0.20743085630238056
-0.24316443875432014
-0.6266268210019916
-0.7946050115860999
-0.5305715871509165
-0.5453527881763875
-1.0985697763971984
-0.5750782396644354
-0.8502295787911862
-1.6568743076641113
-0.8120129192247987
-0.8949029262876138
-1.9578309032367542
-0.8845450424123555
-1.117179931839928
-2.2771784926299006
-0.9536136394599453
-1.1693567694164813
-2.4742442541755736
-1.0832981754792854
-1.1443507852964103
-2.568415252491832
-1.2271492565050721
-1.1559051548829302
-2.473864658852108
-1.0962953936541453
-0.9775345990201458
-2.2438884360017255
-1.0211486184271052
-0.9123259515035897
-1.964167576865293
-0.878666065284051
-0.6693394817993976
-1.5894497074186802
-0.8516632093815133
-0.5750094936811365
-1.1292021940462291
-0.6072869488270953
-0.5261177279171534
-0.8068818638566881
-0.6584528320236132
-0.2714723526441958
-0.21366545470664278
-0.3018769436166622
-0.6330712127673905
-0.3500401107885409
-0.7528212524484843
-1.7581892625021283
-1.4060331007640343
-1.8014852656051517
-2.2620618215296417
-1.844859408447519
-2.131702180253342
-1.7776976427994668
-1.421011396450922
-1.8385131524410099
-1.0330253017600626
-0.8733140199910849
-1.1697543836198747
-0.265664896229282
-0.20900017651729286
-0.16149969585239887
0.8947336913552135
0.649814086034894
0.9107801290228963
1.9332563639618456
1.3907992306631058
1.8313010456040502
2.7174282065825537
2.0104084939230233
2.686329172924161
3.3322835309663787
2.540802425588481
3.4365736881736666
3.809728014282882
2.8983419936848804
3.864568968769163
3.901123881107196
2.9684988874942064
3.972100342158228
3.795992327737622
2.8521073292940855
3.780048439046368
3.3706725540105253
2.5547843822278082
3.4281614483334124
2.7627461762167513
2.0421479034703225
2.7068413459928706
1.9070468341233209
1.3516841841046698
1.7761724544106983
0.9360650964081287
0.6299457709537819
0.8254696422372945
-0.17603222042089328
-0.22440353862475604
-0.28529805672587827
-1.048811740387464
-0.8595162571873516
-1.1287184713291936
-1.8419527008954901
-1.406098141131224
-1.744712150306441
-2.238720518653281
-1.879239223417244
-2.2255509481328772
SCALARS strain12 float
LOOKUP_TABLE default
-0.3060057738039177
0.2974066145834513
-0.2985338904071
0.28957716168952174
0.30405191591125913
-0.30647765277171857
0.29574584741209264
-0.29630208757225773
-0.38940760061814217
-0.657823139532411
-0.9277020734953112
-1.0957780731769162
-1.1496388385930914
-1.0825369954691269
-0.9292200356867397
-0.665838220360456
-0.3513978731498355
0.0010623467242112383
0.3363538090889051
0.6589590712319477
0.9197603306020028
1.0693016264594917
1.1435975998720096
1.0902518958864675
0.9144103374019323
0.6550573159729538
0.3793393558335083
0.3843268015443755
0.6509566591594194
0.9319718850274512
1.0996096291928552
1.1493466071151488
1.0895996057115553
0.9071324311262288
0.6596133280872891
0.35172069737564016
-0.0017063642699213233
-0.3507080295294145
-0.6650571888640116
-0.9174022465231246
-1.0848273435112787
-1.1430913036756465
-1.086423755591568
-0.9186775738708093
-0.6469517698833442
-0.3757741937981791
-0.3738778753288443
-0.6576495263470861
-0.9231521716124007
-1.0965479047827102
-1.1497586522473284
-1.0798455360400112
-0.9163480064798932
-0.6613821664013813
-0.3412469906070328
-0.003207175124771311
0.3479173731029732
0.6586847721337108
0.9134197571256664
1.0845350653216883
1.1545279981619387
1.095519265432813
0.9172711782448459
0.6532272727599775
0.38865221655214555
0.3778721731614496
0.6510464836756
0.9188412678486202
1.1019114651790005
1.1554987352974422
1.0876886386540718
0.9133498951705405
0.6602031978800369
0.3478256291600701
0.00980456806064467
-0.3423868559257244
-0.6550809256150387
-0.9171039889115491
-1.0829464076523436
-1.1490811001931434
-1.08517464104807
-0.9128905987381586
-0.6564627145417035
-0.38373110020620516
0.38827211687748786
0.6535364307201235
0.9237129337052465
1.0981503596995026
1.1516017654867028
1.0795093726555933
0.9211892420862569
0.6598333771544276
0.3528056899449439
-0.003641649062046781
-0.3391259816926322
-0.654744873947493
-0.9157138847840542
-1.0755077902940684
-1.1461209960798442
-1.0868701285944553
-0.9128188290414982
-0.6534419972449541
-0.377011018947087
-0.3865574053306773
-0.6578231746316305
-0.9294447014472098
-1.1010164119034016
-1.1452278061515244
-1.0890652441339626
-0.9079413902618398
-0.6636796529382991
-0.3506680665050226
0.002055784361800761
0.3455024746072013
0.6661000519688969
0.9159892783918622
1.0783353814440488
1.1443710803350768
1.0879993293647203
0.9150033479190824
0.6504354341259386
0.372708116628246
0.3802048700981686
0.6543143590470208
0.92252101366239
1.0911211514676324
1.1488977685885402
1.0808907963582897
0.9159531918139692
0.6620083662401157
0.33776186302384303
0.0005591184926743153
-0.34036927388115146
-0.658911598387931
-0.9110790291997546
-1.0817989492534252
-1.1480174313292082
-1.08620104061265
-0.9179464537664899
-0.6480691667638894
-0.3863026910221379
-0.38139322749339044
-0.6525581338319171
-0.9147779243648984
-1.0958357165000052
-1.1525459961521847
-1.0826957965546171
-0.911942096772691
-0.6611381527836784
-0.3415909938485129
-0.0074667418375611305
0.34250047460227506
0.6531352192178019
0.911180778130074
1.0781638102344004
1.1446625829776167
1.0799787128853495
0.9085420310220798
0.6566703083663015
0.38143117546133
-0.15255942908697762
-0.0009686786434031092
0.15061873128433945
0.14558595154812792
-0.004440212909685215
-0.15451591358942096
-0.14905514800375386
-0.0013835519459917123
0.1462830048508863
0.14227830933668884
-0.003265051604103064
-0.14885858966226806
-0.6461872341824346
-1.1867293943505501
-1.704379232309293
-2.0260379270184785
-2.119724788397434
-1.994465871277498
-1.670451476587914
-1.1999919143454463
-0.6258179609321814
-0.004617813516233582
0.624696610506362
1.2019601710380812
1.6760567745150183
1.986793964591925
2.127780913175229
2.024102123807097
1.7055419325406547
1.1754798982146895
0.6432036310216063
-1.1907347349260817
-2.076511575221957
-2.912116139093996
-3.427256404160289
-3.577234612792381
-3.3668043864308856
-2.8216475349508983
-2.0236952547747933
-1.0535900827671867
-0.004755468558869325
1.0509824200453295
2.023790872452082
2.819708959599666
3.3642955848445126
3.575549525568931
3.4176695029236726
2.916592899040552
2.073620323648356
1.1915056810248643
-1.704512089760101
-2.909076533433108
-4.060674410822685
-4.784321333740081
-5.037687737181841
-4.767563675624842
-4.0237379143654834
-2.8986906791797082
-1.5054188638168853
0.0018209244663012214
1.5133972101430118
2.9043099813861772
4.022290825279924
4.7678705974976765
5.032002928048314
4.787651656155504
4.061350979107374
2.9129196987632895
1.702141594778368
-2.0234971713653067
-3.4266165872031706
-4.780540014100552
-5.70126026838625
-6.098395396104024
-5.876927774097567
-5.023859011173045
-3.6541070113344176
-1.9229325488304312
0.007586688079754822
1.9221291625435697
3.6434381897415733
5.026294724448235
5.874833540779946
6.098311609188386
5.709493343576469
4.779274026823259
3.4279082306420605
2.0259958103779354
-2.121077514035278
-3.582862164155813
-5.0363810086819285
-6.092462665870698
-6.70451469989348
-6.660603884272859
-5.86578593219383
-4.340271310567914
-2.29456596988166
0.003743877798115136
2.2957830577506684
4.346848316734395
5.862941570936528
6.66516068918645
6.701036786835175
6.095787180031039
5.0284996691734705
3.581439753783343
2.1153918848322064
-1.9928684378319304
-3.3686477933079004
-4.76952736217936
-5.874801643196406
-6.660144539437169
-6.963324226166151
-6.484501592382003
-5.010994436957844
-2.7329820306586043
0.009432591043150751
2.7287496249009564
5.008266555123555
6.482024364009703
6.958475317529519
6.669696112374368
5.87410567378538
4.767449387745728
3.3623341485581477
2.0003728905103344
-1.6710686685910332
-2.8163142094781506
-4.026262978070008
-5.023270156478247
-5.866010068308242
-6.486053835589701
-6.592056967525423
-5.66108567386982
-3.2313650079267973
-5.316039460012689e-05
3.2315963989713055
5.666546761414793
6.5865675973727775
6.478137439211423
5.86714641490471
5.0216841566470976
4.021000425862439
2.820292975742632
1.6690420782433648
-1.1976200818753568
-2.0245011054576025
-2.8961330015881686
-3.6465953405022447
-4.347009119177528
-5.0110849240008974
-5.654816270794981
-5.648131154768635
-4.195368730379414
0.003310290638182778
4.193524199312378
5.652513895936863
5.665795791923301
5.011764996521379
4.33817774698764
3.6477554014199995
2.8993924832029734
2.018291549731657
1.203449355707562
-0.6253720770109794
-1.0562801299565763
-1.5086350385645346
-1.9110597116668941
-2.2942804598606017
-2.724256072026037
-3.2370192367889103
-4.198907126905397
-3.0940740971273044
0.002296507667779224
3.0989159681048477
4.201524726639036
3.2308097228960833
2.7252542588430515
2.292952301490004
1.922803137676965
1.5185480642412585
1.0563410712111363
0.6181182025484304
-0.005257099437585566
-0.00271061536113848
-0.0038754500383220147
0.0002527409997128416
-0.003975278279540362
0.00222663924068911
0.003962525741371792
0.0017712418048176914
-0.001283742381929187
0.0029631257530127186
-0.0028550376155180857
-0.005409999474068172
-0.007078008795360802
0.0009750890058057848
0.0036939350684406236
-0.0005901339518459281
-0.0004699345045082737
-0.0031783294998604106
0.00035892279811378103
0.6272371340019163
1.046551329545764
1.5192327446347917
1.9185756471597415
2.2977454614847375
2.724063968511473
3.2262491510118707
4.194178151203232
3.101485118015262
0.0014138643055048306
-3.0945615411983454
-4.193612130322435
-3.226567063620678
-2.7181359744608926
-2.2959064158785623
-1.9170157443168137
-1.5154196380808571
-1.0539072383398889
-0.620527555784065
1.1941085940379708
2.0147180646417837
2.9014948696421925
3.643304688936041
4.341726757233118
5.010847041674424
5.662201537448709
5.655791144014074
4.202857380922069
-0.003110384895990137
-4.192835051671864
-5.650173519812597
-5.657342106003853
-5.007264484216648
-4.341388867023852
-3.649028734127569
-2.9068192509166693
-2.0215884008157445
-1.1958633175963769
1.6644643943691335
2.8167340522049926
4.020797828125069
5.019882050499291
5.860266687479452
6.491734274619375
6.5866564198513515
5.663096791820863
3.234287111685262
0.0040515716464142315
-3.2321766874865716
-5.666628994726125
-6.588864453506176
-6.486814429074002
-5.864052390672441
-5.020847425475949
-4.02142341722174
-2.8241463690901583
-1.6643519332737924
1.992497799161356
3.3603615688625723
4.769354804055183
5.869586019245617
6.664459680549044
6.96737020934961
6.479410357900633
5.012013005580229
2.728577364810917
0.006121166774391895
-2.7307390735404624
-5.0148298889325815
-6.486648923340908
-6.963129419598772
-6.667919287179757
-5.882169267375502
-4.773801545796232
-3.359059420776248
-1.9911973468861106
2.1218477407164755
3.571695626946166
5.0345915867437725
6.103511182147486
6.69881655980862
6.656093039189727
5.869548403508816
4.340263283051172
2.293622334014799
0.006118153320130659
-2.2982668957920396
-4.33860216674293
-5.873897481989843
-6.665074034654026
-6.701280526709525
-6.095619999563496
-5.030167764925864
-3.577732060339258
-2.121213454120152
2.0173161585844355
3.4228493442169565
4.786200294744049
5.700979577071848
6.100749332748819
5.871451135146344
5.0220638322753075
3.6483523385759327
1.9124676858264138
-0.0003027677012141794
-1.9153984549029701
-3.648831000591599
-5.02354908874986
-5.864575843095736
-6.096305282295361
-5.700856145700527
-4.78417603152775
-3.4320267838320433
-2.0260071611774038
1.7119548563678109
2.9144693782291142
4.062957663809357
4.776337670518842
5.038659042395011
4.7676981339282065
4.021376242802944
2.908100270487921
1.5209318194392836
-0.001268045547476504
-1.5169395742650522
-2.8998628591198212
-4.0186038323481625
-4.768063655492369
-5.032978907676807
-4.7880886470702535
-4.0677147483092995
-2.915524752089368
-1.7034138132712542
1.183482971991907
2.078808127589582
2.90916031186498
3.4272357212903444
3.5793705523719836
3.3575055421279103
2.8233096061085234
2.019230071316997
1.0528528907216241
-0.0025422844682907453
-1.054765320106526
-2.0181354113574344
-2.8229275155990763
-3.36272497364007
-3.575769359586957
-3.420231393924041
-2.9102593744191836
-2.075320421426113
-1.189838335895729
0.6504237669578288
1.1871614232404681
1.6997130651361658
2.027824849694298
2.1230848788945877
1.987453844587435
1.6731744267526665
1.1952669702914136
0.6232085106839804
-0.002940023130577174
-0.6251660968082433
-1.1931428844272887
-1.675956679155206
-1.9905488594595226
-2.12439381814238
-2.0302781187047003
-1.7072535493771284
-1.1907050344066192
-0.6410781647143722
0.643557261209935
1.1849056166320224
1.7036413391688257
2.025749618806003
2.1186758506519254
1.9906879893896985
1.6677281303782365
1.1966306265385356
0.6259043893151102
0.0055883973254822195
-0.6237938401282008
-1.2004474130299059
-1.6732843182544457
-1.9837695875321515
-2.124691382421588
-2.0227416200468724
-1.7043948245955107
-1.1749308244216081
-0.642107267256506
1.1907451415536343
2.0760777531395433
2.911029738439538
3.4241271665523527
3.5738004552476923
3.362922254120349
2.82035789035217
2.0246896888093033
1.0517805949202739
0.0018641590140759945
-1.0487901464985043
-2.0220278986598714
-2.8161459670373006
-3.3629743679848616
-3.5707816181929957
-3.4179065144926426
-2.911633764844737
-2.0716718250041595
-1.1906475764335482
1.7014544708436006
2.9088149010567577
4.056370364945906
4.7831061703836895
5.034245157712576
4.762185959152703
4.019961937905464
2.8933345534205728
1.5053292092197808
-0.0023628959752386436
-1.510099172948685
-2.902358979168639
-4.01779213197733
-4.764549839517713
-5.030366768114618
-4.784573910426843
-4.061168050906417
-2.910077872547845
-1.7013809281488648
2.022606260718021
3.4242004497209564
4.778264512933674
5.698823444956361
6.092694376871805
5.872130003393977
5.019976402803877
3.648724242208118
1.9193878810729075
-0.008086658446700312
-1.9169881212728797
-3.636880336485774
-5.021688122553314
-5.871351690384472
-6.093732474935678
-5.702445659637306
-4.77771846916221
-3.4243484256076044
-2.0252117631971487
2.118675092147896
3.5797255106735975
5.0317933715632535
6.088419382136635
6.699942332208593
6.653999413116253
5.85648875208426
4.333241963224282
2.2887423015090462
-0.00379146776322159
-2.292361967432953
-4.337154285825818
-5.852623375627445
-6.659175358818175
-6.693493024642521
-6.093508543959615
-5.021677675100364
-3.57979156577494
-2.114721491077944
1.9929784532505437
3.3641691998564056
4.7669624012414715
5.867658161158033
6.6543890990105865
6.953040404325293
6.475324472237844
4.995392846089089
2.7253257030934037
-0.009407362609636039
-2.7213038367553963
-4.996207823503937
-6.467531407251954
-6.950367238943727
-6.663641675855615
-5.868710852726508
-4.763483654991433
-3.3579601721176005
-1.9974816181529604
1.670597437005199
2.813596918123949
4.021511330778594
5.0170139765577915
5.857958670731023
6.475774179220025
6.575250745208905
5.6414693282822554
3.2013110903026245
0.002193048545450438
-3.2000924501990085
-5.643784065996442
-6.569180792917905
-6.46768671607424
-5.8588757032230205
-5.017873778986541
-4.019301837874082
-2.817172721508541
-1.667342452401499
1.194658438264014
2.0223450572993897
2.8970163532576407
3.640823754383746
4.338624588006496
4.9982816911287955
5.631857524895167
5.601382008931978
4.168697543536837
-0.002750140894931974
-4.169301295019977
-5.607795093346795
-5.644350214290171
-4.995387565686542
-4.330937174392602
-3.6425317834946327
-2.899497773127223
-2.017441563442844
-1.1981742250209209
0.6249980257598509
1.053959609958838
1.506904752804985
1.909294908578886
2.287985758859577
2.716242294653057
3.210107479888393
4.169405055017705
2.817189963450801
-0.004345771791122388
-2.821445305031375
-4.171600514338934
-3.2020677653745224
-2.7184724094076955
-2.2874507282176637
-1.9180396582414687
-1.5166475398818875
-1.0564534167933743
-0.6188469980661466
0.006463950045144884
0.0006400329584721476
0.002100905214319937
0.0016493677030666731
0.003597564540541498
-0.0016417258666479029
-0.004847952535783406
-0.0013392622058745474
-0.00035787656452157535
-0.0018976826759171672
0.0035595297267718706
0.004881689776084386
0.0049270210292888805
-0.0012495275732362643
-0.002670841720828321
-0.00016029206199164037
0.0013932616129750386
0.0038555815972358687
0.0005177933944651159
-0.625662474805722
-1.0445734524000727
-1.5173120356012078
-1.9152815798370284
-2.292659103986807
-2.7136747601216484
-3.1987800801325648
-4.165636302652274
-2.8238499593499
-0.0033963973037316464
2.819497686537943
4.165283041020302
3.200103826919076
2.7101423001513467
2.289327999598754
1.913567887249883
1.512707400996078
1.050869352346126
0.6216523201164819
-1.1917392341929371
-2.0117183034308255
-2.8975838117548847
-3.639700749048643
-4.332796190599765
-4.99841208962971
-5.638986196307087
-5.609341206127283
-4.177931593585527
0.0074021446707774885
4.16412712532474
5.607227811842677
5.637507397281297
4.994129178750882
4.334976721338535
3.645557841162372
2.905187994982043
2.02001677453336
1.192688455355892
-1.6621186461270554
-2.8137591176928254
-4.017755406166543
-5.0154527998383855
-5.852937776122417
-6.480233445930935
-6.570852884455235
-5.6449694541151985
-3.20439871347844
-0.004432224384800065
3.2032256333350233
5.644766275816437
6.572230970074088
6.473033965445211
5.854652603497016
5.013257911676192
4.0198232543880295
2.8219020043270575
1.6624015601428255
-1.9887463951672544
-3.3555862001776404
-4.7659683402234805
-5.864659802467941
-6.656572530075209
-6.956409853006335
-6.469740212553006
-4.996535164718807
-2.719115196083294
-0.006160165237815818
2.7226824689769273
5.000338088082572
6.473317694862999
6.9539564932365465
6.659862528553276
5.878345300927322
4.770091996284464
3.3555468142476457
1.9843115503663284
-2.120574818985915
-3.5698818867131195
-5.032078466989333
-6.09802612490239
-6.694971637902199
-6.652493448145833
-5.8591083505089046
-4.335844438825006
-2.286370480342157
-0.007299360047909431
2.2932746883616346
4.330697626279289
5.865426459386072
6.6579862847775075
6.6937285356580105
6.088862978192992
5.028360014608552
3.577708677746159
2.119260999799735
-2.0140410648382385
-3.4200046992882562
-4.784700941709161
-5.69771143442631
-6.094818539382686
-5.869147011726454
-5.015431471154443
-3.642534854418045
-1.9095920591280446
0.0008236041994678089
1.911152247521386
3.645811607604628
5.018129180334654
5.858563120122199
6.09291401999144
5.697321952097809
4.782379846064032
3.427997264718215
2.026011263743385
-1.7089379559474764
-2.909562775574159
-4.062637570910738
-4.77432881329878
-5.035563298763009
-4.7613362341726315
-4.018027835532848
-2.9028573503856023
-1.5226898721703037
0.000392322743209661
1.5156183671424515
2.898274529945411
4.015272095244654
4.7620500274933875
5.029707584329117
4.785347134575204
4.064800208067027
2.912982780618222
1.700359074530752
-1.1804006745660445
-2.0783825374128355
-2.904188618012995
-3.4253130292418064
-3.5767579167804797
-3.3548223195211904
-2.8188189170250553
-2.015786859425134
-1.0496837505397707
0.002228111954536871
1.0546316753461724
2.0176235180933872
2.8190806243183033
3.3627174856956117
3.5735808398130757
3.417963241497091
2.9097834209069333
2.0734722241604686
1.1910276885901112
-0.6497347403346794
-1.1863602948906191
-1.699783816922718
-2.0230006219571806
-2.1230237184863654
-1.9826377564641007
-1.6700638155198249
-1.196583242577617
-0.6197005082103715
0.0022723216115991818
0.6259806368343561
1.1910323760657775
1.6730197906490503
1.9870417929032556
2.1206704749602068
2.0269278963478428
1.7063812826445428
1.1897898895235812
0.6383897768218958
-0.19366975561570143
-0.0005775474055553786
0.19251851556327892
-0.32878576130315196
-0.0020558462128974497
0.32463075971463695
-0.46369024513842305
-0.0019073188013862818
0.4598319259021082
-0.5463690142787527
0.0009928128711180761
0.5484513208502904
-0.5734242965481826
0.0008387748821405694
0.5751732930075377
-0.5411778113848413
-0.0015918505887384526
0.5380339624171029
-0.46573105742572807
-0.0039019288087729365
0.4578699285266339
-0.3337697542083333
-0.0028830834053223953
0.32794209941494046
-0.17505619645817205
0.0006638858976657502
0.17640572342497762
-4.7035278839757666e-05
-0.0012146153021603823
-0.002420750297460472
0.16727797584462678
-0.0013393174158409238
-0.16997917154731113
0.32988826582732145
0.0019469222352199722
-0.3259140239133558
0.46007193963305326
0.0019360722144483589
-0.45615551863011206
0.5324009324722283
-0.0028873538467451
-0.5382839612902899
0.5702928403188707
-0.001130408691096818
-0.5726186950814736
0.5448700829183508
0.001569104442751268
-0.541670450460515
0.4565312153135892
0.0007656718225916848
-0.4549858724603837
0.3267779037087166
0.0007442857422574889
-0.32525796446134336
0.18894368543988094
0.001132793455326464
-0.18666242425024393
0.19026860416852287
-0.0011358915908203926
-0.19252994199632667
0.3228190331174119
-0.0031976027239579707
-0.32933452456927625
0.4655181368543708
0.00126213837575051
-0.4629926940287987
0.5484133319114335
-0.0006333028359222226
-0.5497146189227351
0.5746236140839756
0.001959485154657159
-0.5706538551567064
0.5439993970503565
0.000247388263233006
-0.5434948528636596
0.45263822061315295
-0.0004085048713022843
-0.45345412044844124
0.32830237442613
-0.0019440993819443975
-0.3322343240324699
0.17575052295251226
0.00044428159526432864
-0.1748215923034877
-0.0007723042435827665
0.00013862155356036965
0.001068070632754825
-0.17629013808254967
-0.0025260480670112884
0.17119819254003232
-0.3317775159866869
0.0004073719810548937
0.33265057747303217
-0.4582754154198483
-0.0006982482973398874
0.4568743733179872
-0.5430572890818439
-0.003125530844044988
0.536745055249412
-0.5702926600988576
0.0005617929509753594
0.5714545710707171
-0.5418531923332921
0.0006930006939001032
0.5432875815404259
-0.45914501199786173
-0.0017605860693947761
0.45558525179967546
-0.3216717255495496
0.0015319307854042563
0.3248414673616935
-0.1873962260310691
-0.0015270326236986875
0.18433904910011734
-0.1842807409125271
0.002919590965802854
0.19024354346765904
-0.32850145286465704
-0.001622083157144516
0.32523303492234845
-0.4607053887662005
-0.000391029703678214
0.45996166383201853
-0.5485331126692472
-0.0026601368454066687
0.5431857100920752
-0.5740984506101086
-0.00044978156620345544
0.5732091923837288
-0.5387826746155042
0.0005107473971293075
0.5398101142491214
-0.4575311097942176
-0.00021677513723261654
0.4571075154490245
-0.32999118313819054
0.0003092016722803237
0.3306108694341674
-0.17119838395592524
-0.0017007747392199235
0.16777457998068712
-0.002211471553891897
-0.0012713870964944363
-0.0003588047511584591
0.17543544691034185
0.003600218899009633
-0.16814716447333922
0.32880559980185353
-1.893835360533558e-05
-0.3288905998815608
0.45653114521701355
0.001161291616881499
-0.45420384762473986
0.5419867904929561
0.0013042426471656654
-0.5393460514169419
0.5778176712301502
0.0031790370667295065
-0.571421222997742
0.5489169212887646
0.004486848731175996
-0.5398553465493023
0.4575380677670182
-0.00017252810721402057
-0.4579661276366096
0.32675708190799924
0.0025286168784077745
-0.3216751860345539
0.19359899861956364
0.0011781894500018097
-0.19124395423204987
0.18687223983579315
-0.0016334628126060124
-0.19020296628514188
0.3241497100025299
-0.0006292250436672475
-0.3254719606229628
0.45935055511290557
0.001982902507734252
-0.4553599746141117
0.5513294103147928
0.0029401279243757017
-0.5453996555042977
0.5774253828858491
0.0014339198423840571
-0.5745366487899446
0.5440775167080574
0.002358202895266004
-0.5392915892407473
0.45625325448054355
0.0006870740835438482
-0.4548712125142629
0.32936390496615786
-0.0003923907097487245
-0.3301860558894987
0.1750459206486994
0.002933100244263187
-0.1690859431437275
0.005407355580246076
0.0011053402013203595
-0.0031642986323277
-0.1709101828673738
3.135832957923412e-05
0.17098630425607553
-0.3274537800461985
-0.0009068867220776156
0.32560553141956916
-0.45920276100514457
-0.002844698516128119
0.45345363579690456
-0.5417197275237413
-0.0023124164508772083
0.5370549330837093
-0.5746248517243657
-0.002168058534152806
0.5702682268820354
-0.5428188030055026
-0.0025071702257264405
0.5377585223250207
-0.4565061576286098
-0.002161944161343854
0.4521768989143311
-0.32712812423415016
7.732836820650846e-06
0.3271928700414719
-0.19112495675653918
-0.001133092817326542
0.18885019330627983
-0.32234512356080813
-0.0012532094042398967
0.31980651760386536
-0.5935804177279351
-0.0009772448393050581
0.5916581541750929
-0.8528456509229727
-0.0005947670579189435
0.8517695017872029
-1.0137271631901967
-0.000342297600582242
1.0131429454486351
-1.0606909682464902
-0.0005927695310674608
1.0595390989765292
-0.9985168323619291
-0.001794085168512538
0.9948797050019493
-0.8361295670474647
-0.0012550736355478875
0.8335650358421844
-0.6008564160729293
-0.001461468233173946
0.5978227579180384
-0.3129902246364509
-4.4910484575666487e-07
0.31301138807612006
-0.0020498683479672763
0.00044039175918442197
0.0029542506381403655
0.31264591440049116
0.0004278036612959113
-0.31177820879020146
0.6015854841643886
0.0008818453279673122
-0.5998853094461083
0.8389473275346973
0.001356601915176725
-0.8362183831923176
0.9944640676185372
0.0013200849825807381
-0.9917273485953046
1.065052699745138
0.0014437629506574012
-1.0621153007887187
1.0129365844804852
0.0007287062326213345
-1.011503206085763
0.8533796449228248
0.0006052237476978917
-0.8521854766113393
0.5878057424815779
0.00040217376954387873
-0.5870659439933661
0.3206100214192702
0.0005962939867458772
-0.31944201237274683
-0.5950861187811824
-7.063071825541556e-05
0.5949835404244368
-1.0399625472346088
-0.00034195955231552944
1.039341995594441
-1.4590752739968593
-0.0007103900061338209
1.4577388992984197
-1.7175166302185971
-0.0016415882782894187
1.7142723641809425
-1.7926076749427011
-0.0017268740630242974
1.7891587018821156
-1.6871110673819203
-0.0019238541135564446
1.6832535837456817
-1.4134057554110768
-0.0007426685006066691
1.4119702598800359
-1.0133429638335656
0.00019874409190379083
1.0138911868416471
-0.5280384731595404
-0.0008983883817563765
0.5262379323830828
-0.0028482684247137513
-0.0011657739560178015
0.0003754225508600939
0.526841951890674
0.001067798766598571
-0.5246916003343358
1.0139281902374933
0.0009827473404584453
-1.0120139554674097
1.412876955648244
0.0016630362297291867
-1.4094906893260486
1.6853743799947551
0.00082270033453824
-1.683810350663407
1.7920872764589149
0.002321078889508499
-1.787413126672618
1.7120176289317897
1.7123340512625873e-05
-1.7120522345139761
1.4619171890844882
0.0021991780813550577
-1.4573772326293692
1.0388310013404407
0.0009648705599829555
-1.0368969319752068
0.5958194999548141
0.000632729395874776
-0.5946559036929102
-0.8532250633143121
-0.0014204142498783767
0.8503299575968413
-1.4573480955514242
-0.00026056731439894065
1.456892744776269
-2.035434308985714
-0.0020132810750510544
2.0313365039110067
-2.3973907088075066
-0.0007743581445538439
2.39592604059726
-2.524684076419362
-0.0017456811947340611
2.521205377546721
-2.3895538361903164
-0.002583972982392879
2.3843315618578345
-2.0164958297282283
-0.001965895306057064
2.0126033176311466
-1.4531261680349417
-0.0026046498169307597
1.4478796320217953
-0.7542786841986526
-0.00033765336411306635
0.7537513095230679
0.0007728547316219192
-0.00022011757755535655
-0.001238959164766129
0.7586990483760019
0.001513881976279663
-0.7556039564587991
1.455096029654669
0.0009802805798244663
-1.4531383224311867
2.0158344342453347
0.0021555528073804453
-2.011476025731099
2.389242159897549
0.0016096847830340266
-2.38599745373358
2.5214730524239712
0.0008918528292269912
-2.5197265032220457
2.399340495983779
0.0014953075115045067
-2.3963281546821236
2.03488430249854
0.00021362183542805724
-2.0345192571803636
1.459788276337349
0.001428700521501014
-1.4569345072704891
0.8517514756313176
0.0006273063190747052
-0.8506223751537618
-1.012634870778129
-0.0006721028694300912
1.011403716445784
-1.717036878799263
-0.001296354465011973
1.7144895405581337
-2.3956888434986467
-0.0011485598733997904
2.39339803042094
-2.857006923582958
-0.0012586153243319131
2.8545093187822204
-3.056646237939276
-0.0026631422551872674
3.051225420109404
-2.9452849884182797
-0.002416291601548437
2.940461722060718
-2.5175083133071894
-0.002085663607431343
2.5134094495842874
-1.831401882256614
-0.002667049087904161
1.826055414352595
-0.9638421898380329
-0.0017778111396182794
0.9602890455025772
0.0036681145866168663
-0.0001307702113990672
-0.003989723900303943
0.9636507888208143
0.0023402902734233066
-0.958853793257731
1.8262652073099161
0.002998633593961131
-1.8201263100163487
2.5187801943357044
0.0022594154470425565
-2.514239377935155
2.9439639968441043
0.0017902195613714866
-2.940408830298111
3.056293425939657
0.002083356914226897
-3.052023490992724
2.8619035906231147
0.003156931918056216
-2.8554033204090956
2.39492303967927
0.0008386579502257518
-2.3932772213956923
1.7178077469616255
0.001648921075684484
-1.7144431294655078
1.0137718152873276
0.0005156153347343206
-1.0128025157318916
-1.0617800030304352
-0.0013865172222722322
1.0590999833293608
-1.7952866003324743
-0.0015698590650572442
1.7921469064531266
-2.524203534831031
-0.002143500925740227
2.5198407599455095
-3.0534164174860052
-0.0019506098906276748
3.04947951090071
-3.3605907581841166
-0.002278931686305441
3.3560295615498035
-3.33917882042806
-0.003347324236528948
3.3325067883306474
-2.9409996281538042
-0.004613824283296708
2.931753944732918
-2.1757706881689955
-0.003470286392257549
2.168807958452817
-1.1506353476652293
-0.0028301082929829136
1.144934029183787
0.0017976050294237211
-2.792158193187788e-05
-0.0018512873211875558
1.1506740982149495
0.0017443831311538815
-1.147203202421224
2.179505953230546
0.004551473357423674
-2.170253881122335
2.9396055713623355
0.004770734431076562
-2.9298682081171137
3.3412035496439785
0.0029540909272327553
-3.3352759194567625
3.359409930981201
0.003505304284772137
-3.352264565484802
3.0546797307542874
0.0011834480064862873
-3.052335821943416
2.520874437330349
0.0031983461158233695
-2.514369340140547
1.794290438057942
0.0008691302500665188
-1.7925744957683492
1.0585612004288123
0.0005389078360167332
-1.0575866469698667
-0.9970268898177892
-0.0002544171584304422
0.996673929708777
-1.6880226047651377
-0.0020353679938125424
1.6838491792368586
-2.389902596183674
-0.0013129148319421802
2.387291536826524
-2.9447351324997726
-0.0034112108005501796
2.9378312673907203
-3.338760945989634
-0.0029530468564189505
3.332892669717694
-3.4926520570006687
-0.005140766319527756
3.4823690990306204
-3.252507226745365
-0.004724133170384448
3.2431277486866747
-2.514582559611881
-0.007666467354283668
2.4991812566186127
-1.370890831854922
-0.0038030617142794654
1.3632723339906079
0.00458464712210116
-5.559632700169459e-05
-0.004662053175707115
1.3687629456690047
0.003772547875996679
-1.361242857954494
2.5124582584176096
0.006065963298169663
-2.500345616539562
3.252343443582504
0.00696299475748674
-3.238274314047885
3.489772511398769
0.004120592857361771
-3.4815653573168674
3.3434482429474883
0.0029648995732713956
-3.337487860433612
2.943985980582511
0.0025889451353577897
-2.938752961359569
2.3891201421538426
0.001806180654966738
-2.3854186112403113
1.6849630419892492
0.0020596275935531594
-1.680779420057661
1.0012051689882355
0.0013522561093850527
-0.9984537258387718
-0.8360690206172876
-0.000426200196670834
0.8353131305411807
-1.4110426559964253
-0.001311620191700058
1.408395558293705
-2.017934186733328
-0.002380713696766179
2.013175232688809
-2.517681207827991
-0.003071800816542236
2.511509378313349
-2.940787564995844
-0.003991302728536539
2.9327873649599496
-3.2535542816149245
-0.005294532900734339
3.243043027796375
-3.3106221488014853
-0.008467829553410411
3.2937193387988373
-2.844226401481137
-0.009773157555173384
2.8246627121407073
-1.627151668737497
-0.01493674112498411
1.5972328092066164
0.0004220201117277611
0.0009674074062786531
0.0015648911175958347
1.6276014322247647
0.01563767156767426
-1.5962681072487612
2.847499847484869
0.011098830222181277
-2.8251596338668605
3.3080045130955114
0.008673027270560851
-3.2906486809442868
3.2496929503140564
0.005314676520356443
-3.239109168996947
2.941466331732954
0.004136531104450114
-2.933193403256155
2.516381959980208
0.00199419465570827
-2.512438632769772
2.0145766073837876
0.0008640811101940926
-2.012856081062637
1.4131425931336707
0.0015257782324624714
-1.410072949835012
0.8352472688420676
0.0008441635000053793
-0.8335565881352522
-0.599674927219894
-0.001408936019288376
0.5968210107930645
-1.0143123013476725
-0.0010828211889020167
1.012148990357673
-1.450603624987707
0.00010735855175880715
1.4509871066147753
-1.8277868722325366
-0.002808934783388395
1.8221300844306825
-2.179376119871449
-0.004059507897181902
2.1711899734364124
-2.5141012756866985
-0.006513655669550644
2.501130497214035
-2.841839117343625
-0.011268434125668136
2.8191950199870917
-2.851085003676417
-0.0232630438877095
2.804502963404957
-2.113358528007666
-0.01287738418977824
2.0873715006055136
0.0018786828331940342
0.00043043799814768136
-0.0010931381293630693
2.1121421876996465
0.01209427732101176
-2.087943746792007
2.852880148770055
0.02249219145596726
-2.807962976687122
2.846908507603075
0.010588459452264942
-2.8256631629665208
2.5151531206029176
0.008026568699278869
-2.49901801132728
2.1749151807816816
0.0037050424034532625
-2.1675481410493376
1.82822664341802
0.002547990417951951
-1.8230983487228514
1.4522266112435318
6.386421591741964e-05
-1.4521576711558737
1.0109228341934795
0.0004241284987074323
-1.0100744965347985
0.6030582303392293
0.0024343718905583955
-0.598086264621088
-0.31282623729566694
-0.00018929975340142846
0.312449049368297
-0.5293699027934053
-0.0010198636264249217
0.5272595915703278
-0.7560104958392913
-0.0007802935688232537
0.7544070808799006
-0.9575357221583545
-0.0008495921501889825
0.9558204242821375
-1.1506290585530223
-0.003066287095862208
1.144455357822153
-1.3667735470517073
-0.004105568921659142
1.3586119080646313
-1.6293747443669417
-0.013685740872460883
1.6021198000489676
-2.1157670387801772
-0.014251254415285075
2.087010832172382
-1.6510183950085775
-0.13962141609954415
1.372374834943912
0.0007132222599466331
-0.0008525790035491809
-0.0025055459955183323
1.6535395667451667
0.13992823679654975
-1.3742888138040144
2.1170603638711327
0.014312390903796768
-2.0881059250386897
1.6266095237333502
0.014369554439326748
-1.597870338398934
1.366919326104835
0.003444629142904887
-1.3600571737770224
1.1498423563025426
0.002762420739600202
-1.1443232666242693
0.9639761140279006
0.002211825511039933
-0.9594663559910259
0.7610006506565696
0.0009994487063522683
-0.759026983358126
0.5290046427799098
8.410479495069012e-05
-0.5289063824002369
0.3090706166494783
-0.0002776971105049597
-0.30966833516686165
-0.0022944262018427253
0.0005734904771088623
0.003457438066106988
-0.0016714473495085258
-0.0007949181817821227
-4.0125465602613986e-05
-0.002303796474734554
-0.0008026584691833705
0.0006548156015924178
0.00043929457388003357
0.0007449759359587915
0.0011543704822543077
-0.0021128647058503702
-0.0002550591962062754
0.0016361131747544277
0.001132431127189193
0.0001413197060173843
-0.0007738529784546699
0.001722281322145136
-0.00044095121847931296
-0.002605182078696089
0.0009188967596855946
0.00016270645937765948
-0.0005667380064551253
-0.0010428857822262216
-0.000794181087258039
-0.0005591650260612369
0.0015759677153255325
0.00033988430732279085
-0.0007988039105839562
-0.0013382661163632292
0.00019753028027480468
0.001811368128983304
-0.002797546076180879
-0.00026201800937997177
0.0022723865586158354
-0.003904069624695694
-0.0009189078737108503
0.001987157967960229
0.0004138659860473126
-0.00012910486475448124
-0.0006760291798855178
0.0019782298968493706
0.0003971131518483162
-0.0011262669850111706
-0.0004559771423373604
-0.00034612887611729093
-0.0002506509899831144
1.225263622472994e-05
0.00046125623157422524
0.0009104324908548733
-0.0013485402341757435
0.0004077003468410112
0.002129023567249533
0.00036724898927786853
0.0003807474477071082
0.00042300384666305035
0.3140316209610319
0.0006585006376553793
-0.3126501091028331
0.524514808330423
0.0008382715823245235
-0.5227626181913365
0.7612201915289916
0.000809728073363658
-0.7595249347650679
0.9615013771508529
0.0014561225289071444
-0.9584934453341702
1.1520459036182729
0.002482392512320075
-1.1470505957513524
1.366984852917085
0.004889295894827228
-1.3570518400956644
1.624093833270308
0.013806227390887216
-1.5965181255342031
2.113145461087697
0.013730582264543045
-2.085410288127605
1.6547266177876736
0.13989068482260336
-1.3754909425697406
0.00028366827609715983
-0.0008354911115020514
-0.0020335406552476343
-1.6509386164761963
-0.13891936813888606
1.3738041030374006
-2.1129673426694353
-0.013783870639599627
2.085205662649969
-1.624149707471588
-0.013464573428791482
1.5973386327441403
-1.3637365235972538
-0.004034815954582882
1.355685837646888
-1.1514783339753194
-0.0031434555749001447
1.1451179949799553
-0.9608118828236911
-0.0015884223485045368
0.957566686993232
-0.7596098776157305
-0.00132329957523325
0.756946077952307
-0.5284177440644271
-0.0014030054571776418
0.525553427360137
-0.3102415322955494
0.0003731891465577064
0.3110835304923967
0.597771584187285
0.001002045813947916
-0.5956756522245996
1.0096230226481566
0.0013125331352057401
-1.0069038776564412
1.45410622617419
0.0018055713298963383
-1.4504191612868453
1.8257190987969807
0.001825653831474483
-1.8220796353307378
2.1769450327665254
0.004325586825871142
-2.16822366604174
2.513808509469527
0.006211206895386567
-2.501383585477015
2.8454722496535396
0.011312215243378887
-2.822698058123933
2.854784903982363
0.023169842213974334
-2.808417817330337
2.116754759572359
0.01226168530411087
-2.0921286547636555
-0.0006967710178287234
0.0018581644362711813
0.004558766078844201
-2.112687929009553
-0.013967277147457935
2.0845564110277337
-2.8515106049817405
-0.021892612907322473
2.807937642424804
-2.842537398904824
-0.01002928178604634
2.822535007091574
-2.5122894800697395
-0.006599399428523611
2.4991067988758005
-2.176240456812593
-0.00322462586882466
2.169800884765209
-1.8283914964231371
-0.0016457115416415036
1.8250549453205167
-1.4563269024365582
-0.0009299578650825424
1.4545242826552567
-1.0127868829567888
-0.000875840049047838
1.0110814398121875
-0.5989272668175545
-0.001552095696752076
0.5958050193839881
0.8331634913301968
0.0011247517868469004
-0.8308896324597299
1.4113582384234178
0.0014240026066545397
-1.4084785679660854
2.0147941855320823
0.0014805067075940315
-2.0118123759384616
2.5156781331643288
0.00228009565762477
-2.5111514699638064
2.937921977139922
0.003786556306295097
-2.9304105328301375
3.256589528595214
0.0058031084554386325
-3.245010116344929
3.307715113274753
0.008003665530850412
-3.2917594867685693
2.844906877100584
0.009168217515252763
-2.826623420987744
1.628578286850825
0.01491433289993438
-1.5987345787580125
0.001909865670313593
-0.00014644168550148606
-0.0022246808948693797
-1.6273531287351943
-0.014484999961496214
1.5983885546920646
-2.8474437466320524
-0.01084591998369433
2.825708087255407
-3.308931841987942
-0.008306295656439033
3.2923144684918952
-3.254450963331692
-0.006519129430671455
3.2412256411698763
-2.9400700285677885
-0.004490036209972459
2.9309843784485565
-2.5167015186088975
-0.003558070866347407
2.509465242663282
-2.0148592658442794
-0.0009853417359408922
2.012982549076696
-1.4148047632806993
-0.0010923087611445226
1.4126047398312949
-0.8329540667800757
-0.0008720678506506374
0.8311594854803843
0.997604539981694
0.0018027967380476184
-0.9939623132049746
1.6841071062444826
0.002223795494501246
-1.6795761019420752
2.3900238616515708
0.0016788884422567207
-2.386658804905892
2.9417075058372575
0.002445746875309851
-2.9368071848257387
3.341447333645192
0.00402401326209656
-3.3334399191990087
3.494809828018333
0.005461788772663567
-3.4838765435488313
3.2500705874554114
0.004913134889648063
-3.240283694201935
2.515070737168571
0.0076071109833719674
-2.499790178866533
1.3690345499453542
0.004528796092927223
-1.3598742279791622
0.003028682171134278
4.152921246713959e-05
-0.002976209554617526
-1.369836706924616
-0.003937156923711882
1.3619158166857233
-2.5163096971664345
-0.007270177731697913
2.501781926017429
-3.254473664899706
-0.006619501318709808
3.241211315818873
-3.4922140897670033
-0.004501445735513698
3.483168658325667
-3.3430147765757283
-0.003888263456246932
3.3351676986840175
-2.9477029434710857
-0.0020294934984121937
2.9437038110954745
-2.392293325790888
-0.0018771831437334185
2.3885502406192245
-1.6831055819875473
-0.0016019881568354322
1.6798241796477669
-0.9973814653676527
-0.0028899069693579804
0.9913218363726628
1.0618130565235333
0.0006747145234839991
-1.0604830121774285
1.7895050571059983
0.0008990908390842378
-1.787703226738813
2.5229747308403603
0.001338720932835713
-2.5203386645007413
3.059198524846579
0.002672787228220841
-3.053817499512661
3.3577262143553526
0.002099263005220564
-3.353617102937278
3.3363854147901293
0.002098092343658209
-3.3323389626566495
2.943090731438133
0.005077298163087107
-2.9328635999518156
2.175392232442391
0.002500052152754506
-2.1705389531962282
1.1505547449014557
0.003567306001059478
-1.1433902580683935
0.00278630919092393
-0.000479422416901798
-0.0038016157541278517
-1.1523698993878497
-0.0025487080220045755
1.147299709282379
-2.1753428362826526
-0.0041152176236209925
2.1671943732562795
-2.9448423793019174
-0.004282712980057113
2.9363008917880506
-3.3413112390862807
-0.003307613182187197
3.3345768364142714
-3.359550830546141
-0.003510053209538455
3.352395874037029
-3.0555759531798685
-0.0032221557066804962
3.0490516669633507
-2.520587365553183
-0.0009652526268837391
2.518688225170081
-1.7921256138561148
-0.00019407060608500615
1.7918294318669723
-1.061608388271452
-0.0009872192240436561
1.0596398286552358
1.0099196830233268
0.0014355647363117896
-1.0069472401228268
1.7152253500207735
0.001373611685266951
-1.7124525163562794
2.398323146815528
0.0008143041741277557
-2.396728232866735
2.857010022180475
0.0016075282801466528
-2.8537813902621565
3.057910707859264
0.0028312946669757366
-3.0521799278030812
2.942115053647285
0.0013449948382913135
-2.9395227470740792
2.5171241172101873
0.0031722567764518317
-2.510706678385759
1.8285968015625258
0.002753953551291488
-1.8230109179348801
0.9585521877270367
0.0014747188288311008
-0.9556212313000287
1.393134516547434e-05
0.0002950331854663091
0.0005584449008892989
-0.960278269565606
-0.0020678847631643293
0.9561142054553784
-1.8284850693253247
-0.0018039755359495757
1.8250254974118434
-2.5176459826925566
-0.00270056172121258
2.5122397649156483
-2.9393047269259114
-0.0027224171044508694
2.93371706536891
-3.055119954418842
-0.0015868759273871547
3.05189125754805
-2.8570615525104586
-0.0017666519606791553
2.8535278272265714
-2.3974117707484766
-0.0009946235140887438
2.395472352165598
-1.7199018335022629
-0.001848346451879479
1.7161214229608959
-1.0135947140042845
-0.00017969296823139302
1.013326258035704
0.8568424103068537
0.001326896217506146
-0.8540974785209983
1.4608246007846901
0.0021166330770938657
-1.4564202360488707
2.0357105801558646
0.0002243727612949442
-2.035294129345857
2.393592246065964
0.0010613752383505926
-2.391498515604326
2.5250326083696564
0.0014935683248040732
-2.522018101033609
2.3897560733785213
0.0029057795436528977
-2.383806107649434
2.0150722722319188
0.0015619661462551448
-2.011891646354343
1.4575695445091696
0.002340901490242686
-1.4527465872124594
0.7613812385152414
-0.0006563397055288078
-0.7628064516848099
-0.0007906105602160096
-0.0003762233300221851
7.113278115866706e-06
-0.7600776904509985
-0.0007277290260390146
0.7586564730409009
-1.4529481112476788
-0.0009735358216858003
1.4510910005883488
-2.013817686434777
-0.0016809923163236817
2.0104636199466768
-2.3898479384770326
-0.0027364898232917767
2.3842383086412156
-2.522206738649402
-0.0015034669140732149
2.519133729407258
-2.3994802789165988
-0.0013233151767053641
2.3968092341128795
-2.0386187848944246
-0.0014383979732883745
2.03573233523457
-1.4609113879814686
-0.0011725563035724917
1.4585172047882224
-0.8527621772609564
-0.001513095151494781
0.8497287961181428
0.592166938669834
0.0014317037312139291
-0.5892482696508523
1.041079733575316
0.00034219112421851605
-1.0404610102486913
1.4583127901023545
0.0022642921612714417
-1.4536707733968797
1.7171391825468163
0.0009156089618045371
-1.7152855479653226
1.7934218229929684
0.0012713946889562067
-1.7908614891639445
1.6822311342293688
0.0013220899672887754
-1.6795778529303789
1.414861813907919
0.002054788052191725
-1.4106562607485102
1.011880904687132
0.001503880961536197
-1.0087634576993878
0.5277891124005691
0.0012884069183201063
-0.5250624775853794
-0.001345299111562781
-0.00019307013462821487
0.0009767635419848375
-0.5283242545683606
-0.00025284943149017636
0.5279117485188181
-1.010858444367841
-0.00039686863783572335
1.0101364044694492
-1.4145284972892114
-0.0017762658717401791
1.4109016390029865
-1.6842609493414784
-0.00017064983512682375
1.6840037024649064
-1.7916798677733823
-0.001221388684825797
1.7893009930667176
-1.7139093937184953
-0.0012657296119868988
1.7114444504204585
-1.4580734832143207
-0.0005141986202943372
1.4571837866096757
-1.0396774693672342
-0.0010001891178035294
1.0377150894005354
-0.5944828801943913
0.0003679667120195518
0.5953322734035282
0.32402903489855817
0.0003874594403896481
-0.32327577114483574
0.5936789481820597
0.0006597235587832984
-0.5924897652221262
0.8503661253707833
0.00023950542527018115
-0.8500258207313891
1.0154300752546987
0.0021848280011909083
-1.0109447789254773
1.0621241481421748
0.0001358286062895786
-1.0619056923678727
0.995232216992008
0.0021882610199099872
-0.9907448736630613
0.8374931750186079
0.0013177147920941934
-0.8347372034331784
0.597566072257905
-0.0005760998101322912
-0.5987596273989766
0.31234981575471465
0.0014452594150498044
-0.30930312433883955
-0.0015839936659176601
-0.00032312142138835043
0.0009319503315055044
-0.312584708986833
0.00022194761913851835
0.313122660118097
-0.597299808925527
-0.0010405022294435184
0.5952103494983021
-0.838823706837502
-0.0012760733279719716
0.8361752931141382
-0.9965492311912385
-0.0016852570006449241
0.9931438292896928
-1.063633307652708
-0.0018613427610034705
1.0599109150916775
-1.0164764139217368
-0.0017153903818325489
1.013064724196738
-0.8542055355555931
-0.0005677854051100439
0.8531364032332931
-0.5953996217053827
-0.0006357964598464605
0.5942166395170716
-0.3199692058344681
-0.0013994812857163197
0.3171972583547813
SCALARS disp_x float
LOOKUP_TABLE default
0.0
0.0
0.0
0.0
0.0
0.0
0.0
0.0
0.0
0.0
0.0
0.0
0.0
0.0
0.0
0.0
0.0
0.0
0.0
0.0
0.0
0.0
0.0
0.0
0.0
0.0
0.0
0.0
0.0
0.0
0.0
0.0
0.0
0.0
0.0
0.0
0.0
0.0
0.0
0.0
0.0
0.0
0.0
0.0
0.0
0.0
0.0
0.0
0.0
0.0
0.0
0.0
0.0
0.0
0.0
0.0
0.0
0.0
0.0
0.0
0.0
0.0
0.0
0.0
0.0
0.0
0.0
0.0
0.0
0.0
0.0
0.0
0.0
0.0
0.0
0.0
0.0
0.0
0.0
0.0
0.0
0.0
0.0
0.0
0.0
0.0
0.0
0.0
0.0
0.0
0.0
0.0
0.0
0.0
0.0
0.0
0.0
0.0
0.0
0.0
0.0
0.0
0.0
0.0
0.0
0.0
0.0
0.0
0.0
0.0
0.0
0.0
0.0
0.0
0.0
0.0
0.0
0.0
0.0
0.0
0.0
0.0
0.0
0.0
0.0
0.0
0.0
0.0
0.0
0.0
0.0
0.0
0.0
0.0
0.0
0.0
0.0
0.0
0.0
0.0
0.0
0.0
0.0
0.0
0.0
0.0
0.0
0.0
0.0
0.0
0.0
0.0
0.0
0.0
0.0
0.0
0.0
0.0
0.0
0.0
0.0
0.0
0.0
0.0
0.0
0.0
0.0
0.0
0.0
0.0
0.0
0.0
-0.19219620184575675
-0.5914823264376965
-1.2970792642221263
-2.199415898784965
-3.198289485913938
-4.1817225484242115
-5.052142635133439
-5.730536831555586
-6.160166317595876
-6.3071421606924805
-6.160166317216272
-5.730536830764815
-5.052142634053579
-4.181722547172701
-3.1982894846816614
-2.199415897455275
-1.2970792627712127
-0.591482325061775
-0.19219619982198688
-0.47335942270515263
-1.262743471882528
-2.605169677520408
-4.288028141310268
-6.149244204492724
-7.985659450080121
-9.615821273746455
-10.889136892430608
-11.696756041586525
-11.973158208680196
-11.696756040898764
-10.889136891143377
-9.615821271946023
-7.985659447869751
-6.149244201963028
-4.288028138675296
-2.6051696750256172
-1.26274346976183
-0.4733594202646441
-0.7229498299569188
-1.8287032926271696
-3.6876290746505784
-6.001674728519275
-8.574779791324126
-11.131224880452729
-13.414978086262673
-15.206279309496162
-16.345228047387323
-16.735520227158418
-16.345228046502957
-15.206279307792279
-13.414978083814265
-11.131224877438644
-8.574779787910959
-6.001674725033008
-3.6876290714847233
-1.8287032900750693
-0.7229498272820772
-0.8871037145874116
-2.1833787244279033
-4.372416164416018
-7.113100243767471
-10.211166501534652
-13.34344174479009
-16.178602261103013
-18.423808297616684
-19.857599490885445
-20.35051673559662
-19.85759948984836
-18.423808295547907
-16.178602258191532
-13.343441741277932
-10.211166497809034
-7.113100240061221
-4.372416160946363
-2.1833787216381717
-0.8871037117542427
-0.9460118352768527
-2.28882996373945
-4.576897976073646
-7.47404109959664
-10.833985974930215
-14.355099989418118
-17.639946234457437
-20.288462884241543
-22.003598027669508
-22.59209822213455
-22.003598026428584
-20.288462881975484
-17.639946231412413
-14.355099985864879
-10.833985971156883
-7.474041095909921
-4.57689797271269
-2.2888299610782825
-0.9460118326223953
-0.8997070968669878
-2.151202626536149
-4.3021231576020815
-7.054020825240759
-10.324600965563086
-13.924795954979624
-17.518699674393126
-20.550005704416844
-22.551757030782085
-23.258740686687208
-22.55175702958392
-20.550005702182435
-17.518699671481585
-13.92479595167774
-10.324600962108871
-7.054020821923304
-4.3021231546530405
-2.1512026242964493
-0.8997070945966652
-0.7608375019611131
-1.8036983613522806
-3.608025499183769
-5.934344770176817
-8.746383545481118
-11.966295306811611
-15.49282914320653
-18.90165286990399
-21.267612098684086
-22.12221166762943
-21.267612097754448
-18.90165286810821
-15.492829140745243
-11.966295304015079
-8.746383542623265
-5.93434476755353
-3.6080254968778798
-1.8036983595982183
-0.7608375002119173
-0.5489568464268357
-1.2936807724820043
-2.587971237810027
-4.264242390082257
-6.3129883429132105
-8.710817329065833
-11.49535780085549
-14.740134291968802
-17.85657770598615
-18.822236811466134
-17.856577705514205
-14.740134290907184
-11.495357799149353
-8.710817326997716
-6.312988340833101
-4.264242388196017
-2.5879712361820717
-1.2936807712710536
-0.5489568452773894
-0.28712333818338753
-0.6742304328739915
-1.3487063977987075
-2.224310593491654
-3.2994297711635436
-4.575968566255956
-6.089682087414653
-7.991895319552032
-10.722095589822473
-13.581869225964532
-10.722095589589225
-7.991895318878585
-6.08968208648817
-4.57596856512259
-3.2994297699535737
-2.2243105923667916
-1.3487063968547248
-0.6742304321706075
-0.2871233375398659
-4.562843133607025e-09
-4.071112459346353e-09
-5.197972152720989e-09
-6.0112926038665266e-09
-6.895502829141755e-09
-7.642766505863335e-09
-8.313609552464655e-09
-8.939647051078677e-09
-9.31959603980239e-09
-9.30332880881679e-09
-9.063665286287152e-09
-8.646248090751768e-09
-8.09532722079032e-09
-7.417272372445689e-09
-6.591618869203229e-09
-5.662904718793298e-09
-4.8573138641979895e-09
-3.795085775646445e-09
-4.253677527170645e-09
0.2871233291106963
0.674230424822672
1.3487063875710563
2.224310581725182
3.299429757668028
4.575968551281994
6.089682071192976
7.991895302412881
10.72209557211493
13.58186920814661
10.722095571923695
7.991895301861125
6.089682070579366
4.575968550618873
3.299429757069388
2.22431058125888
1.3487063873262297
0.6742304247946378
0.28712332923709805
0.5489568375171178
1.2936807647935877
2.587971228089218
4.2642423789997395
6.312988330322012
8.710817315133697
11.495357785910851
14.740134276561232
17.856577690268512
18.822236795545958
17.856577689479618
14.740134275192794
11.495357784322412
8.710817313465638
6.3129883287685296
4.264242377759567
2.5879712272156206
1.2936807643115003
0.5489568373537708
0.7608374934364897
1.8036983541914162
3.608025490274402
5.934344760178163
8.746383534306448
11.966295294700771
15.492829130371629
18.901652856703027
21.26761208532969
22.122211654096745
21.2676120840988
18.901652854627397
15.492829127914797
11.966295292049878
8.746383531813056
5.934344758133351
3.6080254887328005
1.8036983531325401
0.7608374926948148
0.8997070887606857
2.15120261989584
4.302123149631656
7.054020816590905
10.324600956229688
13.92479594518137
17.518699664266745
20.55000569397984
22.5517570201118
23.2587406759321
22.55175701876582
20.55000569148454
17.518699661153345
13.924795941829101
10.324600952945945
7.0540208137610865
4.302123147441419
2.151202618503501
0.899707087476205
0.9460118277009713
2.288829957619671
4.576897969078331
7.4740410925296725
10.833985967704821
14.355099982169788
17.639946227227174
20.288462876928783
22.00359802021508
22.592098214647404
22.003598018943766
20.288462874472632
17.639946223936203
14.355099978498139
10.83398596403201
7.474041089304418
4.576897966548216
2.2888299559480374
0.9460118260577782
0.8871037076128727
2.1833787190383425
4.372416158592095
7.113100238325358
10.21116649645598
13.343441740100866
16.178602256717895
18.423808293398736
19.8575994867388
20.35051673145894
19.857599485629997
18.423808291255583
16.178602253736862
13.343441736647767
10.211166492946283
7.1131002351352075
4.37241615585485
2.1833787170300867
0.8871037055818854
0.7229498237367271
1.8287032882329806
3.687629070227248
6.001674724777552
8.574779788333947
11.131224878201436
13.414978084483076
15.206279308049236
16.345228046077267
16.73552022591926
16.345228045266257
15.206279306402246
13.414978082162568
11.131224875445934
8.57477978534382
6.001674721740857
3.687629067296257
1.8287032858267258
0.7229498213492097
0.47335941732221526
1.2627434683776475
2.605169674498545
4.288028139373897
6.1492442033767745
7.985659449733143
9.615821273897515
10.88913689294877
11.696756042322725
11.973158209485312
11.696756041772181
10.889136891859435
9.615821272368622
7.985659447827434
6.14924420112379
4.288028136809342
2.6051696718300037
1.2627434659817174
0.47335941488806765
0.192196197655232
0.5914823242313965
1.297079262766624
2.1994158982440166
3.1982894860080227
4.181722548970904
5.052142636037839
5.730536832717584
6.1601663189702025
6.307142162126713
6.16016631864059
5.730536832135589
5.05214263519624
4.181722547947798
3.198289484743647
2.199415896729038
1.2970792610092223
0.5914823226587068
0.19219619561254744
0.1913422422135389
0.5901726347933941
1.2953976621589767
2.1973855774508344
3.1959033737218863
4.178968947984718
5.049028066175977
5.727106855417792
6.1565174218090934
6.303413933865556
6.1565174213881875
5.727106854596545
5.049028065056297
4.1789689467542255
3.1959033724679573
2.197385576161397
1.2953976607648623
0.5901726334563268
0.19134224023265675
0.4719684503971705
1.2603843678987
2.6020188901926127
4.284113111553601
6.144524860392265
7.980081289723712
9.609371718396647
10.881905012209154
11.68896853486742
11.96517212978145
11.688968534099342
10.881905010827506
9.609371716562665
7.980081287519434
6.144524857813385
4.284113109019778
2.6020188877583443
1.2603843658632086
0.47196844801969273
0.7211789702612394
1.8255460796511607
3.6832553356474387
5.996079566878699
8.567849310182668
11.122808546886999
13.404992606433657
15.194825694587582
16.332706226089993
16.72258311271467
16.33270622512496
15.194825692791847
13.404992603938243
11.122808543832077
8.567849306788494
5.996079563503452
3.6832553325151083
1.8255460772018555
0.7211789676833922
0.8850728250610652
2.179655999416832
4.367110066527207
7.10612043423235
10.202262008655975
13.33229105943978
16.164922964793476
18.407636925650685
19.8394764359954
20.331750693831268
19.839476434873085
18.407636923502686
16.164922961808493
13.33229105590734
10.202262004960282
7.106120430626959
4.367110063106437
2.1796559967307685
0.8850728223493728
0.9438592013821092
2.284811039692006
4.5710339187365285
7.466101847883055
10.823546766132122
14.341508873510765
17.62259255142039
20.266909001038677
21.978702770749198
22.565352714143945
21.978702769441483
20.2669089986907
17.622592548276995
14.341508869948019
10.823546762383634
7.466101844283877
4.571033915457784
2.2848110371360164
0.9438591988307224
0.897604002135907
2.147224237824869
4.296188567420911
7.045763520949897
10.313281757158103
13.909570955994953
17.497899763406476
20.52277015167011
22.517240048027254
23.22351852279909
22.517240046746362
20.522770149338104
17.49789976041462
13.90957095263049
10.313281753716089
7.045763517698155
4.296188564559014
2.147224235621471
0.8976039998947907
0.7589867654308835
1.8001581966544085
3.6026475521779404
5.926604281341058
8.73545097883096
11.950234838417389
15.470948387144988
18.867415140686557
21.223182229936928
22.05975178548251
21.223182228860846
18.86741513878402
15.470948384583556
11.95023483553676
8.735450975962436
5.926604278728588
3.6026475499362127
1.8001581949837087
0.7589867636583554
0.5475680375477432
1.2910063752647443
2.5838240154163348
4.258176945996384
6.303774428564441
8.697536216422272
11.470773812594986
14.7120637240365
17.780370524891147
18.771985662871288
17.78037052423495
14.712063722780618
11.470773810759683
8.697536214240133
6.303774426426719
4.258176944123212
2.5838240138607924
1.2910063741468134
0.547568036451548
0.28637759306010313
0.6727810953220416
1.3464566005823508
2.220853172309916
3.294458788713488
4.56646458312534
6.079230744275666
7.943220237648951
10.718368771608764
13.177938199993621
10.718368771218122
7.943220236771986
6.079230743179806
4.566464581872347
3.294458787423002
2.2208531711716364
1.3464565996541351
0.6727810947635291
0.28637759250252487
4.532779034702819e-09
4.033026484934726e-09
5.113705645644469e-09
5.951301745181856e-09
6.829792661959828e-09
7.552457407942658e-09
8.1979152087042e-09
8.859461454530221e-09
9.139723910179343e-09
9.072358348921283e-09
8.754963055954968e-09
8.314958989546792e-09
7.761248354840581e-09
7.169463030858386e-09
6.427905177966046e-09
5.5588130692151545e-09
4.790461223224982e-09
3.7925136538862435e-09
4.3126706717207425e-09
-0.28637758401088753
-0.6727810874198994
-1.3464565904705794
-2.2208531606714224
-3.294458775356482
-4.566464568305579
-6.079230728281008
-7.943220220723337
-10.718368754205517
-13.177938182568804
-10.718368754286182
-7.943220220556894
-6.079230727900855
-4.566464567854266
-3.294458774886657
-2.2208531602567883
-1.3464565902286025
-0.6727810873813337
-0.28637758404664954
-0.5475680286962645
-1.291006367694676
-2.583824005822223
-4.25817693503588
-6.303774416089339
-8.697536202631408
-11.470773797854884
-14.712063708877215
-17.78037050953137
-18.771985647370013
-17.780370508955816
-14.712063707872293
-11.470773796561884
-8.697536201193262
-6.303774414684892
-4.258176933854971
-2.5838240049443533
-1.2910063671921008
-0.5475680284364958
-0.7589867569172645
-1.8001581895764664
-3.6026475433487226
-5.926604271434165
-8.735450967774304
-11.950234826454542
-15.47094837453218
-18.867415127746845
-21.223182216942075
-22.05975177245862
-21.22318221588357
-18.867415126120143
-15.470948372331488
-11.950234824032343
-8.73545096543198
-5.926604269464031
-3.6026475417835933
-1.8001581884902067
-0.7589867561192238
-0.8976039941231753
-2.147224231192813
-4.296188559499587
-7.045763512407823
-10.313281747931047
-13.909570946349863
-17.49789975345194
-20.52277014154398
-22.517240037835364
-23.223518512572035
-22.517240036638853
-20.522770139441807
-17.497899750622206
-13.909570943160134
-10.313281744821786
-7.045763509642602
-4.296188557331729
-2.1472242297325703
-0.8976039927393595
-0.9438591938482586
-2.284811033611699
-4.57103391177384
-7.466101840881259
-10.823546758998889
-14.341508866414095
-17.622592544367812
-20.26690899406233
-21.978702763723504
-22.565352707115395
-21.978702762561667
-20.266908991803327
-17.62259254129468
-14.341508862880861
-10.823546755451241
-7.466101837736931
-4.571033909275754
-2.284811031847748
-0.9438591921693286
-0.88507281816727
-2.179655994107583
-4.367110060677546
-7.106120428853126
-10.202262003664611
-13.332291054860082
-16.164922960585614
-18.407636921729193
-19.839476432228228
-20.33175069013671
-19.839476431174198
-18.407636919708168
-16.164922957744565
-13.332291051516808
-10.20226200023211
-7.106120425697458
-4.3671100579733375
-2.179655991987958
-0.8850728160660871
-0.7211789641526863
-1.82554607531386
-3.6832553312297054
-5.996079563208674
-8.56784930727312
-11.122808544689118
-13.404992604810536
-15.194825693352914
-16.33270622509376
-16.722583111896867
-16.332706224312744
-15.194825691783166
-13.404992602573527
-11.122808541992807
-8.567849304293237
-5.996079560172979
-3.6832553282719536
-1.8255460728659554
-0.7211789617100643
-0.47196844515154923
-1.2603843644094235
-2.6020188871972416
-4.284113109633639
-6.144524859317625
-7.980081289416163
-9.609371718668497
-10.881905012874732
-11.688968535839756
-11.96517213096058
-11.688968535273496
-10.881905011820427
-9.609371717199847
-7.980081287515241
-6.144524857048013
-4.284113107098124
-2.6020188845103953
-1.2603843620136872
-0.47196844267557364
-0.1913422381528728
-0.590172632601124
-1.2953976606881001
-2.1973855769383723
-3.195903373841576
-4.178968948561883
-5.04902806712957
-5.727106856666708
-6.156517423310504
-6.303413935472809
-6.156517422955682
-5.7271068560752045
-5.0490280663383285
-4.178968947511458
-3.195903372538956
-2.1973855753873264
-1.2953976589693494
-0.5901726310146751
-0.19134223605084885
0.0
0.0
0.0
0.0
0.0
0.0
0.0
0.0
0.0
0.0
0.0
0.0
0.0
0.0
0.0
0.0
0.0
0.0
0.0
0.0
0.0
0.0
0.0
0.0
0.0
0.0
0.0
0.0
0.0
0.0
0.0
0.0
0.0
0.0
0.0
0.0
0.0
0.0
0.0
0.0
0.0
0.0
0.0
0.0
0.0
0.0
0.0
0.0
0.0
0.0
0.0
0.0
0.0
0.0
0.0
0.0
0.0
0.0
0.0
0.0
0.0
0.0
0.0
0.0
0.0
0.0
0.0
0.0
0.0
0.0
0.0
0.0
0.0
0.0
0.0
0.0
0.0
0.0
0.0
0.0
0.0
0.0
0.0
0.0
0.0
0.0
0.0
0.0
0.0
0.0
0.0
0.0
0.0
0.0
0.0
0.0
0.0
0.0
0.0
0.0
0.0
0.0
0.0
0.0
0.0
0.0
0.0
0.0
0.0
0.0
0.0
0.0
0.0
0.0
0.0
0.0
0.0
0.0
0.0
0.0
0.0
0.0
0.0
0.0
0.0
0.0
0.0
0.0
0.0
0.0
0.0
0.0
0.0
0.0
0.0
0.0
0.0
0.0
0.0
0.0
0.0
0.0
0.0
0.0
0.0
0.0
0.0
0.0
0.0
0.0
0.0
0.0
0.0
0.0
0.0
0.0
0.0
0.0
0.0
0.0
0.0
0.0
0.0
0.0
0.0
0.0
0.0
0.0
0.0
0.0
0.0
0.0
0.0
0.0
0.0
0.0
0.0
0.0
0.0
0.0
0.0
0.0
0.0
0.0
0.0
0.0
0.0
0.0
0.0
0.0
0.0
0.0
0.0
0.0
0.0
0.0
0.0
0.0
0.0
0.0
0.0
0.0
0.0
0.0
0.0
0.0
0.0
0.0
0.0
0.0
0.0
0.0
0.0
0.0
0.0
0.0
0.0
0.0
0.0
0.0
0.0
0.0
0.0
0.0
0.0
0.0
0.0
0.0
-0.09650706666204317
-0.00042678346273489047
0.09565340175022179
-0.2962737743137775
-0.0006547823812051655
0.2949641778423524
-0.6490904015157607
-0.0008407417568718409
0.647408888415437
-1.1002422960081344
-0.0010151304277785547
1.0982120200561107
-1.5996472203928749
-0.0011930521303385121
1.5972611141426598
-2.0913440308339655
-0.0013768207687530477
2.088590399559196
-2.5265498719451376
-0.0015573416277598672
2.5234352172973122
-2.8657555974046995
-0.0017150807488323851
2.862325481451949
-3.0805819786317676
-0.0018244400223547666
3.0769330984746746
-3.154074912103801
-0.0018646031646567577
3.1503459367404534
-3.080581978452421
-0.001824440043077075
3.0769330982540186
-2.8657555970169506
-0.001715080764095733
2.8623254810338485
-2.526549871415854
-0.0015573416475865704
2.523435216728063
-2.091344030203027
-0.001376820758179319
2.088590398949358
-1.599647219782055
-0.0011930521412216073
1.5972611135102326
-1.100242295333105
-0.0010151304076531334
1.0982120194212373
-0.6490904007764025
-0.0008407417283277175
0.6474088877329516
-0.29627377361616886
-0.0006547823620961368
0.2949641771836211
-0.09650706564152481
-0.00042678344134226685
0.09565340077232774
-0.23719460100839804
-0.0006954158667458772
0.23580373401250165
-0.6320981162236483
-0.0011795109603370169
0.629739073749494
-1.3033890786838416
-0.0015753633891499167
1.3002383367389991
-2.1449056741237453
-0.0019575013835925934
2.140990664576063
-3.0755878313416365
-0.0023596621099875167
3.0708685021742035
-3.993901753657865
-0.0027890924249633774
3.988323574946059
-4.809110819003628
-0.0032247747466085676
4.802661267767151
-5.445899809448538
-0.003615894157430673
5.438668000618381
-5.8498092228611425
-0.003894171641613758
5.842021076231696
-5.988047959301754
-0.003991552367936885
5.980064155149178
-5.8498092225373215
-0.0038941716816028875
5.842021075827464
-5.445899808828793
-0.003615894205082524
5.438667999904066
-4.809110818111373
-0.003224774762810802
4.802661266841411
-3.9939017525512117
-0.0027890924218291584
3.9883235738456437
-3.0755878300895185
-0.0023596621350003687
3.070868500872478
-2.1449056727812454
-0.001957501332948025
2.1409906633350175
-1.3033890774216
-0.0015753633589849797
1.3002383355372586
-0.6320981151414988
-0.0011795109173679855
0.6297390727525894
-0.23719459977285517
-0.0006954158352451227
0.23580373284001596
-0.362166906600257
-0.0008853238457640193
0.3603962060047463
-0.9153452889250107
-0.0015785569972700305
0.9121881501901725
-1.8449269663918306
-0.0021868283857082085
1.8405532890800436
-3.0021094841767373
-0.0027975535463009215
2.9965143634796307
-4.28881346681664
-0.003465244944754402
4.281882979082267
-5.567254048521138
-0.004208150319880689
5.558837739554098
-6.709396916861835
-0.004992771418398166
6.699411390877972
-7.605326587573256
-0.005727033443335711
7.59387262654917
-8.175016048959657
-0.006259449522475612
8.162496454871006
-8.370246088789607
-0.006473897079194523
8.35730084114029
-8.1750160485378
-0.006259449562952959
8.162496454368489
-7.605326586744283
-0.0057270334892556
7.593872625628328
-6.709396915649511
-0.004992771441774629
6.699411389618706
-5.567254047024463
-0.004208150340411404
5.558837738016481
-4.2888134651057825
-0.003465244935271871
4.281882977390503
-3.002109482406189
-0.0027975534905787867
2.996514361820223
-1.8449269648008593
-0.0021868283689587317
1.84055328752243
-0.9153452876231047
-0.00157855694624213
0.9121881489911957
-0.3621669052391717
-0.0008853237974743454
0.3603962047405927
-0.4443302563761341
-0.0010153582307580878
0.44229949662946766
-1.0928529378178033
-0.0018613170857731674
1.0891302809162857
-2.187547641900434
-0.0026530090286850656
2.1822416038923107
-3.5581424920077835
-0.0034898920461589357
3.5511627015198526
-5.10742911917028
-0.004452216963744926
5.098524670498153
-6.673939672037602
-0.005575396787631011
6.662788906019884
-8.091999970366462
-0.006839684672898194
8.078320615631807
-9.215125650897665
-0.008084900208058379
9.19895547771886
-9.93245061210106
-0.009066646399840114
9.914319782990985
-10.179060544383425
-0.00936442995370526
10.160322716580517
-9.932450611603658
-0.009066646442369411
9.914319782408224
-9.215125649883179
-0.008084900247512423
9.1989554766252
-8.091999968929343
-0.006839684709644825
8.078320614121155
-6.673939670286911
-0.005575396797624355
6.662788904248949
-5.107429117300137
-0.004452216948931362
5.098524668657883
-3.5581424901293133
-0.0034898919953119042
3.5511626997423225
-2.1875476401539777
-0.00265300900451652
2.1822416021946456
-1.092852936396658
-0.0018613170337452702
1.0891302795986784
-0.44433025492996564
-0.0010153581698611374
0.4422994953049887
-0.47382328392065803
-0.0010762283605347963
0.4716707829365331
-1.1456798132517887
-0.0020094161575097327
1.1416609580042985
-2.2899532549845985
-0.002931992930529923
2.2840892512462334
-3.738885212046712
-0.003969594255022863
3.730946007738946
-5.419221061610393
-0.0052196254926663525
5.408781821421983
-7.180301900909494
-0.006795547260837311
7.166710799087631
-8.82347277288884
-0.008676580886253957
8.806119491874036
-10.14864562049342
-0.010779930920417699
10.1270871988762
-11.006994312245297
-0.012430256935139244
10.982125357798553
-11.301654714197737
-0.013435536688995204
11.274814211975235
-11.006994311641852
-0.01243025696861692
10.98212535712831
-10.14864561938105
-0.010779930961407351
10.127087197681977
-8.823472771391177
-0.008676580935670676
8.80611949027783
-7.180301899135398
-0.006795547265449918
7.166710797304197
-5.419221059717725
-0.005219625480023909
5.408781819554132
-3.738885210181795
-0.0039695942114465685
3.7309460059616386
-2.2899532532838807
-0.002931992889535363
2.2840892496277445
-1.1456798118948384
-0.002009416104786435
1.1416609567527154
-0.4738232825679427
-0.0010762283089218673
0.4716707816869994
-0.4506364053672292
-0.0010514638248577677
0.44853343596405376
-1.0768518362346629
-0.0019891517228069595
1.0728735114485426
-2.1526026244336
-0.0029672562564313997
2.1466680925153123
-3.5290076394849654
-0.004128622129250144
3.520750380343289
-5.164842968275958
-0.005659638571184045
5.153523707227662
-6.96560008577124
-0.007612249610325166
6.950375467900385
-8.763599501771548
-0.010401773189147836
8.742796833296396
-10.28072607008025
-0.013607369962381306
10.253506265584193
-11.283276677090997
-0.017314547765231815
11.248675022970964
-11.63705343627271
-0.017406420724448264
11.602140161817292
-11.283276676512598
-0.017314547806407385
11.248675022309945
-10.280726068987772
-0.01360737001122608
10.25350626439402
-8.763599500336102
-0.010401773229268406
8.742796831780716
-6.965600084136146
-0.007612249641699906
6.950375466202576
-5.16484296654603
-0.005659638565114902
5.15352370550998
-3.529007637809989
-0.004128622096330481
3.5207503787341046
-2.1526026229375077
-0.0029672562125515724
2.146668091106472
-1.0768518351053957
-0.0019891517050181955
1.0728735103553435
-0.45063640422552637
-0.001051463810143424
0.4485334348515482
-0.3810947912357407
-0.0009252927211220164
0.3792441680208351
-0.9029577652626601
-0.001770047635363826
0.8994176526584262
-1.805422408475518
-0.0026889160837663354
1.800044547611467
-2.969084581703868
-0.003870288441639222
2.9613440263536868
-4.37574916718572
-0.005465899290114633
4.364817179870428
-5.986792758737406
-0.008031845832728101
5.970729855775181
-7.751031501091674
-0.010933247004952228
7.729161519595383
-9.458020859758216
-0.017154095880064946
9.423729959584714
-10.643649797029573
-0.022044792188375982
10.599476417681785
-11.074945644758747
-0.03185123908043508
11.011549909098603
-10.643649796601663
-0.022044792261925492
10.599476417107283
-9.458020858887279
-0.0171540959332923
9.42372995860731
-7.751031499886285
-0.010933247054960564
7.72916151828982
-5.986792757360374
-0.008031845874812872
5.970729854314066
-4.375749165759655
-0.005465899295414058
4.364817178433784
-2.9690845803895547
-0.0038702884363701097
2.9613440250500136
-1.805422407306702
-0.002688916051919018
1.8000445465066597
-0.9029577643645144
-0.0017700475932348448
0.8994176518438876
-0.38109479036737764
-0.0009252927339250617
0.3792441671288262
-0.2749773754498848
-0.0006943505333822127
0.273588647489296
-0.6476735969969493
-0.0013371527765142946
0.6449992684259899
-1.2950774417276325
-0.002073640010252978
1.2909301761428518
-2.1336404132776368
-0.0030324019544630664
2.127575450338425
-3.1587069801649785
-0.004608072475617254
3.14949138553764
-4.358528484783173
-0.00663527933990209
4.345255325310347
-5.753530675554206
-0.012314146451288508
5.728913292043636
-7.375843414489017
-0.013939054395763964
7.347917847513947
-8.945139637766829
-0.038560042373198676
8.868245397665948
-9.422932382749318
-0.023437371654072774
9.375220168803459
-8.945139637576801
-0.03856004246531947
8.868245397291481
-7.3758434140065905
-0.013939054493174253
7.3479178468370305
-5.753530674733531
-0.012314146515800695
5.7289132910938125
-4.3585284837779446
-0.006635279397049545
4.345255324190975
-3.1587069791393985
-0.004608072504365232
3.1494913844544086
-2.13364041233126
-0.0030324019478662396
2.1275754494052035
-1.2950774408956254
-0.0020736399738678934
1.2909301753834836
-0.6476735963679191
-0.001337152729947847
0.6449992678897745
-0.274977374862093
-0.0006943505063277139
0.27358864695481844
-0.1438268079382588
-0.00037283555282622714
0.14308111823473837
-0.337564740800031
-0.0007246769856338879
0.33611539115516775
-0.6749467872611995
-0.001124764812944468
0.6726971904886544
-1.113026922096422
-0.0017291616651100407
1.1095688232738796
-1.6509217485875247
-0.002483297536760829
1.645954066687927
-2.290294317079039
-0.004761008754336217
2.2807767534327987
-3.0472630503882043
-0.005184149581753545
3.036874234370061
-4.00827387973285
-0.024511270248029023
3.9593372662724096
-5.359940227205875
-0.0010424025162095935
5.357448052624439
-6.885751164881861
-0.2052495135356869
6.476886751055294
-5.359940227128346
-0.001042402595186893
5.357448052389335
-4.008273879446956
-0.02451127034963851
3.9593372657830552
-3.047263049967266
-0.005184149666356641
3.0368742337797623
-2.2902943165422256
-0.004761008814058233
2.280776752776513
-1.6509217480027503
-0.002483297577003787
1.645954066022597
-1.1130269215373234
-0.0017291616716987783
1.109568822701439
-0.6749467867854192
-0.001124764805469343
0.6726971900283589
-0.337564740411799
-0.0007246769125858295
0.3361153909123178
-0.14382680759477617
-0.0003728355103308729
0.14308111797721565
-2.2875885526647077e-09
-1.5310711174944428e-11
2.257429555410092e-09
-2.0459867408976633e-09
-1.9074286132502984e-11
2.008076173078818e-09
-2.619738571152231e-09
-4.2267111136536906e-11
2.5352584968845766e-09
-3.0207279708182318e-09
-3.016892714920023e-11
2.960777988410862e-09
-3.4638394067968766e-09
-3.253668912583656e-11
3.398158280016432e-09
-3.843968064407255e-09
-4.54251172785434e-11
3.753647582895018e-09
-4.185611290733366e-09
-5.792660791731198e-11
4.069781892616511e-09
-4.489317232925613e-09
-3.977983748137176e-11
4.409369910818316e-09
-4.704307184773335e-09
-9.044437813786629e-11
4.524107724514565e-09
-4.709171788579075e-09
-1.1591549645373493e-10
4.478132964987146e-09
-4.608832388990767e-09
-1.5422770045024003e-10
4.300397870256407e-09
-4.40565232901772e-09
-1.6508232305335565e-10
4.074706465496227e-09
-4.13113989573047e-09
-1.6731830195385442e-10
3.796982262693113e-09
-3.770461047240359e-09
-1.2401826279228514e-10
3.5226455002937503e-09
-3.3364969891508493e-09
-8.172418326149682e-11
3.172855530833279e-09
-2.8574831794614765e-09
-5.1999702703025905e-11
2.753398307930752e-09
-2.445152511539374e-09
-3.3608324456757543e-11
2.3781986590322216e-09
-1.898836277866275e-09
-1.301273649438298e-12
1.896261355485143e-09
-2.1109315859328126e-09
2.937407326493499e-11
2.169843160186288e-09
0.1438268033986255
0.0003728355418583086
-0.1430811137183405
0.3375647367353709
0.0007246769106545681
-0.33611538724008916
0.6749467821192501
0.0011247647553569787
-0.6726971854622836
1.113026916181152
0.0017291616011842897
-1.1095688174866147
1.6509217418053843
0.0024832974671334575
-1.6459540600443776
2.2902943095540986
0.004761008677764314
-2.280776746062012
3.0472630422210307
0.005184149468015872
-3.0368742264299837
4.008273871110272
0.024511270141120603
-3.959337257863407
5.359940218276378
0.0010424023637603363
-5.357448043998945
6.885751155875294
0.20524951333967423
-6.476886742441426
5.359940218112954
0.0010424022281842835
-5.357448044107969
4.008273870737972
0.024511269947645208
-3.9593372578769412
3.047263041855969
0.005184149351824004
-3.036874226298195
2.290294309169226
0.004761008571200291
-2.2807767458890833
1.650921741473981
0.0024832974029705916
-1.6459540598417806
1.1130269159351018
0.0017291615752495495
-1.109568817292249
0.6749467819961561
0.001124764753957715
-0.6726971853420479
0.3375647367237037
0.0007246769157154926
-0.3361153872179687
0.14382680348458787
0.0003728355872201883
-0.14308111371361537
0.2749773709830057
0.0006943505038020324
-0.2735886430808634
0.6476735931215408
0.0013371527173355478
-0.6449992646687858
1.2950774368362434
0.0020736399467864357
-1.2909301713783288
2.1336404077058173
0.0030324018933498543
-2.127575444888693
3.1587069738406606
0.004608072417633535
-3.149491379329339
4.358528477782264
0.006635279269322714
-4.345255318450685
5.753530668031253
0.012314146348920953
-5.728913284725093
7.375843406723433
0.013939054271952507
-7.34791783999666
8.945139629818783
0.038560042194136036
-8.868245390076034
9.422932374684834
0.02343737144503392
-9.375220161157618
8.945139629370834
0.03856004208704089
-8.868245389841341
7.375843405948728
0.013939054090817481
-7.347917839585202
5.753530667163033
0.01231414620061987
-5.728913284152584
4.35852847689099
0.006635279154656006
-4.345255317789294
3.1587069730266424
0.004608072342896911
-3.149491378664438
2.1336404070709607
0.0030324018638197515
-2.1275754443130785
1.2950774364005033
0.002073639948934806
-1.2909301709383396
0.6476735928852949
0.0013371527272141406
-0.6449992644122009
0.27497737092533586
0.0006943505520537186
-0.273588642926478
0.3810947869733444
0.0009252927169432489
-0.37924416376894077
0.9029577616597886
0.0017700475934643001
-0.8994176491387386
1.8054224040014457
0.0026889160438862063
-1.8000445432174497
2.969084576681557
0.003870288395874174
-2.9613440214229816
4.375749161569127
0.005465899230966171
-4.364817174371911
5.986792752645393
0.008031845759073817
-5.970729849831096
7.751031494618898
0.01093324689339988
-7.72916151334494
9.458020853092972
0.017154095749831386
-9.423729953180574
10.64364979026231
0.022044792008452867
-10.599476411273804
11.074945637865444
0.03185123882614599
-11.011549902714135
10.643649789604373
0.022044791922833207
-10.59947641078801
9.458020851943008
0.017154095524687694
-9.42372995248016
7.751031493326745
0.010933246766006573
-7.7291615123084965
5.986792751262853
0.008031845644299313
-5.970729848677493
4.375749160284959
0.005465899155678246
-4.364817173238682
2.969084575640389
0.0038702883584164826
-2.9613440204566066
1.8054224032366615
0.0026889160556371997
-1.8000445424288962
0.9029577611370924
0.0017700476066972424
-0.8994176485887035
0.3810947866169715
0.0009252927453634952
-0.37924416335647254
0.4506364012928
0.0010514637775524433
-0.44853343198370865
1.0768518329110601
0.001989151718732638
-1.0728735081329428
2.152602620436685
0.002967256231983542
-2.146668088567487
3.5290076351330333
0.004128622075181721
-3.520750376099338
5.164842963583
0.005659638518175747
-5.153523702641001
6.965600080833848
0.007612249533523858
-6.950375463116213
8.76359949666563
0.010401773103599842
-8.742796828362119
10.280726064784105
0.0136073698068888
-10.25350626059892
11.283276671636658
0.01731454752584681
-11.248675017995513
11.637053430763391
0.017406420460347
-11.602140156836123
11.283276670926323
0.01731454745088278
-11.248675017434621
10.280726063438276
0.013607369609780203
-10.253506259646624
8.763599495038298
0.010401772961452378
-8.742796827018633
6.965600079117555
0.00761224945256617
-6.950375461562261
5.1648429618975875
0.00565963843060291
-5.153523701130315
3.5290076337023004
0.004128622043091784
-3.5207503747330655
2.152602619336258
0.0029672562207654074
-2.1466680874896134
1.0768518322313907
0.001989151752443935
-1.0728735073852722
0.4506364006760039
0.0010514638275062
-0.4485334312671969
0.4738232801248031
0.0010762283396431307
-0.471670779182461
1.1456798101809218
0.0020094161379576162
-1.1416609549728605
2.2899532514792815
0.002931992913850119
-2.284089247773692
3.7388852084967867
0.003969594222550928
-3.730946004254163
5.4192210579746956
0.005219625446516753
-5.408781817878415
7.180301897247384
0.006795547184961658
-7.166710795577303
8.823472769229262
0.008676580797421927
-8.806119488392081
10.148645616752777
0.010779930752245906
-10.127087195472102
11.00699430841096
0.01243025672083634
-10.982125354392855
11.301654710339726
0.01343553646014076
-11.274814208575568
11.006994307747977
0.012430256666164624
-10.982125353839388
10.14864561547581
0.01077993065367307
-10.127087194392033
8.823472767529646
0.008676580688582257
-8.80611948691034
7.180301895377323
0.006795547115844108
-7.166710793845576
5.419221056107482
0.005219625383961986
-5.408781816136322
3.7388852068642566
0.003969594182170803
-3.730946002702585
2.2899532502063384
0.00293199289773794
-2.2840892465328477
1.1456798093679907
0.0020094161844794733
-1.1416609540675513
0.4738232793122954
0.0010762283571491566
-0.4716707783345264
0.44433025287083927
0.0010153581904483308
-0.44229949320498674
1.0928529351017284
0.0018613170449168776
-1.089130278280699
2.18754763899577
0.0026530090419253287
-2.182241600961536
3.55814248927096
0.003489892014775206
-3.551162698845931
5.1074291166091985
0.0044522169201964825
-5.098524668024371
6.673939669665547
0.005575396732793454
-6.6627889037573755
8.09199996812949
0.0068396845842636595
-8.07832061357207
9.215125648714489
0.008084900059804957
-9.198955475832216
9.932450609932573
0.009066646209917453
-9.914319781202034
10.17906054220355
0.009364429732049801
-10.160322714843824
9.93245060936461
0.009066646182570174
-9.914319780688759
9.21512564761245
0.008084899998651822
-9.198955474852294
8.091999966604284
0.006839684514325838
-8.078320612186886
6.673939667911856
0.005575396677744753
-6.662788902113513
5.107429114835285
0.004452216881454782
-5.098524666327751
3.558142487667075
0.0034898919972637535
-3.5511626972765384
2.1875476376190606
0.0026530090253787837
-2.1822415996180258
1.0928529341251
0.0018613171010667664
-1.0891302771924227
0.44433025187347
0.0010153582255490732
-0.44229949213741176
0.36216690346436686
0.000885323790340216
-0.36039620298054864
0.9153452867126729
0.0015785569692111472
-0.9121881480347703
1.844926964179213
0.002186828382893315
-1.8405532868730334
3.0021094822877616
0.0027975535100657196
-2.996514361662579
4.288813465301433
0.0034652449045465754
-4.281882977647769
5.567254047381763
0.004208150293272978
-5.558837738467999
6.709396915932618
0.004992771340200946
-6.6994113901052925
7.60532658679621
0.005727033337113785
-7.59387262598433
8.175016048225887
0.006259449365729257
-8.16249645445102
8.370246088064263
0.006473896868428489
-8.35730084083629
8.175016047812836
0.006259449350702149
-8.162496454068053
7.60532658595356
0.005727033298620565
-7.593872625218977
6.709396914751586
0.004992771298265936
-6.699411389007685
5.567254045989423
0.004208150263910259
-5.558837737134923
4.288813463803965
0.003465244899547598
-4.281882976160415
3.0021094807694153
0.0027975535096558283
-2.996514360145085
1.8449269627209308
0.0021868283964603997
-1.8405532853878412
0.9153452855198083
0.001578556989815635
-0.9121881468003444
0.36216690228519716
0.0008853238178412508
-0.36039620174615844
0.23719459828385622
0.0006954157978464921
-0.2358037314255046
0.6320981144667668
0.0011795109525363555
-0.6297390720079277
1.3033890771667158
0.0015753633756922286
-1.3002383352485813
2.144905673151425
0.0019575013758273813
-2.140990663619946
3.07558783077325
0.0023596620893820796
-3.070868501647012
3.9939017534741637
0.002789092405261198
-3.9883235748016674
4.809110819048428
0.0032247746859198974
-4.8026612679328835
5.445899809670345
0.0036158940835996052
-5.438668000987554
5.849809223169668
0.0038941715232065446
-5.842021076776391
5.98804795961045
0.0039915521808796236
-5.980064155832324
5.8498092228983705
0.0038941715313124906
-5.842021076489215
5.445899809116883
0.0036158940660934343
-5.438668000469168
4.809110818268824
0.0032247746558882366
-4.80266126721356
3.993901752520067
0.0027890924027533233
-3.988323573852312
3.0755878296510626
0.002359662097741533
-3.0708685005082432
2.144905671861985
0.0019575013610588898
-2.140990662359826
1.3033890758377182
0.0015753633852789192
-1.3002383339011638
0.6320981132687017
0.001179510952243208
-0.6297390708101831
0.2371945970777508
0.000695415818498711
-0.23580373017756995
0.09650706453866113
0.0004267833976096783
-0.09565339975639069
0.2962737732069076
0.0006547823742569454
-0.29496417674964587
0.6490904007921373
0.0008407417647736779
-0.6474088876762325
1.1002422957296087
0.0010151304132751226
-1.0982120198061933
1.5996472204325727
0.0011930521175364495
-1.5972611142080455
2.0913440310987252
0.0013768207533868537
-2.08859039985449
2.526549872384187
0.0015573416028959606
-2.5234352177854986
2.8657555979626146
0.0017150807058445505
-2.8623254820968356
3.080581979285827
0.0018244399589267908
-3.0769330992558652
3.154074912776396
0.0018646030780929467
-3.1503459375859824
3.0805819791274898
0.0018244399714635459
-3.0769330990722765
2.8657555976743105
0.0017150807105674793
-2.862325481798875
2.526549871950877
0.0015573415773173112
-2.523435217402754
2.091344030594225
0.0013768207673983
-2.0885903993224932
1.599647219810212
0.0011930521367198182
-1.5972611135473695
1.1002422949816082
0.001015130431639491
-1.0982120190218694
0.6490903999043267
0.000840741744998967
-0.647408886827286
0.2962737724240366
0.0006547823813713471
-0.2949641759529188
0.0965070635341272
0.00042678342767620876
-0.09565339869249231
SCALARS disp_y float
LOOKUP_TABLE default
0.0
0.0
0.0
0.0
0.0
0.0
0.0
0.0
0.0
0.0
0.0
0.0
0.0
0.0
0.0
0.0
0.0
0.0
0.0
0.0
0.0
0.0
0.0
0.0
0.0
0.0
0.0
0.0
0.0
0.0
0.0
0.0
0.0
0.0
0.0
0.0
0.0
0.0
0.0
0.0
0.0
0.0
0.0
0.0
0.0
0.0
0.0
0.0
0.0
0.0
0.0
0.0
0.0
0.0
0.0
0.0
0.0
0.0
0.0
0.0
0.0
0.0
0.0
0.0
0.0
0.0
0.0
0.0
0.0
0.0
0.0
0.0
0.0
0.0
0.0
0.0
0.0
0.0
0.0
0.0
0.0
0.0
0.0
0.0
0.0
0.0
0.0
0.0
0.0
0.0
0.0
0.0
0.0
0.0
0.0
0.0
0.0
0.0
0.0
0.0
0.0
0.0
0.0
0.0
0.0
0.0
0.0
0.0
0.0
0.0
0.0
0.0
0.0
0.0
0.0
0.0
0.0
0.0
0.0
0.0
0.0
0.0
0.0
0.0
0.0
0.0
0.0
0.0
0.0
0.0
0.0
0.0
0.0
0.0
0.0
0.0
0.0
0.0
0.0
0.0
0.0
0.0
0.0
0.0
0.0
0.0
0.0
0.0
0.0
0.0
0.0
0.0
0.0
0.0
0.0
0.0
0.0
0.0
0.0
0.0
0.0
0.0
0.0
0.0
0.0
0.0
0.0
0.0
0.0
0.0
0.0
0.0
-0.1921961947558961
-0.47335941397265663
-0.7229498206334111
-0.8871037051653831
-0.9460118260698939
-0.8997070879636523
-0.7608374935575952
-0.5489568386506299
-0.2871233311315045
1.680140993187534e-09
0.2871233344551751
0.548956841843522
0.7608374965071736
0.8997070906768622
0.9460118287118128
0.8871037078319336
0.7229498232962916
0.4733594165028704
0.1921961968446924
-0.5914823217764348
-1.2627434648256861
-1.8287032847735907
-2.1833787163305787
-2.288829955793303
-2.1512026188127353
-1.8036983539373854
-1.2936807655468152
-0.6742304264997143
1.5493975829622595e-09
0.6742304295731485
1.2936807684117015
1.8036983564704054
2.1512026210181863
2.288829957834732
2.183378718363299
1.8287032867184903
1.2627434667453008
0.5914823231225056
-1.2970792598807979
-2.6051696703057363
-3.687629065900286
-4.372416154903363
-4.576897966305651
-4.302123147939313
-3.608025489851741
-2.587971228951252
-1.3487063896157265
2.101926926813298e-09
1.348706393677491
2.587971232663185
3.6080254930987845
4.302123150820805
4.576897968806518
4.372416156925561
3.687629067655601
2.605169671950196
1.2970792610574224
-2.199415895509355
-4.288028135065077
-6.001674720160238
-7.113100234094191
-7.47404108917216
-7.054020814561369
-5.934344759599385
-4.264242379868238
-2.2243105839188506
2.5702069986655693e-09
2.22431058891193
4.264242384419134
5.934344763525786
7.054020817791539
7.474041091732916
7.113100235964048
6.001674721457841
4.2880281360736365
2.199415896127087
-3.1982894834663944
-6.149244199376359
-8.574779783764928
-10.211166492081784
-10.833985964199158
-10.324600954092759
-8.746383533728967
-6.312988331301826
-3.29942976009284
3.1820545099580895e-09
3.299429766227373
6.312988336810232
8.74638353833885
10.32460095770977
10.833985966825836
10.211166493760619
8.574779784634798
6.149244199773335
3.1982894835807807
-4.181722546804305
-7.985659446232793
-11.131224874117448
-13.343441736111133
-14.355099978929953
-13.92479594329435
-11.96629529439895
-8.710817316394644
-4.575968553911481
3.841838339272844e-09
4.575968561208858
8.710817322772428
11.966295299577736
13.924795947189187
14.355099981584617
13.343441737513436
11.131224874500187
7.9856594460225745
4.181722546415538
-5.0521426343393605
-9.615821271126316
-13.41497808125314
-16.178602253554285
-17.639946224678802
-17.51869966290669
-15.49282913059964
-11.49535778758841
-6.089682074029319
4.406603122826647e-09
6.089682082411666
11.495357794787061
15.492829136260717
17.518699667017717
17.639946227257816
16.178602254657147
13.414978081162088
9.615821270437927
5.052142633578693
-5.730536831557001
-10.889136891078534
-15.206279305921255
-18.4238082914424
-20.288462875546873
-20.550005693562632
-18.901652857456238
-14.740134278567348
-7.991895305574062
4.840114955168531e-09
7.991895314701863
14.740134286467734
18.90165286366836
20.550005697822037
20.288462877986735
18.423808292235016
15.206279305465914
10.889136890008166
5.730536830559871
-6.160166318356603
-11.696756041483898
-16.34522804527733
-19.85759948619648
-22.003598020309198
-22.551757020960167
-21.26761208683015
-17.8565776927139
-10.722095575684074
5.003689072628872e-09
10.722095585313738
17.856577701156244
21.267612093438505
22.551757025394753
22.003598022635433
19.85759948675634
16.345228044507788
11.696756040077904
6.16016631721988
-6.307142162164533
-11.973158209696246
-16.735520226431593
-20.350516732397306
-22.59209821617723
-23.25874067811236
-22.12221165682261
-18.822236798760628
-13.581869211898226
5.160240234531311e-09
13.581869221866826
18.82223680737194
22.12221166344262
23.25874068262941
22.59209821853032
20.350516732846227
16.735520225485928
11.973158208100722
6.307142160947038
-6.160166319318994
-11.696756042975611
-16.345228046990787
-19.85759948797679
-22.00359802191853
-22.551757022322214
-21.267612088100122
-17.856577693673128
-10.722095575951597
5.288793093066881e-09
10.722095585934069
17.856577702097216
21.267612094615753
22.55175702682041
22.003598024301546
19.857599488486905
16.345228046121345
11.696756041399736
6.160166318075496
-5.7305368333114375
-10.889136893940334
-15.206279309248872
-18.423808294847827
-20.288462878717237
-20.55000569622567
-18.901652859581944
-14.740134280017807
-7.99189530613238
5.115504255075406e-09
7.991895315676141
14.740134288121602
18.90165286598006
20.55000570068623
20.28846288120085
18.423808295571988
15.206279308698967
10.889136892665766
5.73053683216514
-5.052142636723666
-9.615821275100677
-13.414978085983252
-16.178602258328677
-17.639946229084625
-17.51869966660204
-15.492829133311798
-11.495357789247631
-6.089682074717698
4.61848879773723e-09
6.089682083500058
11.495357796899116
15.492829139448006
17.518699671018272
17.63994623180962
16.17860225946226
13.414978085804497
9.615821274287207
5.052142635888825
-4.1817225497442685
-7.985659451099651
-11.131224879879259
-13.343441741849919
-14.355099984125266
-13.924795947565826
-11.966295297524818
-8.710817318241556
-4.575968554658063
3.966916714478877e-09
4.5759685624010675
8.710817325208891
11.966295303224308
13.924795951913483
14.355099987128762
13.343441743481076
11.131224880270404
7.985659450763266
4.181722549216179
-3.1982894869078087
-6.149244204843057
-8.574779790058262
-10.211166498282193
-10.833985969676474
-10.324600958530972
-8.746383536951502
-6.312988333280344
-3.2994297609499688
3.36160658438048e-09
3.299429767509147
6.312988339303368
8.746383542119547
10.324600962725082
10.833985972896237
10.211166500470714
8.57477979120938
6.149244205077415
3.198289486660131
-2.1994158992249693
-4.28802814084211
-6.001674726468439
-7.113100240125675
-7.474041094450419
-7.054020818752334
-5.934344762643656
-4.264242381782531
-2.2243105847798
2.761014861185629e-09
2.22431059017838
4.264242386816408
5.934344767134398
7.054020822676913
7.474041097847796
7.113100242848079
6.001674728218236
4.2880281416357615
2.199415899308676
-1.2970792637799355
-2.605169676093539
-3.6876290719785576
-4.3724161604440965
-4.5768979710244855
-4.302123151682438
-3.6080254925396424
-2.5879712306498757
-1.348706390351739
2.3277057158877704e-09
1.3487063948900146
2.5879712348945847
3.6080254964690406
4.302123155374424
4.5768979744833995
4.372416163451459
3.6876290741887714
2.605169677437132
1.2970792643851943
-0.5914823252632432
-1.2627434698371045
-1.828703289807609
-2.183378720741878
-2.288829959421838
-2.1512026216879
-1.8036983560434325
-1.293680766878966
-0.6742304270387095
1.8496318184763881e-09
0.674230430600171
1.2936807702194777
1.8036983592307037
2.151202624746808
2.2888299623762745
2.1833787234357818
1.8287032919423079
1.2627434715049022
0.5914823262919461
-0.19219619921323616
-0.47335941927262426
-0.7229498258356742
-0.8871037097859661
-0.9460118299714815
-0.899707091065196
-0.7608374958227194
-0.5489568400035423
-0.2871233315879128
2.1302320979013417e-09
0.2871233357688291
0.54895684402416
0.7608374996529361
0.8997070947460886
0.9460118334996264
0.8871037130792824
0.7229498286914211
0.47335942172442586
0.19219620119302322
0.1913422351840666
0.471968441739655
0.7211789609889114
0.8850728156870973
0.9438591921885532
0.8976039932373723
0.7589867569677549
0.5475680297586322
0.2863775859746163
-1.6847934950847904e-09
-0.2863775893071259
-0.5475680329375989
-0.7589867598973323
-0.8976039959293731
-0.9438591948148448
-0.8850728183405936
-0.7211789636280973
-0.47196844424079365
-0.19134223727402294
0.5901726301721604
1.2603843609258258
1.8255460718570398
2.179655991343108
2.2848110317588413
2.1472242301074256
1.8001581892951564
1.2910063684075628
0.6727810890697392
-1.5413607731195906e-09
-0.6727810921218156
-1.2910063712477964
-1.8001581917982
-2.147224232281439
-2.284811033765397
-2.1796559933246793
-1.8255460737309026
-1.2603843627434166
-0.5901726314611643
1.2953976578626718
2.6020188830053907
3.683255326903274
4.36711005699085
4.571033908994553
4.296188557803751
3.6026475429035036
2.5838240066443663
1.3464565924733114
-2.0981277050917195e-09
-1.3464565965247335
-2.5838240103491144
-3.6026475461380802
-4.29618856066184
-4.571033911470769
-4.36711005899426
-3.683255328599224
-2.602018884599539
-1.2953976589978724
2.197385574210135
4.28411310538746
5.996079558609639
7.106120424642932
7.466101837538174
7.045763510357077
5.926604270852862
4.25817693588611
2.2208531628335377
-2.557828402750762e-09
-2.2208531678055063
-4.258176940416647
-5.926604274756648
-7.045763513577298
-7.466101840072512
-7.106120426462732
-5.996079559853942
-4.2841131063443685
-2.1973855748025017
3.1959033713162013
6.144524855301669
8.567849302688414
10.202261999280191
10.823546755491154
10.313281745795372
8.735450967191417
6.303774417051149
3.2944587777327348
-3.1755986127684667e-09
-3.2944587838541217
-6.303774422542596
-8.735450971781418
-10.313281749383568
-10.82354675807674
-10.202262000919632
-8.567849303522557
-6.144524855647273
-3.1959033713486553
4.1789689463942175
7.980081285897756
11.122808540582831
13.33229105084117
14.341508863136312
13.90957094441182
11.950234826108813
8.697536203853874
4.5664645708765965
-3.8506265863088036e-09
-4.566464578188544
-8.697536210228133
-11.950234831281044
-13.909570948280018
-14.341508865749681
-13.332291052192996
-11.122808540907874
-7.980081285638079
-4.178968945948439
5.0490280654080655
9.6093717158527
13.404992601512452
16.16492295734339
17.622592541742367
17.497899752033387
15.470948374649373
11.47077379941977
6.079230730986741
-4.427790985813296e-09
-6.079230739403517
-11.470773806637126
-15.470948380300657
-17.497899756113295
-17.62259254427266
-16.164922958382565
-13.40499260135177
-9.60937171510474
-5.049028064640295
5.7271068554782305
10.881905010947879
15.19482569112821
18.407636919614884
20.26690899247452
20.52277014093134
18.86741512836043
14.712063710711888
7.943220223740534
-4.845203916150309e-09
-7.943220232886111
-14.71206371861408
-18.867415134546892
-20.52277014515189
-20.266908994862824
-18.40763692034098
-15.194825690585883
-10.88190500978627
-5.727106854404748
6.15651742265905
11.688968534891451
16.332706224129424
19.839476431438815
21.978702763517266
22.517240038326037
21.2231822181723
17.780370511722428
10.718368757592264
-5.0082853257441255e-09
-10.71836876719091
-17.78037052013757
-21.22318222474673
-22.5172400427111
-21.978702765788864
-19.839476431955653
-16.332706223302782
-11.688968533419885
-6.156517421454147
6.303413935444479
11.965172131040173
16.72258311218471
20.331750690799193
22.565352708349632
23.223518514367452
22.059751774812508
18.771985650302597
13.17793818611779
-5.175229087985183e-09
-13.177938196086547
-18.771985658885963
-22.05975178138103
-23.223518518832325
-22.565352710657095
-20.33175069121558
-16.722583111222974
-11.965172129421182
-6.303413934224946
6.15651742355887
11.688968536370053
16.332706225835768
19.839476433219634
21.978702765123334
22.517240039671446
21.22318221941713
17.780370512671908
10.718368757863306
-5.303178272183553e-09
-10.718368767867808
-17.7803705210978
-21.223182225927673
-22.51724004414686
-21.978702767478246
-19.83947643372204
-16.332706224963655
-11.688968534812702
-6.156517422367875
5.727106857219138
10.881905013790867
15.194825694422926
18.407636922987336
20.266908995615534
20.52277014356993
18.867415130464522
14.712063712146326
7.94322022428092
-5.130335632049918e-09
-7.9432202338569535
-14.712063720280039
-18.86741513687312
-20.52277014802938
-20.266908998096966
-18.4076369237199
-15.194825693877721
-10.881905012519704
-5.727106856082795
5.0490280678245485
9.609371719841723
13.404992606215751
16.16492296208599
17.622592546123293
17.497899755715004
15.470948377354924
11.47077380107426
6.079230731691742
-4.613464954855687e-09
-6.0792307404820995
-11.470773808736222
-15.470948383488372
-17.497899760142886
-17.622592548859494
-16.16492296322899
-13.404992606045534
-9.609371718998188
-5.049028066937527
4.1789689492929725
7.980081290744295
11.12280854633517
13.332291056571385
14.341508868327416
13.909570948687742
11.950234829244069
8.69753620571977
4.56646457166719
-3.935581073722028e-09
-4.56646457934763
-8.697536212664835
-11.950234834946736
-13.90957095303592
-14.341508871345223
-13.332291058223772
-11.122808546734452
-7.980081290432092
-4.178968948792956
3.195903374691588
6.144524860733322
8.56784930897963
10.202262005489072
10.823546760983755
10.313281750258334
8.735450970452986
6.303774419086921
3.2944587786508284
-3.2962868552794677e-09
-3.2944587850940192
-6.303774425043094
-8.735450975602355
-10.313281754453069
-10.823546764220708
-10.202262007722139
-8.56784931018154
-6.1445248610108765
-3.1959033744900918
2.1973855778997993
4.284113111138074
5.996079564903917
7.106120430679653
7.466101842852601
7.045763514613509
5.926604273963228
4.258176937863238
2.220853163744389
-2.695591371741368e-09
-2.220853169026447
-4.258176942808677
-5.926604278397428
-7.04576351852194
-7.466101846270298
-7.10612043345159
-5.996079566724012
-4.284113111998923
-2.197385578049848
1.295397661763538
2.602018888776594
3.6832553329649267
4.367110062556933
4.571033913759057
4.296188561610728
3.6026475456678813
2.5838240084253172
1.3464565932758923
-2.2566034457461465e-09
-1.346456597690002
-2.5838240125764855
-3.6026475495464894
-4.296188565281524
-4.571033917232235
-4.367110065595332
-3.6832553352292727
-2.602018890177751
-1.2953976623650518
0.5901726336203569
1.2603843658892966
1.8255460768879024
2.179655995765019
2.2848110354178384
2.1472242330237616
1.800158191453528
1.291006369813112
0.6727810896853536
-1.7973517287229777e-09
-0.6727810931412304
-1.29100637306909
-1.8001581945844303
-2.1472242360592766
-2.2848110383590896
-2.179655998468252
-1.8255460790168212
-1.2603843675695794
-0.5901726346756949
0.1913422396215655
0.4719684470089713
0.7211789661968679
0.8850728203369839
0.9438591961168831
0.8976039963809157
0.7589867592893392
0.5475680311652242
0.28637758647664907
-2.106193946250201e-09
-0.28637759061189055
-0.5475680351455772
-0.7589867630922305
-0.8976040000500232
-0.9438591996464841
-0.8850728236209376
-0.7211789690578068
-0.4719684494607168
-0.1913422415913253
0.0
0.0
0.0
0.0
0.0
0.0
0.0
0.0
0.0
0.0
0.0
0.0
0.0
0.0
0.0
0.0
0.0
0.0
0.0
0.0
0.0
0.0
0.0
0.0
0.0
0.0
0.0
0.0
0.0
0.0
0.0
0.0
0.0
0.0
0.0
0.0
0.0
0.0
0.0
0.0
0.0
0.0
0.0
0.0
0.0
0.0
0.0
0.0
0.0
0.0
0.0
0.0
0.0
0.0
0.0
0.0
0.0
0.0
0.0
0.0
0.0
0.0
0.0
0.0
0.0
0.0
0.0
0.0
0.0
0.0
0.0
0.0
0.0
0.0
0.0
0.0
0.0
0.0
0.0
0.0
0.0
0.0
0.0
0.0
0.0
0.0
0.0
0.0
0.0
0.0
0.0
0.0
0.0
0.0
0.0
0.0
0.0
0.0
0.0
0.0
0.0
0.0
0.0
0.0
0.0
0.0
0.0
0.0
0.0
0.0
0.0
0.0
0.0
0.0
0.0
0.0
0.0
0.0
0.0
0.0
0.0
0.0
0.0
0.0
0.0
0.0
0.0
0.0
0.0
0.0
0.0
0.0
0.0
0.0
0.0
0.0
0.0
0.0
0.0
0.0
0.0
0.0
0.0
0.0
0.0
0.0
0.0
0.0
0.0
0.0
0.0
0.0
0.0
0.0
0.0
0.0
0.0
0.0
0.0
0.0
0.0
0.0
0.0
0.0
0.0
0.0
0.0
0.0
0.0
0.0
0.0
0.0
0.0
0.0
0.0
0.0
0.0
0.0
0.0
0.0
0.0
0.0
0.0
0.0
0.0
0.0
0.0
0.0
0.0
0.0
0.0
0.0
0.0
0.0
0.0
0.0
0.0
0.0
0.0
0.0
0.0
0.0
0.0
0.0
0.0
0.0
0.0
0.0
0.0
0.0
0.0
0.0
0.0
0.0
0.0
0.0
0.0
0.0
0.0
0.0
0.0
0.0
0.0
0.0
0.0
0.0
0.0
0.0
-0.09650706310916125
-0.0004267834330709018
0.09565339825729113
-0.23719459662502126
-0.0006954158291549975
0.2358037297042618
-0.36216690192901435
-0.0008853238205986118
0.36039620138456274
-0.4443302516555978
-0.00101535820656649
0.4422994919571787
-0.4738232793166703
-0.0010762283539905325
0.471670778345702
-0.4506364009166883
-0.0010514638217104433
0.4485334315186232
-0.3810947870514943
-0.0009252927521498716
0.3792441637765812
-0.2749773715671145
-0.0006943505391729611
0.273588643593703
-0.14382680442273058
-0.00037283557028656555
0.14308111468538276
8.384407513357681e-10
-2.3034290218056707e-12
-8.430521612177068e-10
0.14382680608147927
0.0003728355658978571
-0.1430811163529994
0.2749773731661653
0.0006943505462820153
-0.2735886451788341
0.38109478853029405
0.0009252927618983377
-0.3792441652354869
0.4506364022780146
0.0010514638326477074
-0.44853343285863156
0.47382328064068496
0.0010762283617869173
-0.4716707796541674
0.44433025299135187
0.001015358213101625
-0.44229949327999946
0.3621669032652186
0.0008853238324298972
-0.3603962026970581
0.23719459789692665
0.0006954158435875319
-0.23580373094705914
0.09650706415099052
0.0004267834323202514
-0.09565339930048362
-0.2962737719732536
-0.0006547823609852919
0.294964175541951
-0.6320981126737102
-0.0011795109179219621
0.6297390702835959
-0.9153452849821193
-0.0015785569676979258
0.9121881463068358
-1.0928529337619277
-0.0018613170737290284
1.089130276883968
-1.1456798092737994
-0.0020094161510189716
1.141660954039351
-1.0768518323700103
-0.0019891517200433207
1.0728735075896965
-0.9029577615398983
-0.001770047607264489
0.8994176489915289
-0.6476735935083023
-0.0013371527373604536
0.6449992650153141
-0.33756473758107763
-0.0007246769242496518
0.33611538805862073
7.770900059659509e-10
4.045680497968542e-12
-7.690280578926715e-10
0.3375647391236695
0.0007246769350224918
-0.3361153895798185
0.6476735949474492
0.0013371527496634978
-0.644999266429784
0.9029577628144823
0.0017700476222763137
-0.899417650236108
1.076851833481165
0.001989151735574536
-1.0728735086694354
1.145679810303991
0.002009416168526682
-1.1416609550346979
1.0928529347913047
0.0018613170993982268
-1.0891302778621064
0.9153452859729133
0.0015785570032015852
-0.9121881472265732
0.6320981136590677
0.0011795109693433978
-0.6297390711667396
0.2962737726605633
0.0006547823896847981
-0.29496417617215187
-0.6490903993350884
-0.0008407417344297937
0.6474088862798557
-1.303389075070929
-0.0015753633757089284
1.3002383331534524
-1.8449269620162865
-0.002186828382650316
1.8405532847106152
-2.187547637151192
-0.0026530090409491803
2.182241599119116
-2.2899532500949373
-0.0029319929173098514
2.2840892463826963
-2.1526026195915264
-0.0029672562335652164
2.1466680877188082
-1.8054224037957465
-0.002688916055145407
1.800044542989178
-1.2950774372771168
-0.0020736399667784238
1.2909301717792496
-0.6749467831517992
-0.0011247647762648
0.6726971864529169
1.0517357636392591e-09
1.8790440698534357e-12
-1.0479430378445782e-09
0.6749467851850759
0.001124764781442444
-0.6726971884758625
1.2950774391346658
0.0020736399702853347
-1.2909301736296683
1.8054224054223125
0.002688916061348034
-1.8000445446032545
2.1526026210378975
0.002967256245248927
-2.1466680891418557
2.28995325135113
0.002931992929582707
-2.2840892476141974
2.1875476381669468
0.002653009050209598
-2.1822416001162113
1.8449269629087104
0.002186828412444196
-1.840553285543548
1.3033890759054139
0.0015753634008282742
-1.3002383339377426
0.6490903999331967
0.0008407417551101341
-0.6474088868364772
-1.1002422943615906
-0.0010151304101611613
1.0982120184443893
-2.1449056709816783
-0.0019575013439446865
2.140990661513255
-3.002109479974927
-0.002797553501033909
2.9965143593678905
-3.5581424871502807
-0.0034898920040060915
3.5511626967462684
-3.738885206814816
-0.003969594215284551
3.7309460025867147
-3.5290076341236922
-0.004128622085946674
3.5207503750686273
-2.9690845763927984
-0.0038702883969717913
2.9613440211318
-2.1336404081446534
-0.003032401902556848
2.1275754453092364
-1.1130269172858767
-0.0017291616168490444
1.1095688185598112
1.2882353073351e-09
6.200314134706313e-12
-1.2758475995110208e-09
1.113026919787697
0.0017291616273933277
-1.109568821040532
2.1336404104252042
0.0030324019127496997
-2.1275754475693844
2.9690845783617155
0.0038702884083656242
-2.9613440230780586
3.5290076357413476
0.0041286220908577555
-3.520750376676432
3.7388852081018102
0.003969594228513535
-3.7309460038472793
3.5581424880977064
0.0034898920289108248
-3.551162697643597
3.0021094806373374
0.0027975535277869313
-2.996514359976987
2.1449056714988766
0.0019575013698522057
-2.1409906619787513
1.100242294676556
0.0010151304229541948
-1.0982120187340372
-1.5996472191584195
-0.001193052108942589
1.5972611129502101
-3.0755878287773224
-0.0023596620973915907
3.0708684996355493
-4.288813463021257
-0.0034652449122204595
4.281882975351877
-5.107429114425165
-0.004452216925438636
5.098524665830048
-5.419221056222798
-0.005219625447624311
5.408781816124441
-5.164842962514335
-0.005659638517371624
5.153523701573668
-4.3757491612819095
-0.00546589923380953
4.364817174079277
-3.158706974335059
-0.004608072426574989
3.149491379805769
-1.6509217430299434
-0.002483297491666721
1.6459540612203019
1.5925706124518285e-09
3.2306853184724164e-12
-1.586113306870727e-09
1.6509217461003325
0.002483297498243534
-1.645954064277536
3.158706977093346
0.004608072435071201
-3.149491382547097
4.37574916359174
0.005465899243765326
-4.364817176369208
5.164842964329999
0.005659638531788637
-5.153523703360518
5.419221057546393
0.0052196254681790575
-5.408781817406922
5.107429115274385
0.004452216945093987
-5.098524666639912
4.288813463465341
0.003465244930198265
-4.281882975760325
3.0755878289886103
0.0023596621229404094
-3.070868499795389
1.5996472192363402
0.001193052150448167
-1.5972611129459762
-2.091344030015946
-0.0013768207543433575
2.088590398770659
-3.9939017517288535
-0.0027890924141896678
3.9883235730383326
-5.567254045345791
-0.00420815030454174
5.558837736409751
-6.673939667678263
-0.005575396747136149
6.662788901740954
-7.1803018956373705
-0.00679554720389983
7.166710793929326
-6.965600079903349
-0.007612249559262734
6.950375462134573
-5.986792752505409
-0.008031845780727515
5.9707298496472845
-4.358528478422355
-0.006635279288566659
4.345255319052303
-2.290294310883131
-0.004761008706582257
2.2807767473326517
1.9184796084496273e-09
-4.388599553835995e-12
-1.9272567569693557e-09
2.2902943145279497
0.0047610086992228825
-2.2807767509920707
4.358528481612036
0.006635279290390912
-4.345255322238431
5.9867927550963635
0.00803184578398787
-5.970729852231701
6.965600081857483
0.007612249572621337
-6.950375464062063
7.18030189697494
0.006795547224560013
-7.166710795225623
6.673939668392215
0.005575396772546677
-6.662788902404375
5.567254045551791
0.0042081503333430545
-5.558837736558061
3.993901751636145
0.002789092438829843
-3.9883235728961726
2.091344029836498
0.0013768207828028906
-2.088590398534104
-2.5265498715411563
-0.0015573416143478632
2.52343521691944
-4.80911081767423
-0.0032247747082709533
4.802661266514148
-6.709396914334944
-0.004992771374203752
6.699411388439373
-8.091999966567803
-0.006839684623774315
8.078320611931764
-8.823472767974703
-0.008676580835996458
8.80611948706047
-8.763599496000426
-0.010401773132419375
8.742796827638637
-7.751031494760637
-0.010933246949242532
7.7291615133756615
-5.75353066889796
-0.012314146405130934
5.728913285479151
-3.0472630436720154
-0.005184149533586136
3.036874227750277
2.1977904456611534e-09
-1.0667044655652988e-11
-2.218914895376469e-09
3.0472630478540896
0.005184149516373398
-3.0368742319668325
5.753530672492439
0.01231414639573903
-5.728913289092443
7.751031497593596
0.010933246953956121
-7.72916151619881
8.763599498063693
0.010401773148022325
-8.742796829670763
8.823472769276396
0.008676580860379392
-8.8061194883134
8.091999967135099
0.0068396846554030066
-8.078320612435407
6.709396914307223
0.004992771409053533
-6.699411388342097
4.8091108173451556
0.0032247747381902465
-4.80266126612535
2.526549871162941
0.0015573416178303052
-2.523435216534324
-2.8657555973894677
-0.0017150807196229588
2.8623254814958776
-5.445899808749652
-0.003615894111972207
5.438668000010209
-7.605326585756671
-0.005727033385501098
7.593872624848106
-9.215125647775995
-0.00808490013877016
9.198955474735728
-10.148645616113662
-0.010779930855103245
10.127087194627007
-10.280726064624675
-0.013607369904717769
10.25350626024398
-9.458020853504404
-0.01715409581921335
9.423729953452675
-7.37584340776931
-0.013939054357553243
7.3479178408710055
-4.0082738727267335
-0.024511270213035428
3.9593372593359013
2.418358381620447e-09
-2.5313301160528053e-12
-2.423477114799843e-09
4.008273877285924
0.024511270204080938
-3.9593372639128073
7.375843411718921
0.013939054356904521
-7.347917844822397
9.458020856616756
0.01715409583212975
-9.423729956539368
10.280726066764215
0.01360736992414708
-10.253506262344697
10.148645617346542
0.010779930880914078
-10.127087195808322
9.215125648189122
0.008084900172055307
-9.198955475082368
7.605326585551093
0.005727033429075741
-7.593872624555478
5.445899808237337
0.003615894157511342
-5.438667999406801
2.8657555969109265
0.0017150807579124632
-2.8623254809406817
-3.080581978988739
-0.00182443997771421
3.0769330989209496
-5.849809222777714
-0.0038941715780763915
5.8420210762749
-8.175016047867073
-0.006259449447886795
8.162496453927911
-9.932450609723391
-0.009066646333496436
9.914319780745625
-11.006994308533246
-0.012430256871129676
10.98212535421481
-11.283276672150016
-0.01731454770465702
11.248675018150855
-10.643649791080781
-0.022044792143894067
10.59947641182213
-8.94513963110524
-0.03856004232144634
8.86824539110792
-5.359940220106448
-0.0010424024552479225
5.3574480456468425
2.500516439443251e-09
-2.4573424389316524e-12
-2.5052673379226783e-09
5.359940224928749
0.0010424024710942287
-5.3574480504380055
8.945139635332753
0.03856004233488562
-8.868245395308216
10.643649794393143
0.02204479216089118
-10.599476415100575
11.283276674379742
0.017314547729476687
-11.248675020330966
11.006994309710278
0.012430256898560137
-10.98212535533718
9.932450610014246
0.00906664635495164
-9.914319780993493
8.175016047496898
0.006259449476405772
-8.162496453500632
5.849809222091496
0.003894171610790647
-5.842021075523136
3.0805819784380803
0.0018244400120158888
-3.076933098301993
-3.1540749128119225
-0.0018646031113589805
3.1503459375553264
-5.988047959748791
-0.003991552246500302
5.980064155839254
-8.370246088376506
-0.006473896980599789
8.35730084092401
-10.179060542741832
-0.009364429870179738
10.160322715106119
-11.301654711178388
-0.01343553660742735
11.27481420911889
-11.637053431949743
-0.017406420652940263
11.602140157637445
-11.074945639321225
-0.031851239011946884
11.011549903797947
-9.4229323763628
-0.023437371586002967
9.375220162553632
-6.8857511578016295
-0.20524951344048292
6.476886744165537
2.576319099966651e-09
-7.467815775590238e-12
-2.5913787565031048e-09
6.885751162785068
0.20524951343998799
-6.476886749148982
9.422932380675148
0.02343737160015035
-9.375220166837988
11.074945642644174
0.031851239037850046
-11.011549907069393
11.637053434221151
0.01740642067900237
-11.60214015985668
11.30165471236652
0.013435536630348953
-11.27481421026143
10.179060542974652
0.009364429886390066
-10.160322715306409
8.370246087908122
0.006473896988763582
-8.357300840439558
5.988047958957337
0.003991552258168614
-5.9800641550243006
3.154074912203979
0.001864603112305887
-3.150345936945412
-3.080581979485706
-0.0018244400091003716
3.076933099355072
-5.849809223526581
-0.003894171584487006
5.842021077010771
-8.175016048725556
-0.006259449451500181
8.162496454779257
-9.932450610613243
-0.009066646333217772
9.914319781636053
-11.006994309338637
-0.012430256872743824
10.982125355016992
-11.283276672835349
-0.017314547713032338
11.248675018819462
-10.64364979172173
-0.022044792156390373
10.599476412437978
-8.94513963158687
-0.038560042326354606
8.868245391579812
-5.35994022023948
-0.0010424024534303718
5.357448045783309
2.6404307318071426e-09
-7.240970030071843e-12
-2.6547211380626386e-09
5.35994022522476
0.0010424024428529368
-5.357448050790695
8.945139635798244
0.0385600423252371
-8.868245395793059
10.643649794980758
0.022044792158770688
-10.599476415691917
11.283276675090004
0.017314547724386165
-11.24867502105137
11.006994310537275
0.012430256886700542
-10.982125356187456
9.932450610870438
0.009066646337009349
-9.914319781885622
8.175016048291807
0.006259449452819754
-8.162496454342799
5.84980922273463
0.0038941715752700877
-5.842021076237281
3.0805819788509767
0.0018244399829034945
-3.0769330987731127
-2.865755598269846
-0.0017150807263568327
2.8623254823626
-5.445899810184821
-0.0036158941213596356
5.438668001426669
-7.605326587428486
-0.005727033401941313
7.593872626486955
-9.215125649486762
-0.008084900155275911
9.198955476413502
-10.148645617705926
-0.010779930869818438
10.127087196189889
-10.280726065962215
-0.013607369916883622
10.253506261557112
-9.458020854572641
-0.017154095830236242
9.423729954499217
-7.375843408498308
-0.013939054365652842
7.347917841584024
-4.008273873010483
-0.02451127022208522
3.9593372596017176
2.553655304315815e-09
-7.233790227009198e-12
-2.568589844160737e-09
4.008273877773746
0.024511270205656726
-3.9593372643972096
7.37584341254268
0.013939054350760852
-7.347917845658281
9.458020857768776
0.017154095824790654
-9.42372995770588
10.280726068192802
0.013607369917549506
-10.253506263786582
10.148645618948413
0.010779930870910686
-10.12708719743016
9.215125649847018
0.00808490015098839
-9.198955476782224
7.605326587152554
0.005727033399615097
-7.5938726262157275
5.445899809547098
0.003615894119722851
-5.438668000792327
2.865755597694794
0.0017150807215045565
-2.8623254817975696
-2.5265498727246225
-0.00155734159818611
2.5234352181352495
-4.809110819657502
-0.003224774700914047
4.802661268512052
-6.709396916706301
-0.0049927713877806245
6.6994113907838875
-8.091999968962574
-0.006839684639457536
8.078320614294785
-8.82347277018356
-0.008676580848501387
8.806119489244402
-8.76359949785125
-0.010401773139330092
8.7427968294757
-7.75103149611822
-0.010933246952431657
7.729161514726689
-5.75353066972878
-0.01231414640743718
5.728913286305284
-3.0472630440119923
-0.005184149525165399
3.0368742281069645
2.3102083026130833e-09
2.4591613467794815e-12
-2.3051853933178755e-09
3.0472630484008567
0.0051841495211472025
-3.036874232503856
5.753530673551655
0.012314146402193348
-5.7289132901386575
7.751031499186985
0.01093324695389372
-7.72916151779264
8.763599500056419
0.010401773133451767
-8.742796831692576
8.823472771543345
0.008676580842944273
-8.806119490615387
8.091999969527098
0.006839684634823423
-8.078320614868696
6.709396916615215
0.00499277138332863
-6.69941139070146
4.809110819258246
0.003224774715911492
-4.8026612680826695
2.5265498723211492
0.0015573416244494846
-2.5234352176793178
-2.091344031496023
-0.0013768207747700777
2.088590400209326
-3.99390175416688
-0.0027890924244483597
3.9883235754560444
-5.567254048228348
-0.004208150309051669
5.558837739282921
-6.67393967054958
-0.005575396751660502
6.662788904603646
-7.180301898235699
-0.0067955472059448106
7.166710796523473
-6.965600082037812
-0.007612249557093334
6.950375464273452
-5.986792754065774
-0.008031845776026982
5.970729851217038
-4.358528479341173
-0.006635279279118398
4.345255319990125
-2.29029431124562
-0.004761008684622997
2.2807767477391145
1.9913151408312445e-09
1.570250329933632e-11
-1.95998972879512e-09
2.2902943151324013
0.0047610087157641855
-2.280776751563375
4.358528482830072
0.006635279290227197
-4.345255323456741
5.986792756914689
0.008031845774421406
-5.970729854069142
6.965600084211496
0.007612249556854137
-6.950375466447649
7.180301899733838
0.006795547198832941
-7.16671079803586
6.673939671359883
0.005575396741023574
-6.662788905435172
5.567254048422362
0.004208150305139924
-5.55883773948499
3.9939017539927635
0.0027890924122873227
-3.988323575306233
2.0913440312251947
0.0013768207608771
-2.0885903999666393
-1.5996472208948933
-0.0011930521423144985
1.5972611146205153
-3.0755878315189498
-0.0023596621147785064
3.070868502342089
-4.288813466167943
-0.0034652449135144834
4.281882978496446
-5.107429117522665
-0.004452216920996681
5.098524668936104
-5.419221058957321
-0.005219625439974022
5.40878181887421
-5.164842964727013
-0.005659638505020369
5.153523703811096
-4.375749162883268
-0.005465899214253403
4.3648171757196765
-3.158706975309997
-0.0046080723979792515
3.149491380837945
-1.6509217434432117
-0.0024832974611054643
1.645954061694561
1.6970330417060637e-09
3.260604674485902e-11
-1.6316985019906263e-09
1.6509217467516997
0.0024832975192095263
-1.6459540648870616
3.1587069783380293
0.004608072431357801
-3.1494913837991447
4.375749165471895
0.005465899223717868
-4.364817178289564
5.164842966823838
0.005659638504656365
-5.153523705908587
5.41922106056288
0.005219625431452941
-5.408781820496972
5.107429118605798
0.004452216898829072
-5.098524670063771
4.288813466730716
0.0034652448880404954
-4.281882979110102
3.0755878316254592
0.002359662093242203
-3.070868502491654
1.599647220759801
0.0011930521192788388
-1.597261114531649
-1.1002422962248428
-0.0010151304232455265
1.098212020281678
-2.1449056738762207
-0.0019575013572986845
2.140990664381279
-3.002109483132273
-0.0027975535081018227
2.996514362511326
-3.558142490164443
-0.003489892001300269
3.55116269976566
-3.738885209444713
-0.003969594197312958
3.7309460052527266
-3.5290076362027287
-0.004128622053071879
3.520750377213225
-2.96908457789847
-0.0038702883641194607
2.9613440227035404
-2.1336404090860595
-0.0030324018710920176
2.127575446313457
-1.1130269177038543
-0.0017291615919610966
1.1095688190276933
1.3969166587767314e-09
3.271519662684552e-11
-1.3315131999027753e-09
1.1130269204323542
0.001729161650182126
-1.1095688216396726
2.133640411625184
0.003032401915323153
-2.1275754487641745
2.9690845801580497
0.0038702883923366193
-2.9613440249065213
3.52900763816921
0.004128622061201691
-3.520750379163494
3.7388852111381987
0.003969594186991805
-3.73094600696655
3.558142491513024
0.003489891976592944
-3.5511627011638276
3.0021094839895617
0.002797553472745494
-2.996514363438889
2.14490567425632
0.0019575013237953494
-2.1409906648285553
1.1002422962505003
0.0010151303896908058
-1.0982120203739525
-0.649090401282653
-0.000840741733299024
0.6474088882292467
-1.3033890779681476
-0.0015753633840176345
1.300238336034021
-1.8449269650586093
-0.0021868283908458813
1.8405532877363233
-2.187547639914828
-0.002653009028325289
2.182241601908081
-2.2899532524424258
-0.0029319928943059175
2.2840892487758726
-2.1526026214468565
-0.002967256201708181
2.14666808963803
-1.805422405120369
-0.002688916016755653
1.8000445443902768
-1.2950774381057408
-0.002073639925564761
1.290930172690241
-0.674946783503146
-0.0011247647430099397
0.6726971868708475
1.1815064677305044e-09
3.558781586803085e-11
-1.1103899953159501e-09
0.6749467858030641
0.0011247648050703696
-0.6726971890465547
1.2950774402512883
0.0020736399723801173
-1.2909301747422295
1.8054224070975995
0.0026889160421354696
-1.8000445463167862
2.152602623297899
0.0029672562123527636
-2.146668091467904
2.2899532541679637
0.0029319928873822927
-2.2840892505157093
2.1875476414101525
0.0026530090126511106
-2.182241603434415
1.8449269661500816
0.00218682836409078
-1.8405532888818468
1.3033890786251265
0.001575363354810683
-1.3002383367487784
0.6490904015863028
0.0008407417356121882
-0.6474088885289115
-0.2962737737258977
-0.0006547823804775808
0.29496417725583707
-0.6320981151915168
-0.0011795109421607313
0.6297390727533052
-0.9153452875004262
-0.0015785569692766024
0.9121881488220296
-1.092852935965505
-0.001861317068330346
1.0891302790981554
-1.1456798110813728
-0.0020094161360478444
1.141660955877337
-1.076851833797575
-0.0019891516990273974
1.0728735090584738
-0.9029577625802803
-0.0017700475812397272
0.8994176500841312
-0.6476735941562162
-0.0013371527006059965
0.6449992657366121
-0.3375647378314016
-0.000724676885939436
0.3361153883856201
9.381233855176074e-10
2.6023900575073617e-11
-8.859012848465832e-10
0.3375647396393231
0.0007246769387072804
-0.3361153900879567
0.6476735958485159
0.0013371527429656943
-0.6449992673443085
0.9029577641887053
0.0017700476093973649
-0.8994176516361458
1.0768518353337282
0.001989151710973676
-1.0728735105712652
1.1456798125622707
0.002009416142369805
-1.141660957344954
1.0928529373104643
0.0018613170637830534
-1.089130280452475
0.915345288569748
0.0015785569720556556
-0.91218814988547
0.632098116022501
0.0011795109360387484
-0.6297390735967583
0.29627377423367524
0.0006547823669580817
-0.29496417779041695
-0.09650706533848245
-0.0004267834428570696
0.09565340046699221
-0.23719459928198738
-0.0006954158446149659
0.2358037323305405
-0.3621669045268903
-0.0008853238176877385
0.36039620398816136
-0.4443302539575517
-0.0010153581919130018
0.44229949428852144
-0.4738232812596004
-0.001076228340518514
0.47167078031541465
-0.4506364024563512
-0.0010514638010139963
0.4485334331002111
-0.3810947881692086
-0.0009252927237330611
0.3792441649508043
-0.27497737222995294
-0.000694350512521869
0.2735886443102354
-0.1438268046395011
-0.00037283554759512654
0.1430811149476291
1.0704936150191823e-09
1.2065919709793082e-11
-1.0463861311425962e-09
0.14382680674011616
0.00037283557040638344
-0.1430811170026012
0.274977374249017
0.0006943505325632534
-0.2735886462891382
0.3810947900900436
0.0009252927374229503
-0.3792441668442649
0.4506364042986387
0.001051463806949427
-0.4485334349306377
0.4738232830222395
0.0010762283397472586
-0.47167078207963264
0.4443302556054867
0.001015358196688683
-0.4422994959269617
0.3621669059524685
0.0008853238151036258
-0.36039620541894374
0.2371946005074541
0.0006954158445057027
-0.23580373355593404
0.09650706632869883
0.00042678344784375033
-0.09565340144719922
SCALARS disp_z float
LOOKUP_TABLE default
1112.6109383879461
1112.6109373184502
1112.6109378111669
1112.6109387939564
1112.6109384251677
1112.6109373556747
1112.610937848391
1112.6109388311816
1112.2191552377137
1110.2257383497488
1106.3373407945282
1100.823765317717
1094.320347573369
1087.6049977638677
1081.4518640817344
1076.5352873038785
1073.3705412689594
1072.2792734107074
1073.3705411328926
1076.5352870328484
1081.4518636786322
1087.6049972343299
1094.3203469244
1100.8237645567797
1106.337339931488
1110.2257373954383
1112.219154210693
1112.219154195776
1110.225737355413
1106.3373398609174
1100.8237644532624
1094.3203467865665
1087.6049970614988
1081.4518634695578
1076.535286786442
1073.3705408496114
1072.279273091088
1073.3705409132617
1076.5352869123674
1081.4518636552928
1087.6049973046731
1094.3203470846997
1100.823764803077
1106.3373402578063
1110.2257377939736
1112.219154668797
1112.2191547227071
1110.2257379385335
1106.3373405081354
1100.8237651650024
1094.3203475591977
1087.6049978902308
1081.451864348334
1076.5352877084194
1073.3705418091415
1072.2792740843045
1073.3705419357543
1076.5352879579293
1081.4518647151717
1087.6049983686
1094.3203481438975
1100.823765850438
1106.3373412889152
1110.2257388068083
1112.2191556637613
1112.2191556922824
1110.225738885364
1106.337341424893
1100.8237660463367
1094.3203484005403
1087.6049986849714
1081.451865089117
1076.5352883869027
1073.3705424146922
1072.2792746062382
1073.3705423651109
1076.5352882891266
1081.4518649455931
1087.6049984975582
1094.3203481709072
1100.8237657756772
1106.337341113025
1110.2257385334724
1112.2191553064215
1112.2191751405708
1110.2257675989065
1106.3373777580828
1100.8238094350702
1094.3203988821308
1087.6050564120085
1081.4519297940985
1076.5353591628138
1073.3706173836974
1072.2793508036932
1073.3706172476332
1076.5353588917849
1081.4519293909925
1087.6050558824752
1094.320398233162
1100.823808674134
1106.3373768950396
1110.225766644601
1112.2191741135462
1112.219174098627
1110.2257666045737
1106.3373768244726
1100.8238085706134
1094.320398095326
1087.6050557096416
1081.4519291819206
1076.535358645377
1073.3706169643483
1072.2793504840733
1073.3706170279993
1076.5353587713025
1081.4519293676533
1087.6050559528178
1094.3203983934602
1100.8238089204312
1106.3373772213602
1110.225767043136
1112.2191745716498
1112.219174625562
1110.2257671876928
1106.3373774716895
1100.8238092823544
1094.3203988679577
1087.6050565383746
1081.4519300606962
1076.5353595673569
1073.370617923879
1072.2793514772914
1073.370618050494
1076.5353598168667
1081.451930427534
1087.6050570167424
1094.3203994526602
1100.8238099677908
1106.3373782524707
1110.2257680559703
1112.219175566615
1112.2191755951364
1110.2257681345245
1106.3373783884454
1100.8238101636898
1094.320399709301
1087.6050573331156
1081.4519308014815
1076.5353602458406
1073.3706185294322
1072.2793519992263
1073.3706184798514
1076.535360148064
1081.451930657956
1087.6050571457015
1094.320399479671
1100.8238098930285
1106.3373780765803
1110.2257677826321
1112.219175209279
1112.610938704014
1112.6109389583735
1112.610938729601
1112.610937634518
1112.6109378888789
1112.6109376601094
1112.6109381272347
1112.6109383815954
1112.6109381528252
1112.6109391100242
1112.610939364385
1112.6109391356154
1110.7105173939403
1104.6281177568571
1093.6310488773624
1078.8870241237698
1062.16830259672
1045.39336759752
1030.343015899347
1018.4958875071496
1010.943694534948
1008.3518459343031
1010.9436945888136
1018.495887613565
1030.3430160549774
1045.3933677977477
1062.1683028386656
1078.887024407859
1093.631049203628
1104.6281181245865
1110.7105177992548
1104.62811762748
1085.923497606701
1054.479202507044
1013.6143261435698
968.066936728542
922.8672795586145
882.6269847812671
851.1250434641522
831.1165251635147
824.2623127994486
831.1165252286328
851.1250435923503
882.626984966287
922.8672797938871
968.0669370082776
1013.6143264666375
1054.4792028723557
1085.9234980122737
1104.6281180694336
1093.6310486027735
1054.4792023484242
991.1118039438148
909.8965723946303
819.7574297142419
730.39401478051
650.8445062071252
588.5780976718025
549.0349221544899
535.4917739215466
549.0349222366126
588.578097830867
650.8445064350138
730.3940150681475
819.7574300552468
909.8965727796433
991.1118043650282
1054.4792028021302
1093.6310490850267
1078.887023698682
1013.6143258148091
909.8965722135204
777.5972987668772
630.4206831518691
483.9049535526475
353.00517818747056
250.2888245498277
184.9773750203749
162.59110745811483
184.97737512221565
250.28882474765427
353.0051784701955
483.9049539071034
630.4206835641138
777.5972992234908
909.896572700826
1013.6143263245472
1078.8870242250816
1062.1683020223766
968.0669362294628
819.7574293420503
630.4206829500041
418.1803364898993
204.75401691023941
12.499489856800993
-139.21009487383827
-235.98624100031998
-269.1870770477352
-235.9862408747493
-139.21009463147573
12.499490200458467
204.7540173358477
418.180336977558
630.4206834800773
819.7574298968924
968.066936795656
1062.1683025931773
1045.3933668784089
922.8672788932985
730.3940142166126
483.9049531391431
204.7540166885502
-80.55895165319376
-341.8781147363709
-550.3426141315975
-684.2341307354583
-730.2884365436402
-684.2341305841355
-550.3426138429298
-341.87811433175904
-80.55895115808268
204.75401724876411
483.9049537395887
730.3940148334747
922.8672795107846
1045.3933674885736
1030.3430150409026
882.6269839553398
650.8445054557751
353.00517756113453
12.499489403419002
-341.87811497704075
-675.3422886490042
-948.1731064395741
-1125.4137756015273
-1187.015585663428
-1125.413775427692
-948.1731061085522
-675.3422881892193
-341.8781144198395
12.499490027151158
353.00517822089785
650.8445061242354
882.6269846140292
1030.3430156842185
1018.4958865188152
851.1250424866465
588.5780967414903
250.28882371549767
-139.2100955603498
-550.342614623076
-948.1731066979826
-1289.2986413460922
-1520.106155978274
-1599.9706176523457
-1520.1061557881553
-1289.2986409851203
-948.1731061948752
-550.342614015817
-139.21009488676538
250.28882442044375
588.5780974480527
851.1250431758548
1018.4958871853353
1010.943693427397
831.1165240459802
549.034921056082
184.9773739881401
-235.9862419132572
-684.2341314772098
-1125.4137761267357
-1520.1061562518078
-1814.1301235724206
-1925.1103581194836
-1814.130123374799
-1520.1061558724161
-1125.413775596227
-684.234130836399
-235.98624120588568
184.9773747232008
549.0349217877684
831.1165247536862
1010.9436941075016
1008.3518447199775
824.2623115554672
535.4917726708022
162.5911062440007
-269.1870781720657
-730.288437523593
-1187.0155864502062
-1599.9706182049656
-1925.1103584044654
-2083.153704744798
-1925.1103582001679
-1599.9706178127979
-1187.0155859061467
-730.2884368683077
-269.18707744873956
162.5911069942257
535.4917734147884
824.2623122723463
1008.3518454065241
1010.9436932818971
831.1165238751547
549.0349208533378
184.9773737499258
-235.98624218563037
-684.2341317792027
-1125.4137764542993
-1520.1061566027713
-1814.1301239356817
-1925.110358482043
-1814.1301237277592
-1520.1061562093846
-1125.4137759116259
-684.2341311260435
-235.98624146408096
184.97737449951987
549.0349215983232
831.1165245943826
1010.9436939710799
1018.4958862294222
851.1250421499278
588.5780963422283
250.28882324881755
-139.210096093145
-550.3426152142248
-948.1731073366302
-1289.2986420209543
-1520.1061566731878
-1599.9706183496075
-1520.1061564727597
-1289.2986416434924
-948.173106813242
-550.3426145821077
-139.21009539157993
250.28882398169705
588.5780970760643
851.1250428645272
1018.4958869179717
1030.3430146123792
882.6269834616016
650.844504873559
353.0051768832753
12.499488633518226
-341.8781158284246
-675.3422895646619
-948.1731073988458
-1125.4137765840624
-1187.0155866509992
-1125.413776402349
-948.1731070518844
-675.3422890792552
-341.87811523732984
12.499489295940492
353.0051775842326
650.8445055833364
882.6269841598926
1030.3430152931094
1045.3933663176315
922.8672782534112
730.3940134683206
483.9049522749518
204.75401571420892
-80.55895272270457
-341.878115880253
-550.3426153255169
-684.2341319548414
-730.2884377697135
-684.234131798028
-550.3426150207071
-341.8781154484148
-80.5589521904448
204.75401632011497
483.904952927473
730.3940141407322
922.8672789252221
1045.3933669805817
1062.168301337134
968.066935453283
819.7574284468968
630.4206819284157
418.1803353508454
204.7540156714328
12.499488540959618
-139.21009624208952
-235.98624239717128
-269.18707845202323
-235.9862422651297
-139.21009598455043
12.499488910321991
204.75401613429358
418.18033588783123
630.4206825199292
819.757429072073
968.0669360924991
1062.1683019753496
1078.8870228979729
1013.6143249159898
909.8965711915539
777.5972976205567
630.4206818909425
483.90495219607743
353.00517675759914
250.28882306972017
184.97737351199024
162.5911059424354
184.97737362066405
250.2888232824004
353.0051770652964
483.90495258771557
630.4206823561066
777.5972981480516
909.8965717651391
1013.6143255153746
1078.8870235066638
1093.6310476980304
1054.4792013446804
991.1118028209866
909.896571156072
819.7574283736799
730.39401335541
650.8445047178088
588.5780961384867
549.0349205962144
535.4917723576291
549.0349206859833
588.5780963140317
650.8445049730816
730.3940136853732
819.757428774154
909.8965716211941
991.1118033382996
1054.4792018971239
1093.631048269453
1104.6281166320878
1085.92349651882
1054.4792013118386
1013.6143248485201
968.0669353483565
922.8672781096448
882.6269832788778
851.1250419251875
831.1165236037674
824.2623112369299
831.1165236802865
851.1250420739283
882.6269834963888
922.86727839319
968.0669356957574
1013.6143252565304
1054.4792017720752
1085.923497019102
1104.628117163542
1110.7105163224041
1104.628116604447
1093.6310476381375
1078.8870228047863
1062.168301208271
1045.39336615265
1030.343014410645
1018.49588598883
1010.9436930014796
1008.3518444002359
1010.9436930687677
1018.4958861211516
1030.3430146053283
1045.3933664067447
1062.168301520044
1078.8870231710655
1093.6310480539587
1104.6281170616378
1110.710516815606
1110.7105475185128
1104.628152697899
1093.6310899785599
1078.88707058706
1062.168354277584
1045.3934241605066
1030.3430770161556
1018.4959522568697
1010.9437616406651
1008.3519145142166
1010.943761694532
1018.4959523632854
1030.3430771717863
1045.3934243607325
1062.1683545195335
1078.8870708711454
1093.6310903048266
1104.628153065625
1110.710547923828
1104.6281525685188
1085.923536815382
1054.4792460511658
1013.6143740012004
968.0669886848135
922.8673356966683
882.6270444614919
851.1251066182616
831.1165911275654
824.2623769167657
831.1165911926842
851.1251067464593
882.6270446465116
922.8673359319391
968.0669889645491
1013.6143743242668
1054.4792464164761
1085.923537220959
1104.6281530104725
1093.6310897039718
1054.4792458925442
991.1118506202347
909.8966219135633
819.7574824246333
730.394069930697
650.8445652746576
588.578158940603
549.0349831770326
535.4918480308799
549.0349832591552
588.5781590996681
650.8445655025474
730.3940702183347
819.757482765636
909.8966222985761
991.1118510414461
1054.4792463462518
1093.631090186221
1078.8870701619678
1013.6143736724405
909.896621732454
777.5973503136179
630.420735664004
483.90500969439086
353.00523363188796
250.28888542148724
184.9774512505351
162.59112994418547
184.9774513523759
250.28888561931302
353.0052339146137
483.90501004884703
630.4207360762481
777.5973507702324
909.8966222197595
1013.614374182177
1078.8870706883688
1062.1683537032409
968.0669881857353
819.7574820524409
630.4207354621401
418.18039166131837
204.75406700412506
12.499551009329162
-139.21003437388967
-235.986230190185
-269.18681369036454
-235.98623006461426
-139.21003413152656
12.499551352986352
204.75406742973388
418.18039214897664
630.4207359922134
819.757482607281
968.0669887519283
1062.1683542740464
1045.393423441398
922.8673350313487
730.3940693667998
483.9050092808846
204.7540667824361
-80.55888917667826
-341.87808039045643
-550.3425773417139
-684.2338138657984
-730.2892246079431
-684.2338137144762
-550.3425770530467
-341.8780799858449
-80.55888868156632
204.75406734264945
483.9050098813315
730.3940699836642
922.8673356488358
1045.393424051562
1030.3430761577065
882.6270436355668
650.8445645233081
353.0052330055515
12.499550555946783
-341.8780806311262
-675.3422263033685
-948.1729439050429
-1125.4147978446704
-1187.0115468775352
-1125.4147976708327
-948.1729435740208
-675.342225843584
-341.8780800739246
12.499551179679726
353.00523366531564
650.8445651917674
882.6270442942555
1030.343076801025
1018.4959512685373
851.1251056407551
588.5781580102912
250.28888458715673
-139.21003506040088
-550.3425778331929
-948.1729441634528
-1289.2995515146117
-1520.101213338351
-1599.9876804373496
-1520.1012131482325
-1289.2995511536399
-948.172943660343
-550.3425772259353
-139.21003438681603
250.28888529210224
588.5781587168543
851.1251063299621
1018.4959519350559
1010.943760533112
831.1165900100303
549.0349820786238
184.9774502183007
-235.9862311031222
-684.2338146075497
-1125.4147983698751
-1520.1012136118873
-1814.153756344062
-1925.0293198177012
-1814.1537561464454
-1520.1012132324972
-1125.414797839369
-684.2338139667397
-235.98623039574957
184.9774509533616
549.034982810312
831.1165907177359
1010.9437612132172
1008.3519132998916
824.2623756727802
535.4918467801373
162.59112873007072
-269.18681481469474
-730.2892255878962
-1187.0115476643132
-1599.9876809899697
-1925.0293201026766
-2083.477660280202
-1925.0293198983811
-1599.9876805977988
-1187.011547120254
-730.2892249326085
-269.18681409136815
162.59112948029667
535.4918475241227
824.2623763896621
1008.3519139864379
1010.9437603876116
831.1165898392059
549.0349818758784
184.9774499800864
-235.98623137549563
-684.2338149095426
-1125.4147986974428
-1520.1012139628472
-1814.153756707328
-1925.0293201802592
-1814.1537564993976
-1520.1012135694627
-1125.414798154766
-684.2338142563825
-235.98623065394443
184.97745072968172
549.0349826208634
831.1165905584354
1010.943761076794
1018.4959509791406
851.1251053040365
588.5781576110305
250.28888412047579
-139.21003559319618
-550.3425784243412
-948.1729448020984
-1289.2995521894757
-1520.1012140332605
-1599.9876811346132
-1520.101213832838
-1289.2995518120115
-948.1729442787116
-550.342577792225
-139.2100348916315
250.28888485335543
588.5781583448646
851.1251060186347
1018.4959516676922
1030.3430757291874
882.6270431418259
650.8445639410904
353.0052323276921
12.499549786045897
-341.87808148251105
-675.3422272190263
-948.1729448643146
-1125.4147988272034
-1187.0115478651046
-1125.414798645489
-948.1729445173532
-675.3422267336194
-341.8780808914161
12.499550448468355
353.0052330286503
650.8445646508699
882.6270438401149
1030.3430764099169
1045.3934228806188
922.8673343914594
730.3940686185092
483.90500841669433
204.75406580809414
-80.55889024618837
-341.8780815343402
-550.3425785356327
-684.233815085182
-730.2892258340166
-684.2338149283682
-550.3425782308253
-341.8780811025016
-80.55888971393037
204.7540664140013
483.90500906921505
730.3940692909222
922.8673350632705
1045.3934235435672
1062.1683530179985
968.0669874095556
819.7574811572854
630.4207344405486
418.1803905222641
204.75406576531756
12.499549693487724
-139.21003574214126
-235.9862315870369
-269.1868150946531
-235.98623145499639
-139.210035484604
12.499550062848982
204.75406622817863
418.1803910592482
630.4207350320627
819.7574817824603
968.0669880487691
1062.1683536562177
1078.8870693612605
1013.6143727736203
909.8966207104858
777.5973491672995
630.4207344030764
483.9050083378192
353.0052322020166
250.2888839413779
184.97744974214993
162.59112842850533
184.97744985082355
250.28888415405774
353.0052325097118
483.90500872945864
630.4207348682405
777.597349694795
909.8966212840685
1013.614373373008
1078.8870699699492
1093.6310887992317
1054.4792448887977
991.1118494974082
909.8966206750024
819.7574810840696
730.3940685055975
650.8445637853403
588.5781574072864
549.0349816187547
535.4918464669623
549.0349817085228
588.5781575828319
650.8445640406145
730.3940688355594
819.7574814845412
909.8966211401234
991.1118500147211
1054.4792454412432
1093.6310893706511
1104.6281515731264
1085.923535727504
1054.4792448559572
1013.6143727061524
968.066987304627
922.8673342476947
882.6270429591033
851.1251050792941
831.1165895678182
824.2623753542448
831.116589644336
851.1251052280348
882.6270431766128
922.8673345312422
968.0669876520275
1013.6143731141627
1054.4792453161947
1085.9235362277866
1104.6281521045796
1110.710546446978
1104.6281515454855
1093.6310887393342
1078.8870692680762
1062.1683528891379
1045.393422715636
1030.3430755274508
1018.4959507385487
1010.943760107194
1008.3519129801456
1010.943760174483
1018.4959508708708
1030.3430757221327
1045.3934229697302
1062.1683532009113
1078.8870696343517
1093.6310891551573
1104.6281520026773
1110.7105469401797
1112.2205037028646
1112.2209582652438
1112.220513651818
1110.230288327517
1110.231811846085
1110.2303029525797
1106.347660277017
1106.3511076599764
1106.3476787586158
1100.841533978579
1100.8474647177268
1100.8415560372853
1094.3463698754133
1094.3550519870505
1094.3463955298646
1087.6391426600035
1087.650532550201
1087.6391719838919
1081.493192084185
1081.5069766914512
1081.493224940223
1076.5822096655995
1076.5978594621602
1076.5822455965217
1073.4210047797408
1073.4378352878718
1073.4210428255801
1072.3309485792518
1072.3481830502183
1072.330987315855
1073.421004643682
1073.437835151817
1073.4210426895233
1076.582209394585
1076.597859191151
1076.5822453255091
1081.493191681102
1081.506976288374
1081.493224537138
1087.6391421304916
1087.6505320206984
1087.639171454383
1094.346369226475
1094.3550513381226
1094.3463948809253
1100.8415332176744
1100.847463956833
1100.8415552763815
1106.3476594140113
1106.351106796981
1106.3476778956074
1110.2302873732388
1110.2318108918191
1110.2303019983049
1112.220502675887
1112.2209572382778
1112.220512624836
1112.2205026609545
1112.2209572233405
1112.2205126099022
1110.2302873332037
1110.2318108517807
1110.230301958269
1106.347659343432
1106.3511067263998
1106.34767782503
1100.841533114147
1100.8474638533023
1100.8415551728535
1094.3463690886338
1094.3550512002776
1094.3463947430819
1087.6391419576535
1087.6505318478582
1087.6391712815434
1081.4931914720237
1081.5069760792935
1081.493224328061
1076.5822091481728
1076.5978589447375
1076.582245079095
1073.4210043603982
1073.4378348685314
1073.4210424062378
1072.3309482596312
1072.3481827305977
1072.330986996235
1073.4210044240463
1073.437834932178
1073.4210424698847
1076.5822092740932
1076.597859070656
1076.5822452050159
1081.4931916577502
1081.5069762650176
1081.4932245137863
1087.6391422008198
1087.6505320910214
1087.63917152471
1094.346369386756
1094.3550514983972
1094.3463950412054
1100.84153346395
1100.8474642031017
1100.8415555226572
1106.347659740305
1106.3511071232672
1106.3476782219034
1110.2302877717502
1110.2318112903229
1110.230302396817
1112.2205031339565
1112.2209576963369
1112.2205130829054
1112.2205031879198
1112.2209577503177
1112.2205131368707
1110.2302879163428
1110.231811434925
1110.2303025414062
1106.347659990663
1106.3511073736356
1106.3476784722616
1100.841533825896
1100.847464565054
1100.8415558846018
1094.3463698612682
1094.355051972914
1094.3463955157179
1087.6391427863862
1087.6505326765914
1087.639172110277
1081.493192350797
1081.5069769580662
1081.4932252068336
1076.5822100701446
1076.5978598667075
1076.5822460010686
1073.4210053199197
1073.4378358280505
1073.4210433657593
1072.3309492528376
1072.348183723801
1072.3309879894425
1073.421005446525
1073.4378359546533
1073.4210434923652
1076.5822103196401
1076.5978601161978
1076.582246250565
1081.4931927176142
1081.5069773248767
1081.493225573651
1087.6391432647322
1087.6505331549288
1087.6391725886212
1094.3463704459425
1094.3550525575804
1094.3463961003936
1100.841534511305
1100.847465250455
1100.841556570012
1106.3476607714144
1106.3511081543772
1106.3476792530132
1110.2302887845883
1110.2318123031623
1110.2303034096544
1112.2205041289328
1112.2209586913166
1112.2205140778824
1112.2205041574816
1112.2209587198752
1112.220514106432
1110.2302888631616
1110.2318123817408
1110.2303034882266
1106.3476609074064
1106.351108290373
1106.3476793890038
1100.8415347072137
1100.8474654463676
1100.8415567659213
1094.3463707025949
1094.3550528142353
1094.3463963570434
1087.6391435811083
1087.6505334713074
1087.6391729049994
1081.493193091563
1081.5069776988266
1081.4932259476013
1076.582210748614
1076.5978605451724
1076.5822466795378
1073.421005925461
1073.437836433589
1073.4210439713022
1072.3309497747666
1072.3481842457281
1072.3309885113713
1073.4210058758836
1073.437836384013
1073.4210439217245
1076.582210650845
1076.5978604474053
1076.5822465817694
1081.493192948048
1081.5069775553152
1081.4932258040853
1087.6391433937056
1087.6505332839079
1087.6391727175962
1094.3463704729716
1094.3550525846154
1094.346396127423
1100.8415344365656
1100.847465175721
1100.8415564952707
1106.3476605955507
1106.3511079785224
1106.3476790771497
1110.2302885112827
1110.231812029865
1110.2303031363465
1112.2205037716403
1112.220958334042
1112.2205137205938
1110.7144090288948
1110.7157119054177
1110.7144240894054
1104.6355785720766
1104.6380715852881
1104.6355960431697
1093.6433843357354
1093.6475033108447
1093.6434048854699
1078.905428922142
1078.911571228606
1078.905452153865
1062.193406242114
1062.2017820079066
1062.1934320823318
1045.4251251259807
1045.4357192092664
1045.425153407873
1030.380716549264
1030.3932921146372
1030.3807471082812
1018.5382551143995
1018.5523866968398
1018.5382874868632
1010.9890325579976
1011.0041545303544
1010.9890661312301
1008.3982015780512
1008.413662966828
1008.3982357985009
1010.989032611861
1011.0041545842179
1010.9890661850941
1018.5382552208114
1018.5523868032512
1018.5382875932756
1030.380716704889
1030.3932922702602
1030.380747263906
1045.425125326201
1045.435719409484
1045.4251536080928
1062.1934064840489
1062.2017822498387
1062.1934323242697
1078.9054292062206
1078.9115715126786
1078.9054524379405
1093.643384661991
1093.647503637098
1093.643405211726
1104.635578939798
1104.6380719530046
1104.6355964108889
1110.7144094342098
1110.7157123107352
1110.714424494722
1104.6355784426748
1104.6380714558775
1104.6355959137654
1085.9339399785285
1085.9374270027429
1085.9339595833483
1054.4929136653382
1054.497491263204
1054.4929354376109
1013.6318386583059
1013.6376836823043
1013.6318625872304
968.0887529278657
968.0960330514268
968.088778906189
922.8935555064537
922.9023225995817
922.8935835751347
882.6574048406134
882.6675536891097
882.657434679433
851.1588109526805
851.1700760150466
851.1588425387134
831.152463395387
831.1644524218128
831.152496321366
824.299003998406
824.3112436459621
824.2990362573088
831.1524634605038
831.1644524869288
831.1524963864832
851.1588110808767
851.1700761432421
851.1588426669092
882.657405025631
882.6675538741265
882.6574348644513
922.8935557417207
922.9023228348469
922.8935838103997
968.0887532075923
968.0960333311499
968.0887791859154
1013.6318389813642
1013.6376840053599
1013.6318629102877
1054.4929140306433
1054.4974916285055
1054.4929358029158
1085.9339403840993
1085.9374274083143
1085.9339599889206
1104.6355788846352
1104.6380718978387
1104.6355963557262
1093.6433840611191
1093.6475030362194
1093.6434046108548
1054.4929135067052
1054.4974911045658
1054.492935278977
991.1263292612763
991.1311790115063
991.1263525991081
909.9118072724722
909.9168936739703
909.911832032078
819.7737573851974
819.7792083686248
819.7737837401189
730.4119104657431
730.4178841400138
730.411938040781
650.8642213422368
650.8708018130643
650.8642508804057
588.5995016193968
588.6066451637076
588.5995322239414
549.0575053358558
549.0650417398983
549.0575360119575
535.5147720884588
535.5224490367845
535.5148085454988
549.0575054179789
549.0650418220223
549.0575360940812
588.5995017784614
588.6066453227724
588.5995323830064
650.8642215701243
650.8708020409517
650.8642511082941
730.4119107533775
730.4178844276465
730.4119383284158
819.773757726202
819.7792087096298
819.7737840811225
909.9118076574841
909.9168940589819
909.9118324170902
991.1263296824861
991.1311794327156
991.1263530203166
1054.4929139604096
1054.4974915582698
1054.4929357326828
1093.643384543377
1093.647503518478
1093.64340509311
1078.9054284970277
1078.9115708034815
1078.905451728748
1013.6318383295239
1013.637683353516
1013.6318622584489
909.9118070913522
909.9168934928471
909.9118318509587
777.6093860842291
777.613423766093
777.6094118574762
630.4297345680144
630.4327604948136
630.4297608239625
483.9119124831004
483.91424120521253
483.91194055647134
353.01107024442484
353.01304299998907
353.0110979499814
250.29443054704578
250.29630852499878
250.29446107518825
184.98301762235437
184.98491034913422
184.98305526465023
162.59684048060714
162.59875408641878
162.59685344220046
184.9830177241961
184.98491045097595
184.98305536649184
250.2944307448743
250.29630872282806
250.29446127301637
353.0110705271529
353.0130432827179
353.01109823271
483.91191283755984
483.91424155967366
483.9119409109309
630.4297349802625
630.4327609070625
630.4297612362105
777.6093865408482
777.6134242227141
777.6094123140953
909.9118075786612
909.9168939801565
909.9118323382677
1013.6318388392629
1013.6376838632555
1013.6318627681877
1078.9054290234315
1078.911571329886
1078.905452255152
1062.1934056677478
1062.2017814335327
1062.1934315079652
968.0887524287651
968.0960325523187
968.0887784070887
819.773757012988
819.7792079964096
819.7737833679095
630.4297343661409
630.4327602929371
630.4297606220895
418.1813403458061
418.18168482603437
418.1813679339942
204.7480290030252
204.74604185237732
204.74805403681435
12.488841061960068
12.48530152323526
12.488871697314524
-139.22350884238466
-139.22797042896238
-139.22347886246467
-236.00079650883987
-236.005647498186
-236.00078981873435
-269.20216419068214
-269.20714958956853
-269.20203717767333
-236.0007963832667
-236.00564737261178
-236.000789693161
-139.22350860001657
-139.22797018659247
-139.22347862009636
12.488841405625491
12.485301866903391
12.488872040979917
204.7480294286424
204.74604227799745
204.74805446243187
418.181340833474
418.18168531370515
418.18136842166155
630.4297348962222
630.4327608230208
630.4297611521707
819.7737575678377
819.779208551262
819.773783922758
968.0887529949634
968.0960331185187
968.088778973286
1062.193406238553
1062.2017820043409
1062.193432078774
1045.4251244068523
1045.4357184901332
1045.425152688747
922.8935548411143
922.9023219342339
922.8935829097933
730.4119099018241
730.4178835760875
730.4119374768619
483.9119120695792
483.91424079168513
483.911940142949
204.7480287813279
204.74604163067727
204.74805381511723
-80.57832308624535
-80.58476775956582
-80.57829179509334
-341.90779559949465
-341.91768261521986
-341.9077786208012
-550.3778250290685
-550.3895559581632
-550.3778058912741
-684.2725727885276
-684.2853340606044
-684.2724175789718
-730.3267505772126
-730.339655517479
-730.3271329656715
-684.2725726371975
-684.2853339092726
-684.2724174276425
-550.3778247403903
-550.3895556694814
-550.377805602596
-341.9077951948707
-341.9176822105921
-341.9077782161776
-80.57832259112104
-80.58476726443689
-80.57829129996846
204.74802934155568
204.74604219090955
204.74805437534468
483.911912670039
483.91424139215064
483.9119407434098
730.4119105186975
730.4178841929644
730.4119380937368
922.893555458608
922.9023225517307
922.8935835272872
1045.4251250170184
1045.4357191002996
1045.4251532989128
1030.3807156908042
1030.3932912561702
1030.3807462498178
882.6574040146658
882.6675528631561
882.6574338534867
650.8642205908632
650.8708010616834
650.8642501290329
353.01106961806715
353.0130423736239
353.01109732362335
12.488840608562747
12.485301069832914
12.48887124391705
-341.9077958401721
-341.91768285589995
-341.90777886147856
-675.3913771750416
-675.4077241653242
-675.391345400822
-948.2344271192734
-948.2548404158637
-948.234347747944
-1125.4784112777284
-1125.5001276703708
-1125.4789152135902
-1187.084701781155
-1187.1070651697073
-1187.082707851226
-1125.4784111038834
-1125.5001274965214
-1125.4789150397428
-948.2344267882354
-948.2548400848199
-948.2343474169061
-675.3913767152387
-675.4077237055153
-675.3913449410192
-341.90779528295326
-341.9176822986753
-341.9077783042597
12.488841232312808
12.485301693589111
12.488871867667646
353.0110702778479
353.01304303341044
353.01109798340445
650.8642212593357
650.8708017301598
650.8642507975044
882.6574046733623
882.6675535218546
882.657434512183
1030.380716334122
1030.3932918994901
1030.380746893138
1018.5382541260544
1018.5523857084922
1018.5382864985204
851.158809975155
851.170075037515
851.1588415611875
588.5995006890599
588.6066442333621
588.5995312936046
250.29442971269054
250.29630769063547
250.2944602408328
-139.22350952891802
-139.22797111550315
-139.223479548998
-550.3778255205629
-550.3895564496627
-550.3778063827684
-948.2344273776885
-948.2548406742815
-948.2343480063603
-1289.3882879037121
-1289.4183071443695
-1289.3887384099528
-1520.2076293109237
-1520.2406356533968
-1520.2051712233192
-1600.0653050513504
-1600.0997175195328
-1600.0737925161454
-1520.2076291207927
-1520.2406354632615
-1520.2051710331896
-1289.3882875427241
-1289.4183067833762
-1289.3887380489643
-948.2344268745585
-948.254840171143
-948.2343475032288
-550.3778249132822
-550.3895558423748
-550.3778057754887
-139.22350885531276
-139.22797044189085
-139.22347887539246
250.29443041765444
250.296308395605
250.29446094579654
588.599501395636
588.6066449399435
588.5995320001812
851.1588106643698
851.1700757267313
851.1588422504012
1018.5382547925748
1018.5523863750124
1018.5382871650386
1010.989031450441
1011.0041534227962
1010.989065023672
831.152462277835
831.1644513042543
831.1524952038136
549.0575042374219
549.0650406414563
549.0575349135236
184.98301659009167
184.98490931686206
184.98305423238767
-236.00079742180418
-236.00564841115906
-236.0007907316985
-684.2725735303021
-684.2853348023868
-684.2724183207469
-1125.4784118029522
-1125.500128195599
-1125.4789157388107
-1520.2076295844643
-1520.2406359269394
-1520.2051714968618
-1814.280505585155
-1814.334538438635
-1814.2923005721582
-1925.2722328335647
-1925.3127200394993
-1925.2317625840985
-1814.280505387529
-1814.3345382410096
-1814.2923003745339
-1520.2076292050588
-1520.2406355475296
-1520.2051711174572
-1125.4784112724221
-1125.5001276650628
-1125.478915208283
-684.2725728894661
-684.2853341615423
-684.272417679911
-236.00079671440972
-236.0056477037569
-236.00079002430337
184.98301732517146
184.98491005194842
184.98305496746747
549.0575049691217
549.0650413731605
549.0575356452243
831.1524629855465
831.164452011968
831.1524959115254
1010.9890321305429
1011.0041541028968
1010.9890657037743
1008.398200363722
1008.4136617524988
1008.3982345841729
824.2990027544078
824.3112424019573
824.2990350133088
535.5147708376888
535.5224477860063
535.5148072947295
162.59683926646176
162.59875287226285
162.59685222805484
-269.20216531504474
-269.20715071394187
-269.2020383020357
-730.326751557194
-730.3396564974703
-730.3271339456535
-1187.0847025679573
-1187.1070659565178
-1187.0827086380284
-1600.0653056039907
-1600.0997180721802
-1600.0737930687865
-1925.2722331185569
-1925.312720324494
-1925.2317628690878
-2083.4261744448054
-2083.570781424161
-2083.5880912025023
-1925.2722329142507
-1925.312720120185
-1925.231762664783
-1600.0653052118018
-1600.099717679983
-1600.0737926765955
-1187.0847020238766
-1187.1070654124296
-1187.0827080939464
-730.3267509018843
-730.3396558421521
-730.3271332903424
-269.20216459169416
-269.20714999058333
-269.2020375786853
162.5968400167066
162.59875362251444
162.59685297830023
535.5147715816886
535.5224485300103
535.5148080387286
824.2990034712911
824.3112431188426
824.299035730193
1008.3982010502646
1008.4136624390388
1008.3982352707142
1010.9890313049473
1011.0041532773033
1010.9890648781778
831.1524621070103
831.1644511334299
831.1524950329888
549.0575040346761
549.0650404387095
549.0575347107771
184.98301635187286
184.98490907864198
184.98305399416896
-236.00079769418403
-236.00564868354144
-236.0007910040788
-684.2725738323014
-684.2853351043879
-684.2724186227454
-1125.4784121305247
-1125.5001285231751
-1125.4789160663865
-1520.2076299354428
-1520.240636277922
-1520.2051718478372
-1814.2805059484342
-1814.3345388019236
-1814.2923009354413
-1925.2722331961393
-1925.3127204020784
-1925.2317629466722
-1814.2805057404983
-1814.334538593982
-1814.2923007275003
-1520.207629542035
-1520.2406358845067
-1520.2051714544316
-1125.4784115878272
-1125.5001279804692
-1125.4789155236863
-684.2725731791176
-684.2853344511959
-684.2724179695615
-236.0007969726108
-236.00564796195994
-236.00079028250443
184.98301710148695
184.984909828263
184.98305474378375
549.0575047796748
549.0650411837125
549.0575354557752
831.1524628262432
831.1644518526654
831.1524957522234
1010.9890319941227
1011.0041539664766
1010.9890655673534
1018.5382538366704
1018.5523854191114
1018.5382862091333
851.1588096384389
851.1700747007986
851.1588412244711
588.5995002897944
588.6066438340965
588.5995308943401
250.29442924600266
250.29630722394478
250.29445977414454
-139.22351006172607
-139.2279716483154
-139.22348008180586
-550.3778261117272
-550.3895570408326
-550.3778069739335
-948.2344280163541
-948.2548413129521
-948.2343486450242
-1289.3882885785981
-1289.418307819264
-1289.3887390848404
-1520.2076300058616
-1520.2406363483408
-1520.2051719182548
-1600.0653057486377
-1600.0997182168296
-1600.0737932134336
-1520.2076298054208
-1520.240636147896
-1520.205171717817
-1289.3882882011164
-1289.4183074417765
-1289.3887387073578
-948.2344274929437
-948.2548407895341
-948.2343481216149
-550.3778254795865
-550.3895564086837
-550.3778063417925
-139.22350936013757
-139.22797094671915
-139.22347938021778
250.29442997890033
250.29630795684827
250.2944605070423
588.5995010236437
588.6066445679497
588.5995316281885
851.1588103530452
851.170075415407
851.1588419390764
1018.5382545252195
1018.5523861076593
1018.5382868976828
1030.3807152622946
1030.3932908276663
1030.3807458213116
882.6574035209319
882.6675523694234
882.6574333597526
650.8642200086425
650.8708004794606
650.8642495468109
353.0110689401966
353.01304169574945
353.0110966457528
12.48883983864435
12.485300299908548
12.488870473998505
-341.90779669158
-341.9176837073161
-341.9077797128869
-675.3913780907272
-675.4077250810194
-675.3913463165079
-948.2344280785728
-948.2548413751717
-948.2343487072437
-1125.4784122602914
-1125.500128652943
-1125.4789161961517
-1187.0847027687525
-1187.1070661573133
-1187.0827088388223
-1125.4784120785682
-1125.5001284712157
-1125.4789160144278
-948.2344277315964
-948.2548410281904
-948.2343483602672
-675.3913776053002
-675.4077245955864
-675.3913458310809
-341.90779610046405
-341.9176831161931
-341.907779121771
12.488840501087058
12.485300962358181
12.488871136441363
353.0110696411731
353.0130423967325
353.01109734672974
650.8642207184338
650.8708011892569
650.864250256603
882.6574042192293
882.6675530677227
882.6574340580486
1030.380715943025
1030.3932915083974
1030.380746502042
1045.4251238460897
1045.4357179293752
1045.425152127984
922.8935542012348
922.9023212943569
922.8935822699123
730.4119091535279
730.4178828277899
730.4119367285665
483.91191120537337
483.91423992747565
483.9119392787444
204.74802780696433
204.74604065630623
204.74805284075333
-80.57832415578447
-80.58476882911405
-80.57829286463182
-341.90779674341013
-341.91768375914694
-341.9077797647179
-550.3778262230225
-550.3895571521283
-550.3778070852272
-684.2725740079414
-684.2853352800288
-684.2724187983868
-730.3267518033176
-730.3396567435947
-730.3271341917767
-684.272573851125
-684.2853351232117
-684.2724186415703
-550.377825918202
-550.3895568473048
-550.3778067804084
-341.90779631155766
-341.9176833272896
-341.9077793328652
-80.57832362350979
-80.58476829683487
-80.57829233235825
204.74802841288647
204.74604126223397
204.7480534466761
483.911911857911
483.9142405800179
483.91193993128155
730.4119098259517
730.417883500218
730.4119374009915
922.8935548730506
922.9023219661751
922.8935829417288
1045.4251245090434
1045.4357185923295
1045.4251527909357
1062.1934049825234
1062.2017807483137
1062.193430822741
968.0887516525912
968.0960317761469
968.0887776309147
819.7737561178292
819.7792071012489
819.7737824727487
630.4297333445347
630.4327592713247
630.429759600482
418.18133920672784
418.1816836869475
418.18136679491533
204.7480277641884
204.74604061353003
204.74805279797698
12.488839746085365
12.485300207349619
12.488870381439797
-139.22351021067104
-139.22797179726058
-139.22348023075125
-236.00079790572676
-236.00564889508473
-236.00079121562146
-269.20216559500614
-269.2071509939045
-269.2020385819975
-236.00079777368364
-236.00564876304108
-236.00079108357866
-139.2235099531278
-139.22797153971644
-139.2234799732091
12.488840115454629
12.485300576720952
12.488870750808665
204.74802822705777
204.74604107640263
204.74805326084672
418.1813397437222
418.1816842239442
418.1813673319089
630.4297339360579
630.4327598628516
630.4297601920055
819.7737567430152
819.7792077264369
819.7737830979333
968.088752291815
968.0960324153731
968.0887782701374
1062.1934056207433
1062.2017813865355
1062.1934314609637
1078.905427696337
1078.9115700027976
1078.9054509280588
1013.6318374307065
1013.6376824546988
1013.6318613596309
909.9118060693754
909.9168924708666
909.9118308289807
777.6093849378927
777.613422619751
777.6094107111397
630.4297333070625
630.4327592338532
630.4297595630101
483.9119111265009
483.91423984860336
483.91193919987114
353.0110688145221
353.01304157007564
353.01109652007887
250.2944290669051
250.29630704484677
250.2944595950465
184.98301611393606
184.9849088407047
184.98305375623184
162.5968389648932
162.59875257069334
162.59685192648624
184.98301622261002
184.9849089493783
184.98305386490543
250.2944292795859
250.29630725752807
250.2944598077276
353.01106912221934
353.0130418777724
353.01109682777457
483.91191151813933
483.914240240242
483.91193959151053
630.4297337722277
630.4327596990189
630.4297600281757
777.6093854653928
777.6134231472536
777.6094112386414
909.9118066429702
909.916893044464
909.9118314025745
1013.6318380301019
1013.6376830540992
1013.6318619590288
1078.9054283050357
1078.9115706114978
1078.9054515367552
1093.6433831563943
1093.6475021315025
1093.6434037061324
1054.4929125029605
1054.49749010082
1054.4929342752305
991.1263281384356
991.1311778886621
991.126351476268
909.911806033891
909.916892435382
909.9118307934964
819.773756044612
819.7792070280312
819.7737823995323
730.4119090406169
730.4178827148783
730.4119366156549
650.8642198528931
650.8708003237119
650.8642493910617
588.5995000860532
588.6066436303544
588.5995306905975
549.0575037775521
549.0650401815851
549.0575344536529
535.5147705245134
535.5224474728295
535.5148069815531
549.0575038673201
549.065040271353
549.0575345434205
588.5995002615958
588.606643805897
588.5995308661411
650.8642201081632
650.8708005789804
650.8642496463315
730.4119093705749
730.4178830448345
730.4119369456128
819.7737564450834
819.7792074285015
819.773782800002
909.9118064990178
909.9168929005087
909.9118312586214
991.126328655755
991.1311784059851
991.126351993588
1054.4929130554126
1054.4974906532757
1054.4929348276835
1093.6433837278232
1093.6475027029317
1093.6434042775584
1104.6355774472977
1104.638070460504
1104.6355949183876
1085.9339388906462
1085.9374259148608
1085.9339584954678
1054.4929124701168
1054.4974900679765
1054.4929342423882
1013.6318373632373
1013.6376823872297
1013.6318612921622
968.0887515476608
968.096031671215
968.0887775259836
922.893554057464
922.902321150586
922.8935821261434
882.6574033382062
882.6675521866973
882.6574331770272
851.1588094136974
851.170074476057
851.1588409997285
831.1524618356212
831.1644508620409
831.1524947616007
824.2990024358685
824.3112420834179
824.2990346947698
831.1524619121401
831.1644509385586
831.1524948381181
851.1588095624365
851.1700746247951
851.1588411484664
882.6574035557118
882.6675524042009
882.6574333945325
922.8935543410043
922.9023214341241
922.8935824096836
968.0887518950557
968.0960320186083
968.0887778733788
1013.6318377712444
1013.637682795237
1013.6318617001702
1054.492912930354
1054.497490528213
1054.4929347026248
1085.933939390928
1085.9374264151427
1085.9339589957506
1104.6355779787584
1104.6380709919674
1104.6355954498486
1110.7144079573586
1110.7157108338845
1110.7144230178728
1104.635577419652
1104.6380704328571
1104.6355948907426
1093.6433830964945
1093.647502071599
1093.6434036462297
1078.9054276031466
1078.9115699096053
1078.9054508348684
1062.1934048536548
1062.2017806194442
1062.1934306938747
1045.425123681104
1045.435717764387
1045.4251519629966
1030.380715060555
1030.3932906259254
1030.3807456195707
1018.5382535960754
1018.5523851785139
1018.5382859685392
1010.9890310245258
1011.0041529968815
1010.9890645977558
1008.398200043981
1008.4136614327557
1008.3982342644285
1010.9890310918125
1011.004153064169
1010.9890646650455
1018.5382537283939
1018.5523853108319
1018.5382861008578
1030.3807152552354
1030.393290820603
1030.3807458142487
1045.4251239351906
1045.4357180184722
1045.4251522170848
1062.193405165421
1062.2017809312072
1062.1934310056395
1078.9054279694162
1078.911570275872
1078.905451201137
1093.6433835123091
1093.6475024874119
1093.6434040620447
1104.6355778768352
1104.6380708900376
1104.6355953479263
1110.7144084505605
1110.715711327085
1110.7144235110732
SCALARS von_mises_stress float
LOOKUP_TABLE default
10719420840.812431
13088892739.278212
11560428340.305134
11233902296.487797
9585121904.663902
12457956892.52354
10833179238.418997
10340094015.857494
8698853942.349901
15657993101.254036
23728645496.066193
35768550942.42441
48746798924.28279
61729038893.795265
75318425200.20189
85642435315.35104
95022670891.41075
91741517929.44897
93070472322.87541
86319967918.29497
76987093596.3334
62790545039.11956
50676951089.201706
34640386057.65609
24930372466.279526
14063856617.990557
9002601286.988853
8753913306.027336
14364623718.4198
23952930416.657215
37461995660.83125
51201267289.26345
63621690443.6864
74301294633.11174
85490158908.69987
92717837824.95026
93216334479.50893
91894655488.47498
85834798089.77954
75685153522.9896
64031534867.222336
49152383084.9067
37999456139.38756
25026318233.46693
13397161649.398045
8005639703.260679
8188112042.067625
15575088138.543262
22636540166.923504
36918289011.75097
53110416787.49792
64802105603.13871
75352686239.5729
84075227407.13977
90216181273.64488
92791888565.75346
88467569103.35573
83623358714.02509
75664596158.13933
63819090151.14318
51093956545.12136
37065692730.821594
23389617008.051304
14111199074.300058
8496658209.457171
9281209877.817228
15652709139.697031
22110472183.755196
35727593100.429276
51123654970.84862
65267571113.8118
74857196726.51456
84659386519.08632
91832061097.4354
93116614743.65105
91204035830.61087
83016561667.94124
76439807976.7616
64421155405.12772
49357186686.250786
35314257808.09212
23111776617.21702
13488091614.907944
6494420030.133724
7025148601.925283
13955860669.10532
23426078234.731007
34459573028.563934
48596258975.438614
61529996354.4996
75089862071.28253
85049463819.826
93334534369.29552
90883597666.73422
91358257236.09789
84427001945.2846
76419577503.1363
62190039238.56773
50194429213.63316
34918959287.35077
23650936185.278316
12689188381.760489
8609567367.23527
6771857053.217709
15022797694.337374
22591856882.64939
35939944632.637886
51500177596.60402
63036809714.90687
75580145667.76729
86431707729.8015
91567883635.91272
92640813932.93822
92815119936.0145
86037681003.57645
77022107354.31264
65209258834.55522
50125852456.53062
37688995209.121994
24821511030.777027
12509356696.156998
6337489329.855467
8868248587.946297
15582790281.145119
23426246316.226585
37210632739.48856
51547627060.957664
65343779954.78347
74910873074.70082
84562457837.35039
90859987364.43396
93137622189.59698
90930348148.90024
84692280827.57817
76887558420.79425
64057377609.24125
50096051292.950966
36570682054.83761
24505255498.001884
14110421355.636229
7760618004.231477
7744382872.018071
15042218406.126738
22781962018.53943
35563787913.51428
49476296887.89543
65451912054.96147
75083971634.01648
85389731041.08293
90088614902.05203
93845972937.39159
91326822576.06071
84551231239.47313
76551218725.12856
63375172031.70507
49909148150.50803
35396131326.86123
23433027774.41079
13815081851.333305
7748960624.880179
5596726900.923257
556409363.5172421
4483995393.261192
6653111793.743119
309913186.14297163
6039675458.563421
5916927107.388911
359084861.59791225
5205179947.56132
5794089030.589295
439117658.1735158
4919122307.681031
5889400490.352338
10339038632.870619
18452031106.734035
26796391632.94394
36519216237.128716
47067817579.30756
56506898081.0404
63965910839.18168
66521277074.66367
69690667241.62271
66688470332.75761
63662686869.27544
55774652064.4215
45997900016.69954
37914316515.56578
26256315950.62623
16921076934.428513
11097547718.164528
6859455128.30895
11283425466.065739
15521494278.861683
20611431332.369495
25759064707.01944
30096229697.69014
38789066467.54975
43783692499.69989
48533597880.375015
52596520005.804886
53931611868.59764
53568349436.2143
49835251085.20213
43347457322.67716
38639052035.47959
31894536096.610847
24845594928.62233
19955075707.572655
14883901842.299826
10367942248.102556
16022295143.708279
20237684629.99809
21519337817.449112
22186475899.57764
23789572436.644
25264226186.132828
28343492836.478764
30143995515.873444
33077009513.32102
32640687681.92353
32503549033.11158
30634003485.031742
28337679838.97494
27815855246.278057
23571327316.90312
21922907988.477894
21786075959.000675
20064744116.007706
19314619417.17486
28499575810.737843
24849701976.099926
21946347456.716698
17292786607.57173
14484167669.748085
10835750558.837751
7954433449.082443
6396332256.4444275
7317674401.620492
6772899825.049617
6692012485.530719
7651400246.322761
8533350132.475129
9218777203.657846
12754815694.17813
18623853249.46918
22560805483.527424
24203229238.51695
27696076158.171715
37705300078.011086
31796442033.241943
24038681998.486668
15465010218.62358
1930790568.1044226
9673660748.797768
15353128476.247322
21063416479.909298
24038847046.5918
21872759563.469833
23642333369.363575
21123947292.6953
18420244526.442562
7035756726.556166
1197325616.4577293
14000224439.447678
22155173386.631313
32802472808.615143
37255260809.31197
47271681623.10644
38492943733.42651
25345377048.52002
10150541692.833597
8808710683.222109
29226013589.283203
45997635727.3311
54186506423.98135
56999682768.08085
59702476166.20498
58569345724.38805
53602362732.11937
44016191691.82479
28472421846.729374
8886568683.094332
10838451739.54183
26123456692.631874
39342287805.943436
45735398777.49366
56418582892.76459
42840915441.18046
27940981171.85788
7672472485.088275
16692446697.025925
44197637168.17262
72352424523.38354
92553735157.94398
98308303404.00917
101827197586.42207
99395133833.48055
92194365490.28697
71474700460.26863
44850439115.23042
16943275457.408022
7084387532.334206
29631570379.92495
43815030587.28534
55042148501.26971
61252219485.40665
49485457639.57156
31592514761.32822
7415772490.066895
18965172649.913998
52706268070.07922
92137444506.79417
131504720767.12604
152801550313.68823
146851611368.03986
152234975187.98822
131309428402.186
92413658011.32529
51901600681.15877
20161439147.772823
7631155483.506479
30226720305.93076
50522753277.707146
61065298998.75294
68059763942.221306
52316320652.10051
35051788492.67902
8210641480.889569
21878428077.82563
57797764710.70586
97858543386.52203
151256457288.6863
217263839252.29352
256772008961.1179
215613891484.7605
153589146014.04
99188906575.72897
57680597403.20704
22528574944.670586
7384728572.643308
32794831611.18837
54054926008.80449
67640693609.874214
68088478770.08921
53651381382.575775
33586059237.892185
6997449872.032673
23565196839.59133
59221845894.737305
103498038259.8109
145635130102.4239
255567375230.70984
283827650301.0375
255064194470.98184
146549494724.26642
104176259515.87518
57535516958.779785
22401044911.084415
7425263808.043964
32568763174.25168
53231671360.32373
68216407172.054665
67100273725.64233
52100466404.35527
32765205068.897057
7669523639.972879
21805600708.110676
57725236042.3191
98982936742.0235
151416213204.3165
216524860086.9498
256889507717.56238
215390247071.82025
151177282682.64374
97222636647.8643
57900214033.989975
23073065866.130047
8325314512.351333
33317802561.55164
52885075694.63896
67455044920.74213
63577530902.973564
49872951904.992905
30935618169.806557
8283605707.570977
21859517538.150856
55363280719.75513
92563393468.38962
131787383777.28975
152753857805.41397
145909029934.0973
151967434088.43402
130219324670.83376
92120593218.15001
52818327915.70668
20085171099.365128
8655187095.97357
30435446897.77109
48886121700.214485
62752148574.72657
55906378123.108025
43267180260.402855
29328325076.34141
8146975083.922828
16937734302.792753
44646311028.544014
72857440735.98856
91096631105.35324
98100723882.52019
103931999395.80421
98818134230.25818
91359667336.36134
71884681486.50125
43939030604.65026
16770913074.946222
7609795258.765715
30006588486.205402
44398973264.56988
55208678792.16616
47416318261.85292
38421477548.521164
25920464108.26397
10063273216.129025
8865614116.324024
27733179764.417854
44009461933.666794
54546854429.13414
57445946472.04303
58324317665.32689
58151268163.32437
53857304191.891495
45476251038.22295
27834343276.11308
8408813394.198967
9385321568.351656
24650907227.083458
38412799493.84664
47057721730.311264
36426815156.926735
31303153589.28013
23647843901.47092
13947635196.351055
143553892.22504142
8418216143.802846
16267166290.986479
20624632970.89825
21668337536.348385
22902507559.74705
22437449341.32042
20234025334.923748
16359616289.026577
8626678445.056604
1120248634.9862213
10993721727.577951
25653772378.802578
32397806738.20464
36006619951.980515
27194026740.109608
24865666787.29381
23448068069.337624
17201534432.402107
13288637155.710081
9924912215.008316
8511595705.06525
9057257709.662434
8485150248.477163
6917429471.267089
7679946633.655364
9887974735.362993
7692435663.802566
10091891555.111578
13299447869.651886
17590039068.587795
21287671209.51565
24992791907.95305
27392169721.06165
18206617266.005714
19486386699.73312
20546760344.308823
22782616680.58181
23849622368.579113
24700153156.156704
30218069602.409245
29977964052.460445
32821750889.735867
33758641213.302845
30981792313.78602
30865570490.458977
28753463001.6838
26792588315.389828
23856524656.816097
23051089743.65689
19844737570.51864
20505913879.544144
18380040983.508778
11014075295.918941
15792786256.932997
20295243878.810505
26286103729.815464
31491978007.741344
38665243730.65802
45363249224.907455
48994396640.637054
52447755717.32759
53271516787.24002
52788039320.45034
50054209329.44741
43843109294.822044
38345404714.829834
32175238277.33119
26269927145.74346
21514563971.634907
15004941956.157904
11551515210.171436
4945896455.759767
12412256734.835005
16816989599.800379
27447450585.13544
34608743844.050476
47004287464.40338
55561445439.12392
61254429527.525734
65488309343.580376
68719688855.83081
68193287097.94874
62500395123.19235
56512251830.99336
46383863781.30946
37959326937.56216
28426978923.88335
17611118504.808884
11968207627.045715
5564170760.681445
5527485246.729072
10568072286.017893
18583647405.86067
26521367217.154827
36534665803.86304
47153083655.282425
56510317825.27278
63526043610.89753
66622056381.457886
69149548407.46748
66961277163.78911
63991683239.89985
55486960729.34515
46148503769.23595
38596510821.93057
26110162823.568775
16894727408.053837
10689482001.22866
6782158596.545282
11030118783.218918
15043903058.352524
20272908922.21277
25164490843.47141
29904236180.8524
38000724684.65907
44562416933.242455
49025433451.84226
52801730002.44196
54756441143.26708
53427295957.34914
50376143678.90902
43261957447.08759
38483814085.59353
31763559752.178234
24958235234.369984
19928506359.860313
14865924855.627575
10076882653.455238
16558875679.909868
19739565964.43967
21902416088.849606
22420471058.297657
23850239259.65207
26008597190.185116
28233743567.846428
30294267724.360886
32567180783.40845
32105084412.98568
32371632594.68798
30372697675.83073
28404725551.41133
28219744859.510765
23252575263.77106
21602732965.504284
21752736864.054546
20450891559.653065
18707139747.805233
28491028586.301517
25061717840.835087
22061904883.55393
17689776881.69315
14167518707.376217
10444862236.701818
8420701104.201918
6308007653.24731
7087813420.635881
7246475442.20704
6650972537.984524
8141685975.597793
8335163769.574909
9447956287.091097
12821464127.557276
18826569386.282536
22912687455.615124
25055782498.957363
27306260567.31694
37682743619.83609
31724919162.545174
24584500746.309002
15508479229.73577
1895667147.201436
9388316517.06748
15619227245.331924
20600188107.325233
23644378728.85585
22046676625.371616
23383992677.31976
20892517721.407413
17905161039.202732
7378630474.828522
1139848141.9351578
14154496317.571913
22270506154.17221
32994161527.236786
37223416842.49624
47384912098.247475
38152472070.563255
24826016057.8523
10298686408.802603
8620371133.94201
28960045946.68337
45965978841.15697
53979220002.12145
57536847477.32806
59325591716.60836
58961266725.065414
53833722463.35565
43882122309.114586
28078362355.477436
8720224862.859922
10828984464.165577
25466344944.873253
39408148358.14725
45996685240.536476
55975177452.5921
43654882244.19667
27904923436.857212
8135375659.33448
16520816418.034626
44577112121.788795
72335017555.82468
92303262080.82956
98668033360.00543
101661928595.41545
99237410398.10168
92273168095.53586
71476934186.87956
44631118250.24779
17032439493.895937
7142442356.245206
29867490530.8057
43529231911.949715
54899264582.689255
61894792078.22826
49484699061.68193
31382009167.942955
7600236899.724158
19226523928.4928
52737432258.45947
92053585981.61755
131400185411.06056
152907010919.38815
146803525148.56213
152707406210.2547
130906189122.64725
92225074707.164
52728181474.57413
19889811315.483418
7318088663.594025
30175588772.08399
50922532793.4474
61500898442.142784
67990730572.19675
52514794789.56083
34926710960.98868
8378422161.190451
21410433017.194057
57957490060.22491
98422285622.53014
150951900205.97723
217516262297.49002
256595373618.633
215518727126.5469
153681478873.88168
99245353793.85847
57509750109.47372
22950468247.646545
7298838904.078386
33609647095.60707
53798743041.75305
66963014439.14986
68492141409.30114
53807389658.63024
33556950222.626297
6846148302.850959
23952262898.55123
58445972870.63564
103224450508.37396
145817410604.37964
256065886489.93094
283810736352.71155
255512601394.1754
146091839587.9645
103835412602.61678
57539320192.77392
22096000228.91185
7052789232.833445
32578133923.130432
52874986193.319374
68324404361.18886
67006803176.3735
52177845873.58644
33410875848.599117
8388285791.658791
22289762312.254898
58134305392.291336
98829921324.0933
152133826977.28662
216676905202.40186
256940609947.6772
215462235825.19754
151028824571.44586
97444285725.58458
58351624679.0826
22616121011.76661
8622398471.90956
33122222914.328506
52789377071.99217
67347637458.711235
63620075921.211266
49316655066.45462
31142988322.569588
8084567036.250546
21451798355.28284
54875484684.48483
92606552860.58571
130939773702.25945
152320465322.35794
146302185594.26407
152152530204.20517
130148667283.82518
92213428301.66414
52766323706.88096
19925266558.065876
8492313150.694954
30449011953.725163
48752324780.774185
62995686125.68771
56287868137.59447
43842761213.90104
28728408149.715466
8287280984.727397
16940279551.23436
44945457031.26026
72505465486.56662
91651800166.07362
97914672449.28093
103948096823.57535
99071079718.26874
91425757007.4579
71650775947.37492
44076914254.733864
16482840437.634687
7739244536.540844
30430921311.37319
44872308005.470505
55452268138.10801
47878481746.25958
38910665363.49173
25747754401.37068
10408087181.37075
8837800887.048136
28044190260.59122
44344749079.353806
54192810246.989525
57609500335.75399
58221719689.57187
58186472150.8984
53258544497.77153
45235368231.52896
27890281723.526554
8290967114.184985
9277364917.58248
24900241269.59428
38499492619.27291
46896635758.09494
35936637789.94162
31313989713.678085
23815181432.63501
13997607814.17958
648036539.9736985
8654885387.432703
16179278785.057646
20597719375.766064
21720319648.2266
23002538323.863884
22341321935.62562
20383363292.411266
16251613847.836557
8918636177.396978
1099332858.8480628
11667019829.889347
25531176865.852276
31574899805.41421
36281228019.79749
26266026303.33898
25132400609.732754
23343247647.602905
18205835171.414463
13172140138.746176
9884119279.758694
8926302189.06851
9100969110.278177
8447557932.57199
7300455952.619815
7848677691.681284
10373690112.18445
7732575881.854144
10006790221.397924
12651479415.225195
17543390981.46811
21350760792.958042
25441805740.241245
26838203828.571613
18546940906.728622
19400160074.331112
20056322196.726562
22522749737.919804
23932086813.067356
24909290284.47325
30199290008.047337
30649131791.566513
32518133787.204998
33786720915.141453
31345590378.53641
30922816877.421852
29295512246.532925
26550079127.64791
24210859670.919544
23310275477.50966
19414135454.94467
20689041728.731274
18264711950.238655
10521338002.9526
16370402253.041193
20333360022.244152
26205980591.169994
31025269249.30378
39239535428.33885
44929891391.98688
48790524524.388405
52843514051.38392
53135849721.714226
52906881435.631874
49758706586.78941
43760286580.2746
38477701304.43487
32201793017.9772
26622661791.49752
21393721872.760635
14398307361.84391
11410921088.105618
5037863086.878737
11865915588.297855
16751522968.005045
27661584237.968044
34876873592.477974
46986250665.368256
54807742897.74611
61417374230.829445
65777775589.67871
68761407009.5793
68116231691.18464
63089150365.54164
55948765307.717964
46497196319.98157
38075244033.35886
28109626064.97338
18010719996.840744
12072917231.681826
5130942616.791708
4664400850.257676
792422720.0377882
3061285460.162718
8097030798.687963
809960050.3243804
6479394122.628895
11764936728.709831
334177071.45978343
11461469018.306097
17914557147.866653
775870966.7720097
16669536075.957714
24048439302.64303
677582964.8138185
23903881045.409637
30452542540.96159
869700895.0659943
30276029573.88374
37171663021.435974
1040871579.2921963
36950168679.00573
42361138855.13733
1205920216.2578316
41766505048.262886
47247117376.193924
1495089668.2585409
45601249003.79332
45425052608.85229
1350660795.4507105
44566454514.342964
46274166068.39365
1493764439.4646842
44626539804.60377
42982284836.531334
1473028680.8201978
41163839583.64771
38088188588.89455
1074956107.878263
37515258149.65795
31085144189.6853
913340095.1773025
30495968198.43211
25083624633.182686
708123178.4405961
24625982478.274445
16990928377.362429
495862062.79411125
17267639298.218662
12572518131.898308
669259064.755482
11352406572.610193
7222759607.414505
651212023.0354433
5930648877.909578
4510722836.959918
186696734.76279578
4150313419.0962625
4760386128.897036
934696340.7555631
2865962193.76691
6915330103.1751995
346195091.6229471
7543948389.865005
12105446698.941385
701171876.921839
10812157183.882431
18811416419.844265
864067391.970497
17349510851.995388
25169809865.062088
685670353.7363529
25445284890.80028
31482436837.277683
908165908.2025437
30932068571.481777
36309502633.71143
1205446304.3004124
37550446867.15899
41910098990.97513
1254956902.9370608
42826759115.38919
45972124287.94898
1368582740.2535741
44861977335.45361
46077768456.700615
1311781857.485336
45515045827.473
45078364341.62325
1324145030.3985267
45957588932.12629
42250572125.457565
1172930230.388034
42456612586.55384
36982367286.71094
1215661551.689722
38272758900.90792
31294413525.523716
1019941381.1216124
32400386021.89947
24002537266.33279
804689243.3542857
24909138534.40688
18789845545.039757
498147965.92201316
18500767662.213398
12365757783.778297
309384914.91740865
12184057657.32277
6789700203.579436
441479566.113358
5947837371.741601
4319250636.752452
786587481.0614476
2726441698.887147
3859236716.6421933
337614499.0095207
4526953784.931596
7649421807.468985
159572766.21114048
7689577297.59376
10951026147.44614
485800114.9015328
11725121446.645498
18110706311.69457
501205245.82245153
18413010338.321117
26534353537.786407
994462797.8869872
25046461166.29001
31804725020.5415
905807120.7927476
32329526454.897293
37229207600.62275
1056373218.1455836
36819266707.72139
41315159289.0542
1192282872.7641046
41791160836.46862
44303663011.68319
1290174974.0384126
44932471953.32381
45641489626.16343
1294667974.3126872
45994496916.801346
43023386942.59798
1710366657.8574257
45385862723.1721
40957974249.80085
1275901876.5793922
41992277199.01415
36999653230.77871
1192443132.6188455
38187650412.33859
31392733423.100754
874363060.8856077
31627823897.418335
25416569087.15101
826063371.2524686
24447413729.82168
18374731891.756977
528712662.74587715
17901025588.933586
11248857370.040339
613802895.618586
12333423905.781044
6933637084.53382
156265148.86412165
6953422059.511464
4335385935.356695
338174852.40402085
3653098759.6537957
4906405604.592259
712266820.3663069
3458208794.406112
7845886514.249555
325167460.4545387
7265265248.947393
10736009946.875322
428353809.4457468
11367025761.263706
17641523524.113716
484209527.0484724
17477558879.674187
25577107129.995144
1034377013.601612
23987674458.445126
32134568522.976948
868150202.8542575
32289352654.243332
36835924609.59933
1042572594.8324007
37049875507.78449
41558611284.81992
1215603397.9203048
42243477054.58655
45665485514.900055
1500754879.6584227
43989003158.878395
45723261260.1731
1325745344.1954668
46418711048.16559
44914601737.85977
1254704356.2579422
45045584699.2418
40549520761.64584
1375659701.8871365
42024283163.97119
37653568787.919495
1036293309.9471103
37747839810.913475
31989921415.190887
996554750.7106816
30988017755.977207
24186274737.213295
723347837.5055614
24725144200.546555
17368446775.49316
479153928.29963166
17466449695.10613
11299673686.147898
338223411.22321326
11616916890.078747
6547075263.323546
231057897.41473103
6884350266.405976
2885831145.526396
609716199.637213
4109042514.932687
2842092826.9034853
132597457.47431079
2569383075.581765
4849671369.805659
148416338.38830793
5121312213.886936
8812736466.468437
95670371.8755074
8954708714.094608
12923808083.41327
135169828.14716288
12676838157.377312
17549769687.632195
68236217.11135295
17556734650.15069
22627185004.36834
72003481.48861969
22689110020.781033
27194840165.21249
65039506.11784244
27180486981.40143
30870786432.589203
190687899.84945926
30489879029.447117
31952778650.320587
99289245.24935436
32096890094.31182
33669388906.826897
260342855.0759824
33153943967.46732
32042794641.150833
113341781.47300182
32255866602.821194
30600186557.624676
123235445.13454644
30842883940.91295
26906126864.48257
161000404.0450524
26613067231.81726
22099355602.30063
75845815.17173338
22192204570.698067
18091403426.393707
310164263.1072296
18716258285.021267
12629923460.637371
87105434.85743316
12506163372.522177
8120656040.277174
69658142.72312008
8065756696.546099
5366644300.788871
161601161.4402727
5029453962.9218645
3239057474.385775
59427682.19645361
3258937653.782184
5430732296.139939
96101677.81575926
5235851623.438452
7524936362.034329
200025928.290042
7105910398.770529
9944176332.206427
132492743.22474311
9666628953.73638
12479410289.262363
253534601.71170023
11954791462.515772
14481004984.514713
103535323.47704826
14293155892.833616
18812871817.435528
351120757.8039451
18093990133.569527
20884276958.30941
335218409.9201204
21576876712.664482
23228824532.327023
207635211.56687257
23654767653.955936
25270529278.394115
77520131.77067544
25410353720.2709
25802265485.9082
311987779.98313314
26470792129.456627
25823215624.675095
109235176.67964417
25642808977.070923
23878395481.801888
209022312.02509776
24318496432.65887
20848916502.321476
70116851.70795311
20754279797.96255
18616447568.455883
99942412.75341545
18446855785.405216
15344201293.205551
71428864.36415741
15227693303.475647
11895641813.829863
60363434.594891146
11994312669.882473
9580590174.348577
40222304.20060439
9538188353.329248
7104310726.791418
19045031.314336006
7125112806.967986
4979370467.632211
102485069.15897019
4764624920.158877
7556384220.384815
224491667.7777368
8014540193.483832
9818738294.796003
235217581.87703797
9344679755.215149
10258611037.023458
152819480.2422985
10578330090.27507
10606606402.827623
98548182.52556138
10799068824.790588
11429671252.87601
44150730.9368276
11441735229.914454
11975184848.187326
327836095.14081496
12648270818.565891
13662151151.260141
78302277.27750087
13539938636.724104
14482405029.1913
59961120.3233275
14576418195.611113
16039648183.946478
248232647.41505986
15546470917.084764
15812148664.42542
247884558.15387896
15312339976.366789
15669273883.459524
80630683.88473131
15537431450.853897
14805272869.791195
148892123.34284368
14527933098.219692
13632955538.955437
47715548.56198277
13638316326.679039
13334419805.14823
138924659.8632638
13631905420.745138
11382251295.91737
149934889.1973011
11087427366.467505
10581152168.370535
148831132.3067553
10287522572.442272
10472230268.767365
44822775.51971057
10417903493.150356
9543335310.817533
162734858.98812333
9879466874.450722
9383446030.314167
257537127.9662834
8856856352.766296
13704785831.751661
64861073.32817748
13694031973.785517
11894424645.12099
75903265.1728678
12045757492.756327
10512223220.110786
53360266.87362446
10590402455.538958
8210959645.062566
175969572.58935288
8560388491.746713
7042987710.776195
170856660.6779122
6726974551.243344
5310354446.209777
201884817.36632043
4928764029.022528
3759359969.157684
188786770.46647513
4139580715.380379
3139709126.6748624
105805820.17275055
2995424790.0743833
3607530401.968229
136092706.7749474
3369252793.905503
3196069510.2314606
198253392.97791147
3591992951.6710443
3274348607.7647023
83164585.56157662
3182196622.744806
3651525830.6032224
165324652.1867223
4001409083.803676
4199454077.2355657
153412952.34930933
3944854697.7840657
4385197169.308848
108544068.66543551
4565937887.94948
6099748021.077872
70516565.42292035
6158422462.358426
8914028541.773321
88511424.21237442
9065944253.957964
10779249359.62849
128847848.58803007
11049876064.591742
11444281012.252104
341228576.5545925
12166713838.553465
13374697581.659286
173282958.00981814
13036216146.094027
18132067334.912838
68309812.16491568
18116286259.258106
15299955176.535543
68758124.36325786
15204086288.872206
11430264922.69831
238367529.50035742
11918170987.30073
7433127151.676809
67085519.09090798
7471837116.163892
940195990.0210574
75073079.95794332
891678333.9557434
4702641966.720287
136317575.90726954
4466979066.762941
7277816052.881134
160805129.08206776
7548677163.320544
10160878431.275757
187197298.57667452
9788788475.708899
11588892281.866863
171473850.188267
11261154289.876326
10395865361.238396
102813027.1038394
10579765905.24062
11356008078.017265
113035630.06958035
11169751256.147352
10129173126.088554
92088350.1380561
9995235866.682364
8932519434.64827
200929640.54845718
8530383756.805556
3267277469.8727784
199086736.50955594
3625077759.8767657
584174484.4059247
81478555.08421765
510182321.84446484
6701053662.375712
86657136.97423722
6827301592.270572
10602069070.625868
58233400.421778075
10688445680.32298
15737496644.751368
79775906.95351416
15884557763.494846
17915898548.704514
70257186.54186602
17880708488.56267
22710661086.66775
88932008.70865504
22827098478.10175
18587315399.854736
176113311.82700464
18248484360.54271
12283345081.857231
240254152.56357127
11799993294.51942
4850674121.544753
91664113.03326456
4973985404.49166
4262522315.490296
108229762.07968867
4108269907.7771087
14099232070.358273
139603473.13760614
13872329498.36593
22102814914.3708
105059020.51590873
22102844440.947754
26025467180.76469
126104133.05765007
25877368633.28904
27207953929.409122
241826408.3897311
27689289478.91147
28725062874.021614
263723773.53146926
28345006172.72614
28013494178.73426
185103396.9345774
28367756913.178783
25657461345.40589
162816180.44280577
25897173784.433697
21166774143.472893
121233961.93461402
21040903767.197826
13741321939.345709
168104510.40682888
13429026740.784012
4257960467.9457784
82600915.58060241
4195571479.036188
5244690559.424283
80317086.3514836
5189467052.692308
12718311045.089092
330360385.10917735
12063524199.78255
18929589870.90327
49658061.53023454
18933436602.67277
21931551702.789127
127047973.39596255
22159502035.42439
27248873773.563297
211246704.7763322
26836187886.177906
20452446380.084938
304018607.6150171
21106231014.42769
13452993640.915857
61988069.49236268
13383738533.919432
3620596222.521791
181777471.15790656
3988844268.485183
8021762540.126697
94227038.86724094
7919930485.330042
21137946047.126617
209377185.3922849
21505168108.860645
34755137645.59678
97921170.0173584
34768544780.95597
44497134322.054184
172331156.81069952
44293730564.44714
47098742992.0735
225423483.6871308
47395643096.90932
48910338037.81371
230198450.67314136
48737356295.24555
47715730874.29092
187420520.5583205
47589299181.44639
44240829728.567696
161489219.93657616
44369003895.45294
34327266147.632427
97966214.08904229
34344481935.2094
21580706407.452866
130617362.7518797
21407175348.22515
8086351009.343146
113844523.7441725
8222250084.997385
3413711617.3138213
69902912.17079803
3420255360.6256227
14226569842.770329
90683813.84002826
14402513862.364277
21102249302.222134
125990757.54039867
20857078999.25965
26494082217.174465
80674167.66226955
26384900215.805523
29332513666.007244
273486257.0281269
29893247586.87753
23814266338.82398
57803583.10550529
23771945066.635624
15251504835.743355
114674701.70349216
15041429382.965876
3564175058.4815903
81773332.83035143
3682054005.9148417
8995738053.47194
157164857.85589483
9266287521.299728
25271655438.749714
110031045.62350224
25303596278.085762
44257372571.538315
144647915.10893503
44215523183.20515
63227869413.00988
103070028.5755813
63149626172.24305
73403533321.72755
289587939.2421211
73453863737.41486
70383907375.5605
1039213581.2952074
70319779535.63817
73014563809.30258
363917377.0290397
73463888784.33559
63180156898.42764
176556096.44083902
62858356701.24799
44427931987.49321
161444051.2414505
44271442149.92742
24716015799.330864
379276048.80939925
25467761371.47537
9704576521.07662
136916074.542588
9466682795.961897
3753875582.636992
148867196.21054378
3476931956.7621856
14541822316.9884
54571620.13252414
14484991354.784527
24221259402.36731
180948963.92150873
24582418944.942112
29269220937.95378
207758709.79065022
29676126819.315678
32799619929.579533
91165773.44363813
32679672111.4031
25142784909.407036
64422847.18190916
25253135626.953598
16939271438.850378
107529566.112784
16763420584.397938
3985145547.165029
63926961.2330108
4039619192.648754
10554288947.995993
206158782.23611614
10150926113.10037
27683577132.382042
100625795.5303419
27831350299.680473
46818617246.58513
308014831.2169156
47336371827.35914
72696828310.85382
310124091.93103975
72453173293.56206
104506160401.45947
325161607.1835243
104684730278.80968
123825252102.69897
1945385630.3606715
123597325639.0415
103742504341.30597
319683028.3793338
103656177575.0564
73759246355.74597
293694196.0997913
73861940163.46022
47585577937.72437
178569861.35035345
47618367209.684814
27700320830.94449
107217330.41232765
27536180473.038307
10682741783.088526
217020241.0377066
11091704907.611826
3601526352.941024
78763208.88947397
3508919735.9731455
15622478632.018385
340186286.0350685
16332249779.097227
26068299541.34767
134209282.87400502
25817658886.644135
32704840429.45832
314200027.6781651
32072576847.991474
32703780582.9814
147387120.93575904
33007629430.82639
25815587458.633175
51195069.456472084
25856264137.704746
16188260338.25305
61360604.13921359
16115679924.482265
3448295331.7355404
136584855.1449774
3236429443.0461073
11180645173.734539
204669440.83358395
11577688798.921473
28531380615.194817
359497772.9407034
27872100439.86042
49737989499.53814
240109563.09405068
49501426922.74318
69721813952.40399
1042709489.0016085
69908415678.89783
123081991661.89923
1948264709.2333934
123490635999.64531
136729488348.4367
41351041.30227483
136663348806.41911
122847041319.2038
1947325151.5346127
123214362170.5563
70299364026.37744
1055913486.6447107
69911431368.52234
50093873493.69175
263358729.35655743
49775343879.51944
27565273497.127457
182860817.93591565
27568301302.512016
10766514973.312447
124854545.18462594
10513716001.173717
3672518288.5277815
182079613.63928136
3328205755.2567177
15667056052.40591
44390845.91511038
15658904931.98512
25685186681.911186
188646150.59868374
25323534128.159508
32819340431.908688
63251515.97842975
32878765539.62559
32309039242.527428
75737608.92957014
32215178051.514797
25044077692.323242
51221522.2680626
25081903123.357388
15661382646.56187
238281807.9765552
16173755520.429783
3593410878.22026
281793082.5848776
4185754029.3265624
10307476667.372383
246175199.8590605
10778603869.936625
27583831762.09535
200855072.14581025
27967758235.20599
47524539464.58064
192232229.67460665
47376776475.74596
72598160133.34581
402879324.40678227
73199170732.68584
104147709291.56525
320912476.9270743
104272844509.15489
123811006258.3743
1940737528.2878952
123840722916.09727
103608404595.0739
317355406.1725569
103663515147.02127
72637562215.8378
294946956.20351
72510499953.31497
46597084793.73866
194967737.74563935
46770592752.39914
27688961364.130882
200602893.59523055
28083797428.30631
11124227820.13134
182576735.7537966
10762166870.343979
3995733056.677732
116079133.78756955
4216021585.7632465
16090410044.84016
118246230.42231604
15878326060.202208
25468801427.649105
83323431.11891185
25345965057.77539
32511070303.024605
103819027.21550792
32357728856.499836
30579085544.436146
69245878.77958961
30637296203.487846
24101595026.88389
253818121.94990396
23589220156.069897
14856551932.22658
72643219.06816372
14992450067.761219
4062153980.5600834
119426584.87969778
3864926770.2741637
10548490185.697504
168517524.6357338
10221085770.226278
26664010238.151356
218366885.9552669
26257292091.68638
44453350093.93169
145971288.7635068
44492335224.936295
63544036283.664825
398712866.6380165
62751552184.32605
73482688098.30121
354581123.3966112
73064616794.97816
69819277327.92111
1052407584.2547598
70176092934.25374
72966406209.90993
297836270.76134735
73120241374.39714
62594188707.31319
100498153.41478035
62539768525.648796
44216580830.02368
158529579.3675313
44338513216.1086
25330288644.900253
108493833.0479085
25324004954.93883
9619522544.863993
83054990.87964255
9534233503.854696
4250744983.476939
125018646.57115674
4051711258.008833
14655145056.964983
56420551.65289267
14611140058.553558
23550266939.620014
103379433.46247001
23381280822.119003
30174916965.66235
90939872.53734581
30337012387.442467
26818844907.736233
170007495.43931025
27150773430.875614
20686659716.927326
225391800.72164166
21160551858.430286
14265706151.620222
312108087.9891132
13652885664.434753
3919444562.3831296
76391554.3906988
4001210057.7462997
8108370875.9326105
88307999.4156482
8144054110.124219
21363496487.236465
182694390.9655176
21663509543.50163
35077573491.9621
172461760.5563248
34775690675.25178
43638858776.20193
271883868.5923819
44123274250.74521
47105646107.06135
202134996.76074347
46915633839.14262
49877876702.716705
213795106.88717082
49920499542.54137
47346811951.07495
216354641.31416062
47595241572.11963
43853715612.1086
151159758.48810518
43935964768.507454
34559071237.20927
116794229.20669997
34402774156.05832
21057528503.670746
131983576.79694651
21211989856.71111
8077761607.612182
120215074.71966748
7877906415.111938
3661405422.683392
72548681.73504472
3724759807.850409
14385774848.255733
154487521.51543766
14713357483.992434
21280148615.54739
167851881.3442258
21639319577.82791
26509300141.316635
117553845.25766629
26717601087.33683
22716137780.191196
208749795.53757292
23128646780.66499
18389565458.22667
180263581.9581396
18772906605.48826
12518450168.957989
128009330.39983179
12296940331.396938
4788017544.449411
138405865.592839
5052736977.961417
4238150480.748601
85457458.28066617
4268945673.2844954
13238401872.797792
180615634.74762046
13550843280.180117
21048022743.084576
197528720.71912783
21383210587.276688
26243294797.702126
171852432.61979753
25954665624.546272
27512296204.867214
100472974.61183348
27660297431.40865
27965281909.934864
185351463.46915495
27885568697.35278
27860208347.286037
86080381.97553174
27942207980.031723
25952221282.399406
257294710.78371844
25452211709.007854
21894481482.954002
136459659.07893035
21702300466.15699
13347016585.813988
97826121.21915127
13419474839.079578
4034421248.323856
84031888.64025079
3971936455.377978
4558977385.7846985
112946085.15505171
4401136107.229431
11773446379.641615
120609030.35638577
12002602249.710894
18454255173.294765
52355824.24624035
18506517130.281506
22664312539.33246
101412738.63586563
22508862848.717625
17596571805.17837
213570650.54468378
17170392598.057384
15049907169.376213
51249915.79678918
15016108822.876396
11338258239.974426
61940071.046943836
11445627346.02819
6721891732.213267
68832370.0551938
6701389715.994511
167878223.6400476
253318064.45058796
394317483.20403564
3967273933.255386
157805500.19895834
4229775869.36002
7809188609.284216
88623951.68141946
7750609541.739692
9872741200.538528
78665063.3103262
9889314484.19657
10340491414.837173
88839001.35236934
10415706627.462769
10935695664.93518
64651604.68677903
11033133136.067255
10758521516.956667
87854085.85515426
10675268834.835415
9655764881.520485
105671480.58034173
9801433357.205774
7851583866.337058
89686061.01978514
7783609332.052564
4066109083.7110176
169927035.2441828
4362651228.158341
551837105.5425183
79160297.78559944
491855543.42055374
5133848696.92355
273286377.93271375
5700822591.765978
12345725857.043097
51817416.21076941
12275130232.777178
15732020567.205503
363094055.5757607
14985695003.136864
17229733097.58402
139086237.8335446
17480741143.111584
13235609617.862482
383718773.01174784
12435889037.060282
11882811905.538431
109535079.66631478
12104279063.319477
11307896523.139359
85754393.18649009
11169426984.629139
8091097146.509335
368810258.209255
8889252026.150593
6462724119.191585
144404207.3958106
6239703035.095418
4815017630.243615
98629130.00298266
4703367397.476646
4044742396.016601
158180232.229938
4361825382.721807
4397241932.2591305
67302595.56373906
4402219833.551635
4137156348.580922
76329372.13192196
4063528187.0597463
3280675418.999797
160968697.05006486
3592879378.4818735
3711331967.056959
73007724.25060326
3809128981.2006736
4710344193.179877
205658928.02175996
5123512829.913171
3724267591.855142
73499935.28240669
3698668002.194361
4878396247.031373
88406400.35924318
4779108694.525684
6511725408.528831
286436605.11729014
5931061046.011558
8476383471.75803
81392745.47413304
8379159211.1654005
10204326864.872995
43235821.63915786
10235679732.212477
11899034646.82698
192479055.63353598
12294837346.15328
13247126608.15062
224231318.08392265
12786095194.093472
8632851516.821234
191196233.7684345
8989228654.663927
9341468234.351027
38987208.925212115
9286521396.310045
9944496996.046797
214859798.44017318
9503267755.827011
11029226549.998709
169057466.2002842
10719079157.497978
11466170389.778904
44308507.93146075
11479265385.592957
11854095426.106804
54457381.93743343
11948637993.735716
14572698250.69539
62616553.39579159
14505087448.84055
14303352500.99884
247788177.62440306
14836722910.070488
15875205900.816393
172039513.82570186
15550683428.352953
16248989400.186714
43739645.18172006
16259739752.07083
14827439668.50998
143418188.1052787
15122033835.233477
14836559727.35261
49958752.11632682
14876602987.082289
13730233232.916437
216370136.71233338
14183356709.478079
12933474805.962788
123068554.8811855
12702416248.410435
11400438081.563744
131251760.6958536
11674745893.313839
11051646300.88724
76939257.56132619
11213379480.832132
9594187652.117682
197962845.4387072
9193890991.554642
9764378995.050873
127431927.70165691
9995194131.450941
8793775150.604097
62622473.26259836
8773358652.946445
5328345533.805769
172048209.10706788
4953733173.9415
7434471685.289575
271363873.26204556
7985691763.61779
9719378825.494883
38116150.395926416
9759914431.221378
12644047860.56382
56279480.75539035
12561988047.804722
15234893960.914036
228572027.56299216
14782008987.998253
18493006740.22803
218014950.74794886
18955837494.371784
21897740553.651093
186093634.8299213
21520220285.04228
23625841863.961388
142018563.11415076
23375849815.44747
25150190389.114944
160561259.83199358
25478249263.06795
25649635957.684216
90481353.25409079
25503986024.304344
25371475077.12578
60752554.56901733
25451795636.982544
24130365688.91913
133945506.2830668
23869997065.76105
21077333699.928898
57885336.595948726
21012927944.262318
18399015650.607258
68971006.96741255
18506851516.482975
15468101550.37028
48715270.63459396
15446826568.020079
12556409370.956167
129156880.23219408
12830017297.093672
10358518763.720718
64833693.46013199
10244597843.372358
7251095448.069037
203396314.62063056
6794392474.902664
5496935454.00445
40598331.12277007
5473291120.177842
2265167930.6484823
110722727.68709357
2433998375.0024457
6038777286.098028
213266673.09547177
5587931369.280898
8032077052.638194
61665043.143575974
8023041951.084246
13128263863.92264
130431755.9154061
13352120988.1681
16564750176.65219
121212487.38774496
16782071166.277514
22618924738.04825
68718953.69856943
22590298977.2001
26882630526.379288
332256666.5238271
26205137172.069183
29421003659.891216
98723533.74597242
29577769026.217476
31428025864.034607
146512970.2686592
31700781162.056633
33061575464.58315
61009542.59484179
33093397302.141575
32853048788.514282
82432190.9086669
32748865851.816883
29956511376.31483
245305014.4012154
30460098573.25429
27307858652.619797
251511408.62772837
26802183258.24349
22309412710.819664
66518850.50002018
22342855721.78345
18263961844.417004
68421851.3026502
18297617810.301224
13730877718.109371
167255953.30168808
13419626163.035769
8330269206.748689
199732215.0470808
8715200039.483435
5663263764.486228
112780048.8764416
5847619707.9503765
2684302725.289454
151504402.744368
2363277047.0622077
