# vtk DataFile Version 2.0
Generated Volume Mesh
ASCII
DATASET UNSTRUCTURED_GRID
POINTS 2646 float
0.0 0.0 0.0
20.0 0.0 0.0
20.0 20.0 0.0
0.0 20.0 0.0
0.0 0.0 0.1
20.0 0.0 0.1
20.0 20.0 0.1
0.0 20.0 0.1
0.999999999999102 0.0 0.0
1.999999999998378 0.0 0.0
2.999999999996569 0.0 0.0
3.999999999993648 0.0 0.0
4.999999999990727 0.0 0.0
5.999999999987806 0.0 0.0
6.999999999984885 0.0 0.0
7.999999999982034 0.0 0.0
8.999999999983277 0.0 0.0
9.999999999984798 0.0 0.0
10.99999999998632 0.0 0.0
11.99999999998784 0.0 0.0
12.99999999998936 0.0 0.0
13.99999999999088 0.0 0.0
14.9999999999924 0.0 0.0
15.99999999999392 0.0 0.0
16.99999999999544 0.0 0.0
17.99999999999696 0.0 0.0
18.99999999999848 0.0 0.0
20.0 0.999999999999102 0.0
20.0 1.999999999998378 0.0
20.0 2.999999999996569 0.0
20.0 3.999999999993648 0.0
20.0 4.999999999990727 0.0
20.0 5.999999999987806 0.0
20.0 6.999999999984885 0.0
20.0 7.999999999982034 0.0
20.0 8.999999999983277 0.0
20.0 9.999999999984798 0.0
20.0 10.99999999998632 0.0
20.0 11.99999999998784 0.0
20.0 12.99999999998936 0.0
20.0 13.99999999999088 0.0
20.0 14.9999999999924 0.0
20.0 15.99999999999392 0.0
20.0 16.99999999999544 0.0
20.0 17.99999999999696 0.0
20.0 18.99999999999848 0.0
19.0 20.0 0.0
18.0 20.0 0.0
17.0 20.0 0.0
15.99999999999999 20.0 0.0
14.99999999999999 20.0 0.0
13.99999999999999 20.0 0.0
12.99999999999999 20.0 0.0
11.99999999999999 20.0 0.0
10.99999999999999 20.0 0.0
9.999999999999993 20.0 0.0
8.999999999999995 20.0 0.0
7.999999999999993 20.0 0.0
6.999999999999995 20.0 0.0
5.999999999999996 20.0 0.0
4.999999999999996 20.0 0.0
3.999999999999996 20.0 0.0
3.0 20.0 0.0
1.999999999999996 20.0 0.0
1.0 20.0 0.0
0.0 19.0 0.0
0.0 18.0 0.0
0.0 17.0 0.0
0.0 15.99999999999999 0.0
0.0 14.99999999999999 0.0
0.0 13.99999999999999 0.0
0.0 12.99999999999999 0.0
0.0 11.99999999999999 0.0
0.0 10.99999999999999 0.0
0.0 9.999999999999993 0.0
0.0 8.999999999999995 0.0
0.0 7.999999999999993 0.0
0.0 6.999999999999995 0.0
0.0 5.999999999999996 0.0
0.0 4.999999999999996 0.0
0.0 3.999999999999996 0.0
0.0 3.0 0.0
0.0 1.999999999999996 0.0
0.0 1.0 0.0
0.999999999999102 0.0 0.1
1.999999999998378 0.0 0.1
2.999999999996569 0.0 0.1
3.999999999993648 0.0 0.1
4.999999999990727 0.0 0.1
5.999999999987806 0.0 0.1
6.999999999984885 0.0 0.1
7.999999999982034 0.0 0.1
8.999999999983277 0.0 0.1
9.999999999984798 0.0 0.1
10.99999999998632 0.0 0.1
11.99999999998784 0.0 0.1
12.99999999998936 0.0 0.1
13.99999999999088 0.0 0.1
14.9999999999924 0.0 0.1
15.99999999999392 0.0 0.1
16.99999999999544 0.0 0.1
17.99999999999696 0.0 0.1
18.99999999999848 0.0 0.1
20.0 0.999999999999102 0.1
20.0 1.999999999998378 0.1
20.0 2.999999999996569 0.1
20.0 3.999999999993648 0.1
20.0 4.999999999990727 0.1
20.0 5.999999999987806 0.1
20.0 6.999999999984885 0.1
20.0 7.999999999982034 0.1
20.0 8.999999999983277 0.1
20.0 9.999999999984798 0.1
20.0 10.99999999998632 0.1
20.0 11.99999999998784 0.1
20.0 12.99999999998936 0.1
20.0 13.99999999999088 0.1
20.0 14.9999999999924 0.1
20.0 15.99999999999392 0.1
20.0 16.99999999999544 0.1
20.0 17.99999999999696 0.1
20.0 18.99999999999848 0.1
19.0 20.0 0.1
18.0 20.0 0.1
17.0 20.0 0.1
15.99999999999999 20.0 0.1
14.99999999999999 20.0 0.1
13.99999999999999 20.0 0.1
12.99999999999999 20.0 0.1
11.99999999999999 20.0 0.1
10.99999999999999 20.0 0.1
9.999999999999993 20.0 0.1
8.999999999999995 20.0 0.1
7.999999999999993 20.0 0.1
6.999999999999995 20.0 0.1
5.999999999999996 20.0 0.1
4.999999999999996 20.0 0.1
3.999999999999996 20.0 0.1
3.0 20.0 0.1
1.999999999999996 20.0 0.1
1.0 20.0 0.1
0.0 19.0 0.1
0.0 18.0 0.1
0.0 17.0 0.1
0.0 15.99999999999999 0.1
0.0 14.99999999999999 0.1
0.0 13.99999999999999 0.1
0.0 12.99999999999999 0.1
0.0 11.99999999999999 0.1
0.0 10.99999999999999 0.1
0.0 9.999999999999993 0.1
0.0 8.999999999999995 0.1
0.0 7.999999999999993 0.1
0.0 6.999999999999995 0.1
0.0 5.999999999999996 0.1
0.0 4.999999999999996 0.1
0.0 3.999999999999996 0.1
0.0 3.0 0.1
0.0 1.999999999999996 0.1
0.0 1.0 0.1
0.0 0.0 0.01999999999995601
0.0 0.0 0.0399999999998959
0.0 0.0 0.0599999999998943
0.0 0.0 0.07999999999994742
20.0 0.0 0.01999999999995601
20.0 0.0 0.0399999999998959
20.0 0.0 0.0599999999998943
20.0 0.0 0.07999999999994742
20.0 20.0 0.01999999999995601
20.0 20.0 0.0399999999998959
20.0 20.0 0.0599999999998943
20.0 20.0 0.07999999999994742
0.0 20.0 0.01999999999995601
0.0 20.0 0.0399999999998959
0.0 20.0 0.0599999999998943
0.0 20.0 0.07999999999994742
0.999999999999147 0.999999999999955 0.0
0.9999999999991918 1.999999999999916 0.0
0.9999999999992367 2.999999999999829 0.0
0.9999999999992815 3.999999999999678 0.0
0.9999999999993263 4.999999999999535 0.0
0.9999999999993713 5.999999999999385 0.0
0.9999999999994164 6.999999999999237 0.0
0.9999999999994611 7.999999999999095 0.0
0.9999999999995062 8.999999999999158 0.0
0.999999999999551 9.999999999999236 0.0
0.999999999999596 10.99999999999931 0.0
0.9999999999996407 11.99999999999939 0.0
0.9999999999996858 12.99999999999946 0.0
0.9999999999997308 13.99999999999953 0.0
0.9999999999997753 14.99999999999961 0.0
0.9999999999998204 15.99999999999969 0.0
0.9999999999998653 16.99999999999977 0.0
0.9999999999999102 17.99999999999985 0.0
0.999999999999955 18.99999999999992 0.0
1.999999999998458 0.9999999999999103 0.0
1.999999999998539 1.999999999999834 0.0
1.999999999998621 2.999999999999657 0.0
1.999999999998701 3.999999999999361 0.0
1.999999999998782 4.999999999999068 0.0
1.999999999998863 5.999999999998779 0.0
1.999999999998944 6.999999999998483 0.0
1.999999999999025 7.999999999998196 0.0
1.999999999999106 8.99999999999832 0.0
1.999999999999187 9.999999999998472 0.0
1.999999999999268 10.99999999999863 0.0
1.999999999999349 11.99999999999878 0.0
1.99999999999943 12.99999999999893 0.0
1.999999999999511 13.99999999999907 0.0
1.999999999999592 14.99999999999923 0.0
1.999999999999672 15.99999999999939 0.0
1.999999999999754 16.99999999999954 0.0
1.999999999999834 17.99999999999969 0.0
1.999999999999915 18.99999999999985 0.0
2.999999999996741 0.9999999999998653 0.0
2.999999999996913 1.999999999999754 0.0
2.999999999997084 2.999999999999486 0.0
2.999999999997256 3.999999999999044 0.0
2.999999999997427 4.999999999998607 0.0
2.999999999997598 5.999999999998168 0.0
2.99999999999777 6.999999999997728 0.0
2.999999999997941 7.999999999997296 0.0
2.999999999998114 8.999999999997488 0.0
2.999999999998284 9.999999999997716 0.0
2.999999999998456 10.99999999999794 0.0
2.999999999998628 11.99999999999817 0.0
2.999999999998799 12.9999999999984 0.0
2.999999999998971 13.99999999999862 0.0
2.999999999999142 14.99999999999885 0.0
2.999999999999313 15.99999999999908 0.0
2.999999999999485 16.99999999999931 0.0
2.999999999999657 17.99999999999953 0.0
2.999999999999828 18.99999999999977 0.0
3.999999999993964 0.9999999999998204 0.0
3.999999999994283 1.999999999999672 0.0
3.9999999999946 2.999999999999314 0.0
3.999999999994917 3.999999999998726 0.0
3.999999999995235 4.999999999998141 0.0
3.999999999995553 5.999999999997558 0.0
3.999999999995869 6.999999999996973 0.0
3.999999999996187 7.999999999996401 0.0
3.999999999996505 8.999999999996648 0.0
3.999999999996822 9.999999999996955 0.0
3.99999999999714 10.99999999999726 0.0
3.999999999997456 11.99999999999756 0.0
3.999999999997774 12.99999999999786 0.0
3.999999999998092 13.99999999999817 0.0
3.999999999998409 14.99999999999847 0.0
3.999999999998727 15.99999999999878 0.0
3.999999999999044 16.99999999999908 0.0
3.999999999999361 17.99999999999939 0.0
3.999999999999678 18.99999999999969 0.0
4.999999999991191 0.9999999999997755 0.0
4.999999999991652 1.999999999999592 0.0
4.999999999992117 2.999999999999143 0.0
4.999999999992581 3.99999999999841 0.0
4.999999999993044 4.99999999999768 0.0
4.999999999993507 5.999999999996948 0.0
4.999999999993971 6.999999999996218 0.0
4.999999999994435 7.999999999995502 0.0
4.999999999994898 8.999999999995817 0.0
4.999999999995362 9.999999999996195 0.0
4.999999999995826 10.99999999999658 0.0
4.999999999996289 11.99999999999696 0.0
4.999999999996753 12.99999999999733 0.0
4.999999999997216 13.99999999999771 0.0
4.99999999999768 14.99999999999809 0.0
4.999999999998142 15.99999999999848 0.0
4.999999999998607 16.99999999999886 0.0
4.999999999999069 17.99999999999923 0.0
4.999999999999532 18.99999999999962 0.0
5.999999999988415 0.9999999999997308 0.0
5.999999999989027 1.999999999999511 0.0
5.999999999989636 2.999999999998971 0.0
5.999999999990243 3.999999999998092 0.0
5.999999999990854 4.999999999997215 0.0
5.999999999991464 5.99999999999634 0.0
5.999999999992072 6.999999999995461 0.0
5.999999999992681 7.999999999994603 0.0
5.999999999993292 8.99999999999498 0.0
5.999999999993901 9.999999999995435 0.0
5.99999999999451 10.99999999999589 0.0
5.999999999995119 11.99999999999634 0.0
5.999999999995731 12.9999999999968 0.0
5.999999999996339 13.99999999999726 0.0
5.999999999996948 14.99999999999771 0.0
5.999999999997558 15.99999999999817 0.0
5.999999999998169 16.99999999999863 0.0
5.999999999998778 17.99999999999908 0.0
5.999999999999385 18.99999999999955 0.0
6.999999999985641 0.9999999999996855 0.0
6.999999999986395 1.99999999999943 0.0
6.999999999987152 2.9999999999988 0.0
6.999999999987908 3.999999999997774 0.0
6.999999999988663 4.999999999996753 0.0
6.999999999989418 5.999999999995731 0.0
6.999999999990174 6.999999999994707 0.0
6.99999999999093 7.999999999993706 0.0
6.999999999991685 8.999999999994142 0.0
6.99999999999244 9.999999999994674 0.0
6.999999999993195 10.99999999999521 0.0
6.999999999993952 11.99999999999574 0.0
6.999999999994706 12.99999999999627 0.0
6.999999999995461 13.9999999999968 0.0
6.999999999996219 14.99999999999733 0.0
6.999999999996972 15.99999999999787 0.0
6.999999999997728 16.9999999999984 0.0
6.999999999998485 17.99999999999894 0.0
6.999999999999239 18.99999999999947 0.0
7.999999999982932 0.999999999999641 0.0
7.999999999983829 1.999999999999349 0.0
7.999999999984725 2.999999999998627 0.0
7.999999999985626 3.999999999997457 0.0
7.999999999986523 4.999999999996289 0.0
7.99999999998742 5.999999999995119 0.0
7.999999999988319 6.999999999993952 0.0
7.999999999989218 7.99999999999281 0.0
7.999999999990116 8.99999999999331 0.0
7.999999999991013 9.999999999993914 0.0
7.99999999999191 10.99999999999453 0.0
7.99999999999281 11.99999999999513 0.0
7.999999999993705 12.99999999999574 0.0
7.999999999994604 13.99999999999634 0.0
7.999999999995502 14.99999999999696 0.0
7.999999999996402 15.99999999999757 0.0
7.999999999997299 16.99999999999818 0.0
7.999999999998197 17.99999999999878 0.0
7.999999999999095 18.9999999999994 0.0
8.999999999984112 0.9999999999995959 0.0
8.99999999998495 1.999999999999268 0.0
8.999999999985786 2.999999999998457 0.0
8.999999999986622 3.99999999999714 0.0
8.999999999987454 4.999999999995826 0.0
8.999999999988294 5.999999999994511 0.0
8.999999999989129 6.999999999993195 0.0
8.999999999989964 7.99999999999191 0.0
8.999999999990802 8.999999999992472 0.0
8.999999999991637 9.999999999993154 0.0
8.999999999992472 10.99999999999384 0.0
8.99999999999331 11.99999999999452 0.0
8.999999999994142 12.99999999999521 0.0
8.99999999999498 13.99999999999589 0.0
8.999999999995815 14.99999999999658 0.0
8.99999999999665 15.99999999999726 0.0
8.999999999997488 16.99999999999795 0.0
8.999999999998323 17.99999999999862 0.0
8.999999999999158 18.99999999999932 0.0
9.999999999985562 0.9999999999995508 0.0
9.999999999986315 1.999999999999187 0.0
9.999999999987079 2.999999999998284 0.0
9.999999999987839 3.999999999996822 0.0
9.9999999999886 4.999999999995362 0.0
9.999999999989356 5.999999999993901 0.0
9.999999999990116 6.99999999999244 0.0
9.999999999990877 7.999999999991012 0.0
9.999999999991637 8.999999999991637 0.0
9.999999999992394 9.999999999992394 0.0
9.999999999993154 10.99999999999316 0.0
9.999999999993914 11.99999999999391 0.0
9.999999999994674 12.99999999999467 0.0
9.999999999995435 13.99999999999543 0.0
9.999999999996195 14.9999999999962 0.0
9.999999999996955 15.99999999999696 0.0
9.999999999997716 16.99999999999772 0.0
9.999999999998476 17.99999999999848 0.0
9.999999999999233 18.99999999999924 0.0
10.999999999987 0.9999999999995061 0.0
10.99999999998769 1.999999999999106 0.0
10.99999999998837 2.999999999998113 0.0
10.99999999998906 3.999999999996505 0.0
10.99999999998974 4.999999999994898 0.0
10.99999999999042 5.999999999993292 0.0
10.99999999999111 6.999999999991685 0.0
10.99999999999179 7.999999999990116 0.0
10.99999999999247 8.999999999990802 0.0
10.99999999999315 9.999999999991637 0.0
10.99999999999384 10.99999999999247 0.0
10.99999999999452 11.99999999999331 0.0
10.99999999999521 12.99999999999414 0.0
10.99999999999589 13.99999999999498 0.0
10.99999999999658 14.99999999999581 0.0
10.99999999999726 15.99999999999665 0.0
10.99999999999794 16.99999999999748 0.0
10.99999999999863 17.99999999999832 0.0
10.99999999999931 18.99999999999916 0.0
11.99999999998845 0.9999999999994611 0.0
11.99999999998906 1.999999999999025 0.0
11.99999999998966 2.999999999997942 0.0
11.99999999999027 3.999999999996188 0.0
11.99999999999088 4.999999999994435 0.0
11.99999999999148 5.999999999992681 0.0
11.99999999999209 6.999999999990928 0.0
11.9999999999927 7.999999999989218 0.0
11.99999999999331 8.999999999989964 0.0
11.99999999999391 9.999999999990877 0.0
11.99999999999453 10.99999999999179 0.0
11.99999999999513 11.9999999999927 0.0
11.99999999999574 12.99999999999361 0.0
11.99999999999634 13.99999999999452 0.0
11.99999999999696 14.99999999999544 0.0
11.99999999999756 15.99999999999635 0.0
11.99999999999817 16.99999999999726 0.0
11.99999999999878 17.99999999999817 0.0
11.99999999999939 18.99999999999908 0.0
12.99999999998989 0.9999999999994165 0.0
12.99999999999042 1.999999999998944 0.0
12.99999999999096 2.99999999999777 0.0
12.99999999999148 3.99999999999587 0.0
12.99999999999202 4.999999999993971 0.0
12.99999999999255 5.999999999992071 0.0
12.99999999999308 6.999999999990173 0.0
12.99999999999361 7.999999999988319 0.0
12.99999999999415 8.999999999989129 0.0
12.99999999999467 9.999999999990116 0.0
12.99999999999521 10.99999999999111 0.0
12.99999999999574 11.99999999999209 0.0
12.99999999999627 12.99999999999308 0.0
12.9999999999968 13.99999999999407 0.0
12.99999999999733 14.99999999999506 0.0
12.99999999999787 15.99999999999605 0.0
12.9999999999984 16.99999999999703 0.0
12.99999999999893 17.99999999999802 0.0
12.99999999999946 18.99999999999901 0.0
13.99999999999133 0.9999999999993715 0.0
13.99999999999178 1.999999999998863 0.0
13.99999999999225 2.999999999997599 0.0
13.9999999999927 3.999999999995553 0.0
13.99999999999315 4.999999999993509 0.0
13.99999999999361 5.999999999991465 0.0
13.99999999999406 6.999999999989418 0.0
13.99999999999452 7.999999999987421 0.0
13.99999999999498 8.999999999988294 0.0
13.99999999999543 9.999999999989356 0.0
13.99999999999589 10.99999999999042 0.0
13.99999999999635 11.99999999999148 0.0
13.9999999999968 12.99999999999255 0.0
13.99999999999726 13.99999999999361 0.0
13.99999999999771 14.99999999999467 0.0
13.99999999999817 15.99999999999574 0.0
13.99999999999862 16.9999999999968 0.0
13.99999999999908 17.99999999999787 0.0
13.99999999999953 18.99999999999893 0.0
14.99999999999278 0.9999999999993265 0.0
14.99999999999316 1.999999999998782 0.0
14.99999999999354 2.999999999997427 0.0
14.99999999999392 3.999999999995236 0.0
14.9999999999943 4.999999999993044 0.0
14.99999999999468 5.999999999990852 0.0
14.99999999999505 6.999999999988662 0.0
14.99999999999543 7.999999999986523 0.0
14.99999999999581 8.999999999987455 0.0
14.9999999999962 9.9999999999886 0.0
14.99999999999658 10.99999999998974 0.0
14.99999999999696 11.99999999999088 0.0
14.99999999999733 12.99999999999202 0.0
14.99999999999772 13.99999999999315 0.0
14.99999999999809 14.9999999999943 0.0
14.99999999999847 15.99999999999544 0.0
14.99999999999886 16.99999999999658 0.0
14.99999999999923 17.99999999999771 0.0
14.99999999999961 18.99999999999886 0.0
15.99999999999423 0.9999999999992817 0.0
15.99999999999453 1.999999999998701 0.0
15.99999999999483 2.999999999997256 0.0
15.99999999999513 3.999999999994917 0.0
15.99999999999544 4.999999999992582 0.0
15.99999999999574 5.999999999990245 0.0
15.99999999999605 6.999999999987907 0.0
15.99999999999635 7.999999999985627 0.0
15.99999999999665 8.99999999998662 0.0
15.99999999999696 9.999999999987839 0.0
15.99999999999726 10.99999999998905 0.0
15.99999999999757 11.99999999999027 0.0
15.99999999999787 12.99999999999149 0.0
15.99999999999817 13.9999999999927 0.0
15.99999999999848 14.99999999999392 0.0
15.99999999999878 15.99999999999514 0.0
15.99999999999908 16.99999999999634 0.0
15.99999999999939 17.99999999999757 0.0
15.99999999999969 18.99999999999878 0.0
16.99999999999567 0.9999999999992367 0.0
16.99999999999589 1.99999999999862 0.0
16.99999999999612 2.999999999997084 0.0
16.99999999999635 3.999999999994599 0.0
16.99999999999658 4.999999999992117 0.0
16.99999999999681 5.999999999989635 0.0
16.99999999999703 6.999999999987152 0.0
16.99999999999726 7.999999999984728 0.0
16.99999999999748 8.999999999985786 0.0
16.99999999999771 9.999999999987079 0.0
16.99999999999795 10.99999999998837 0.0
16.99999999999817 11.99999999998966 0.0
16.9999999999984 12.99999999999095 0.0
16.99999999999862 13.99999999999224 0.0
16.99999999999885 14.99999999999354 0.0
16.99999999999908 15.99999999999483 0.0
16.99999999999931 16.99999999999611 0.0
16.99999999999954 17.99999999999741 0.0
16.99999999999977 18.99999999999871 0.0
17.9999999999971 0.9999999999991919 0.0
17.99999999999726 1.999999999998539 0.0
17.99999999999742 2.999999999996913 0.0
17.99999999999756 3.999999999994282 0.0
17.99999999999771 4.999999999991655 0.0
17.99999999999787 5.999999999989024 0.0
17.99999999999802 6.999999999986395 0.0
17.99999999999817 7.999999999983828 0.0
17.99999999999832 8.999999999984947 0.0
17.99999999999847 9.999999999986318 0.0
17.99999999999863 10.99999999998769 0.0
17.99999999999878 11.99999999998906 0.0
17.99999999999893 12.99999999999042 0.0
17.99999999999909 13.99999999999179 0.0
17.99999999999923 14.99999999999316 0.0
17.99999999999939 15.99999999999453 0.0
17.99999999999954 16.99999999999589 0.0
17.99999999999969 17.99999999999726 0.0
17.99999999999984 18.99999999999863 0.0
18.99999999999856 0.9999999999991468 0.0
18.99999999999863 1.999999999998458 0.0
18.99999999999871 2.999999999996741 0.0
18.99999999999878 3.999999999993965 0.0
18.99999999999886 4.99999999999119 0.0
18.99999999999893 5.999999999988415 0.0
18.99999999999901 6.999999999985643 0.0
18.99999999999909 7.999999999982932 0.0
18.99999999999917 8.999999999984116 0.0
18.99999999999924 9.999999999985558 0.0
18.99999999999932 10.999999999987 0.0
18.9999999999994 11.99999999998845 0.0
18.99999999999947 12.99999999998989 0.0
18.99999999999954 13.99999999999133 0.0
18.99999999999962 14.99999999999278 0.0
18.99999999999969 15.99999999999423 0.0
18.99999999999977 16.99999999999566 0.0
18.99999999999985 17.99999999999711 0.0
18.99999999999992 18.99999999999856 0.0
0.999999999999147 0.999999999999955 0.1
0.9999999999991918 1.999999999999916 0.1
0.9999999999992367 2.999999999999829 0.1
0.9999999999992815 3.999999999999678 0.1
0.9999999999993263 4.999999999999535 0.1
0.9999999999993713 5.999999999999385 0.1
0.9999999999994164 6.999999999999237 0.1
0.9999999999994611 7.999999999999095 0.1
0.9999999999995062 8.999999999999158 0.1
0.999999999999551 9.999999999999236 0.1
0.999999999999596 10.99999999999931 0.1
0.9999999999996407 11.99999999999939 0.1
0.9999999999996858 12.99999999999946 0.1
0.9999999999997308 13.99999999999953 0.1
0.9999999999997753 14.99999999999961 0.1
0.9999999999998204 15.99999999999969 0.1
0.9999999999998653 16.99999999999977 0.1
0.9999999999999102 17.99999999999985 0.1
0.999999999999955 18.99999999999992 0.1
1.999999999998458 0.9999999999999103 0.1
1.999999999998539 1.999999999999834 0.1
1.999999999998621 2.999999999999657 0.1
1.999999999998701 3.999999999999361 0.1
1.999999999998782 4.999999999999068 0.1
1.999999999998863 5.999999999998779 0.1
1.999999999998944 6.999999999998483 0.1
1.999999999999025 7.999999999998196 0.1
1.999999999999106 8.99999999999832 0.1
1.999999999999187 9.999999999998472 0.1
1.999999999999268 10.99999999999863 0.1
1.999999999999349 11.99999999999878 0.1
1.99999999999943 12.99999999999893 0.1
1.999999999999511 13.99999999999907 0.1
1.999999999999592 14.99999999999923 0.1
1.999999999999672 15.99999999999939 0.1
1.999999999999754 16.99999999999954 0.1
1.999999999999834 17.99999999999969 0.1
1.999999999999915 18.99999999999985 0.1
2.999999999996741 0.9999999999998653 0.1
2.999999999996913 1.999999999999754 0.1
2.999999999997084 2.999999999999486 0.1
2.999999999997256 3.999999999999044 0.1
2.999999999997427 4.999999999998607 0.1
2.999999999997598 5.999999999998168 0.1
2.99999999999777 6.999999999997728 0.1
2.999999999997941 7.999999999997296 0.1
2.999999999998114 8.999999999997488 0.1
2.999999999998284 9.999999999997716 0.1
2.999999999998456 10.99999999999794 0.1
2.999999999998628 11.99999999999817 0.1
2.999999999998799 12.9999999999984 0.1
2.999999999998971 13.99999999999862 0.1
2.999999999999142 14.99999999999885 0.1
2.999999999999313 15.99999999999908 0.1
2.999999999999485 16.99999999999931 0.1
2.999999999999657 17.99999999999953 0.1
2.999999999999828 18.99999999999977 0.1
3.999999999993964 0.9999999999998204 0.1
3.999999999994283 1.999999999999672 0.1
3.9999999999946 2.999999999999314 0.1
3.999999999994917 3.999999999998726 0.1
3.999999999995235 4.999999999998141 0.1
3.999999999995553 5.999999999997558 0.1
3.999999999995869 6.999999999996973 0.1
3.999999999996187 7.999999999996401 0.1
3.999999999996505 8.999999999996648 0.1
3.999999999996822 9.999999999996955 0.1
3.99999999999714 10.99999999999726 0.1
3.999999999997456 11.99999999999756 0.1
3.999999999997774 12.99999999999786 0.1
3.999999999998092 13.99999999999817 0.1
3.999999999998409 14.99999999999847 0.1
3.999999999998727 15.99999999999878 0.1
3.999999999999044 16.99999999999908 0.1
3.999999999999361 17.99999999999939 0.1
3.999999999999678 18.99999999999969 0.1
4.999999999991191 0.9999999999997755 0.1
4.999999999991652 1.999999999999592 0.1
4.999999999992117 2.999999999999143 0.1
4.999999999992581 3.99999999999841 0.1
4.999999999993044 4.99999999999768 0.1
4.999999999993507 5.999999999996948 0.1
4.999999999993971 6.999999999996218 0.1
4.999999999994435 7.999999999995502 0.1
4.999999999994898 8.999999999995817 0.1
4.999999999995362 9.999999999996195 0.1
4.999999999995826 10.99999999999658 0.1
4.999999999996289 11.99999999999696 0.1
4.999999999996753 12.99999999999733 0.1
4.999999999997216 13.99999999999771 0.1
4.99999999999768 14.99999999999809 0.1
4.999999999998142 15.99999999999848 0.1
4.999999999998607 16.99999999999886 0.1
4.999999999999069 17.99999999999923 0.1
4.999999999999532 18.99999999999962 0.1
5.999999999988415 0.9999999999997308 0.1
5.999999999989027 1.999999999999511 0.1
5.999999999989636 2.999999999998971 0.1
5.999999999990243 3.999999999998092 0.1
5.999999999990854 4.999999999997215 0.1
5.999999999991464 5.99999999999634 0.1
5.999999999992072 6.999999999995461 0.1
5.999999999992681 7.999999999994603 0.1
5.999999999993292 8.99999999999498 0.1
5.999999999993901 9.999999999995435 0.1
5.99999999999451 10.99999999999589 0.1
5.999999999995119 11.99999999999634 0.1
5.999999999995731 12.9999999999968 0.1
5.999999999996339 13.99999999999726 0.1
5.999999999996948 14.99999999999771 0.1
5.999999999997558 15.99999999999817 0.1
5.999999999998169 16.99999999999863 0.1
5.999999999998778 17.99999999999908 0.1
5.999999999999385 18.99999999999955 0.1
6.999999999985641 0.9999999999996855 0.1
6.999999999986395 1.99999999999943 0.1
6.999999999987152 2.9999999999988 0.1
6.999999999987908 3.999999999997774 0.1
6.999999999988663 4.999999999996753 0.1
6.999999999989418 5.999999999995731 0.1
6.999999999990174 6.999999999994707 0.1
6.99999999999093 7.999999999993706 0.1
6.999999999991685 8.999999999994142 0.1
6.99999999999244 9.999999999994674 0.1
6.999999999993195 10.99999999999521 0.1
6.999999999993952 11.99999999999574 0.1
6.999999999994706 12.99999999999627 0.1
6.999999999995461 13.9999999999968 0.1
6.999999999996219 14.99999999999733 0.1
6.999999999996972 15.99999999999787 0.1
6.999999999997728 16.9999999999984 0.1
6.999999999998485 17.99999999999894 0.1
6.999999999999239 18.99999999999947 0.1
7.999999999982932 0.999999999999641 0.1
7.999999999983829 1.999999999999349 0.1
7.999999999984725 2.999999999998627 0.1
7.999999999985626 3.999999999997457 0.1
7.999999999986523 4.999999999996289 0.1
7.99999999998742 5.999999999995119 0.1
7.999999999988319 6.999999999993952 0.1
7.999999999989218 7.99999999999281 0.1
7.999999999990116 8.99999999999331 0.1
7.999999999991013 9.999999999993914 0.1
7.99999999999191 10.99999999999453 0.1
7.99999999999281 11.99999999999513 0.1
7.999999999993705 12.99999999999574 0.1
7.999999999994604 13.99999999999634 0.1
7.999999999995502 14.99999999999696 0.1
7.999999999996402 15.99999999999757 0.1
7.999999999997299 16.99999999999818 0.1
7.999999999998197 17.99999999999878 0.1
7.999999999999095 18.9999999999994 0.1
8.999999999984112 0.9999999999995959 0.1
8.99999999998495 1.999999999999268 0.1
8.999999999985786 2.999999999998457 0.1
8.999999999986622 3.99999999999714 0.1
8.999999999987454 4.999999999995826 0.1
8.999999999988294 5.999999999994511 0.1
8.999999999989129 6.999999999993195 0.1
8.999999999989964 7.99999999999191 0.1
8.999999999990802 8.999999999992472 0.1
8.999999999991637 9.999999999993154 0.1
8.999999999992472 10.99999999999384 0.1
8.99999999999331 11.99999999999452 0.1
8.999999999994142 12.99999999999521 0.1
8.99999999999498 13.99999999999589 0.1
8.999999999995815 14.99999999999658 0.1
8.99999999999665 15.99999999999726 0.1
8.999999999997488 16.99999999999795 0.1
8.999999999998323 17.99999999999862 0.1
8.999999999999158 18.99999999999932 0.1
9.999999999985562 0.9999999999995508 0.1
9.999999999986315 1.999999999999187 0.1
9.999999999987079 2.999999999998284 0.1
9.999999999987839 3.999999999996822 0.1
9.9999999999886 4.999999999995362 0.1
9.999999999989356 5.999999999993901 0.1
9.999999999990116 6.99999999999244 0.1
9.999999999990877 7.999999999991012 0.1
9.999999999991637 8.999999999991637 0.1
9.999999999992394 9.999999999992394 0.1
9.999999999993154 10.99999999999316 0.1
9.999999999993914 11.99999999999391 0.1
9.999999999994674 12.99999999999467 0.1
9.999999999995435 13.99999999999543 0.1
9.999999999996195 14.9999999999962 0.1
9.999999999996955 15.99999999999696 0.1
9.999999999997716 16.99999999999772 0.1
9.999999999998476 17.99999999999848 0.1
9.999999999999233 18.99999999999924 0.1
10.999999999987 0.9999999999995061 0.1
10.99999999998769 1.999999999999106 0.1
10.99999999998837 2.999999999998113 0.1
10.99999999998906 3.999999999996505 0.1
10.99999999998974 4.999999999994898 0.1
10.99999999999042 5.999999999993292 0.1
10.99999999999111 6.999999999991685 0.1
10.99999999999179 7.999999999990116 0.1
10.99999999999247 8.999999999990802 0.1
10.99999999999315 9.999999999991637 0.1
10.99999999999384 10.99999999999247 0.1
10.99999999999452 11.99999999999331 0.1
10.99999999999521 12.99999999999414 0.1
10.99999999999589 13.99999999999498 0.1
10.99999999999658 14.99999999999581 0.1
10.99999999999726 15.99999999999665 0.1
10.99999999999794 16.99999999999748 0.1
10.99999999999863 17.99999999999832 0.1
10.99999999999931 18.99999999999916 0.1
11.99999999998845 0.9999999999994611 0.1
11.99999999998906 1.999999999999025 0.1
11.99999999998966 2.999999999997942 0.1
11.99999999999027 3.999999999996188 0.1
11.99999999999088 4.999999999994435 0.1
11.99999999999148 5.999999999992681 0.1
11.99999999999209 6.999999999990928 0.1
11.9999999999927 7.999999999989218 0.1
11.99999999999331 8.999999999989964 0.1
11.99999999999391 9.999999999990877 0.1
11.99999999999453 10.99999999999179 0.1
11.99999999999513 11.9999999999927 0.1
11.99999999999574 12.99999999999361 0.1
11.99999999999634 13.99999999999452 0.1
11.99999999999696 14.99999999999544 0.1
11.99999999999756 15.99999999999635 0.1
11.99999999999817 16.99999999999726 0.1
11.99999999999878 17.99999999999817 0.1
11.99999999999939 18.99999999999908 0.1
12.99999999998989 0.9999999999994165 0.1
12.99999999999042 1.999999999998944 0.1
12.99999999999096 2.99999999999777 0.1
12.99999999999148 3.99999999999587 0.1
12.99999999999202 4.999999999993971 0.1
12.99999999999255 5.999999999992071 0.1
12.99999999999308 6.999999999990173 0.1
12.99999999999361 7.999999999988319 0.1
12.99999999999415 8.999999999989129 0.1
12.99999999999467 9.999999999990116 0.1
12.99999999999521 10.99999999999111 0.1
12.99999999999574 11.99999999999209 0.1
12.99999999999627 12.99999999999308 0.1
12.9999999999968 13.99999999999407 0.1
12.99999999999733 14.99999999999506 0.1
12.99999999999787 15.99999999999605 0.1
12.9999999999984 16.99999999999703 0.1
12.99999999999893 17.99999999999802 0.1
12.99999999999946 18.99999999999901 0.1
13.99999999999133 0.9999999999993715 0.1
13.99999999999178 1.999999999998863 0.1
13.99999999999225 2.999999999997599 0.1
13.9999999999927 3.999999999995553 0.1
13.99999999999315 4.999999999993509 0.1
13.99999999999361 5.999999999991465 0.1
13.99999999999406 6.999999999989418 0.1
13.99999999999452 7.999999999987421 0.1
13.99999999999498 8.999999999988294 0.1
13.99999999999543 9.999999999989356 0.1
13.99999999999589 10.99999999999042 0.1
13.99999999999635 11.99999999999148 0.1
13.9999999999968 12.99999999999255 0.1
13.99999999999726 13.99999999999361 0.1
13.99999999999771 14.99999999999467 0.1
13.99999999999817 15.99999999999574 0.1
13.99999999999862 16.9999999999968 0.1
13.99999999999908 17.99999999999787 0.1
13.99999999999953 18.99999999999893 0.1
14.99999999999278 0.9999999999993265 0.1
14.99999999999316 1.999999999998782 0.1
14.99999999999354 2.999999999997427 0.1
14.99999999999392 3.999999999995236 0.1
14.9999999999943 4.999999999993044 0.1
14.99999999999468 5.999999999990852 0.1
14.99999999999505 6.999999999988662 0.1
14.99999999999543 7.999999999986523 0.1
14.99999999999581 8.999999999987455 0.1
14.9999999999962 9.9999999999886 0.1
14.99999999999658 10.99999999998974 0.1
14.99999999999696 11.99999999999088 0.1
14.99999999999733 12.99999999999202 0.1
14.99999999999772 13.99999999999315 0.1
14.99999999999809 14.9999999999943 0.1
14.99999999999847 15.99999999999544 0.1
14.99999999999886 16.99999999999658 0.1
14.99999999999923 17.99999999999771 0.1
14.99999999999961 18.99999999999886 0.1
15.99999999999423 0.9999999999992817 0.1
15.99999999999453 1.999999999998701 0.1
15.99999999999483 2.999999999997256 0.1
15.99999999999513 3.999999999994917 0.1
15.99999999999544 4.999999999992582 0.1
15.99999999999574 5.999999999990245 0.1
15.99999999999605 6.999999999987907 0.1
15.99999999999635 7.999999999985627 0.1
15.99999999999665 8.99999999998662 0.1
15.99999999999696 9.999999999987839 0.1
15.99999999999726 10.99999999998905 0.1
15.99999999999757 11.99999999999027 0.1
15.99999999999787 12.99999999999149 0.1
15.99999999999817 13.9999999999927 0.1
15.99999999999848 14.99999999999392 0.1
15.99999999999878 15.99999999999514 0.1
15.99999999999908 16.99999999999634 0.1
15.99999999999939 17.99999999999757 0.1
15.99999999999969 18.99999999999878 0.1
16.99999999999567 0.9999999999992367 0.1
16.99999999999589 1.99999999999862 0.1
16.99999999999612 2.999999999997084 0.1
16.99999999999635 3.999999999994599 0.1
16.99999999999658 4.999999999992117 0.1
16.99999999999681 5.999999999989635 0.1
16.99999999999703 6.999999999987152 0.1
16.99999999999726 7.999999999984728 0.1
16.99999999999748 8.999999999985786 0.1
16.99999999999771 9.999999999987079 0.1
16.99999999999795 10.99999999998837 0.1
16.99999999999817 11.99999999998966 0.1
16.9999999999984 12.99999999999095 0.1
16.99999999999862 13.99999999999224 0.1
16.99999999999885 14.99999999999354 0.1
16.99999999999908 15.99999999999483 0.1
16.99999999999931 16.99999999999611 0.1
16.99999999999954 17.99999999999741 0.1
16.99999999999977 18.99999999999871 0.1
17.9999999999971 0.9999999999991919 0.1
17.99999999999726 1.999999999998539 0.1
17.99999999999742 2.999999999996913 0.1
17.99999999999756 3.999999999994282 0.1
17.99999999999771 4.999999999991655 0.1
17.99999999999787 5.999999999989024 0.1
17.99999999999802 6.999999999986395 0.1
17.99999999999817 7.999999999983828 0.1
17.99999999999832 8.999999999984947 0.1
17.99999999999847 9.999999999986318 0.1
17.99999999999863 10.99999999998769 0.1
17.99999999999878 11.99999999998906 0.1
17.99999999999893 12.99999999999042 0.1
17.99999999999909 13.99999999999179 0.1
17.99999999999923 14.99999999999316 0.1
17.99999999999939 15.99999999999453 0.1
17.99999999999954 16.99999999999589 0.1
17.99999999999969 17.99999999999726 0.1
17.99999999999984 18.99999999999863 0.1
18.99999999999856 0.9999999999991468 0.1
18.99999999999863 1.999999999998458 0.1
18.99999999999871 2.999999999996741 0.1
18.99999999999878 3.999999999993965 0.1
18.99999999999886 4.99999999999119 0.1
18.99999999999893 5.999999999988415 0.1
18.99999999999901 6.999999999985643 0.1
18.99999999999909 7.999999999982932 0.1
18.99999999999917 8.999999999984116 0.1
18.99999999999924 9.999999999985558 0.1
18.99999999999932 10.999999999987 0.1
18.9999999999994 11.99999999998845 0.1
18.99999999999947 12.99999999998989 0.1
18.99999999999954 13.99999999999133 0.1
18.99999999999962 14.99999999999278 0.1
18.99999999999969 15.99999999999423 0.1
18.99999999999977 16.99999999999566 0.1
18.99999999999985 17.99999999999711 0.1
18.99999999999992 18.99999999999856 0.1
0.999999999999102 0.0 0.01999999999995601
0.999999999999102 0.0 0.03999999999989589
0.999999999999102 0.0 0.0599999999998943
0.999999999999102 0.0 0.07999999999994742
1.999999999998378 0.0 0.01999999999995601
1.999999999998377 0.0 0.03999999999989589
1.999999999998378 0.0 0.0599999999998943
1.999999999998377 0.0 0.07999999999994742
2.999999999996569 0.0 0.01999999999995601
2.999999999996569 0.0 0.0399999999998959
2.999999999996569 0.0 0.05999999999989429
2.999999999996569 0.0 0.07999999999994743
3.999999999993649 0.0 0.01999999999995601
3.999999999993649 0.0 0.0399999999998959
3.999999999993648 0.0 0.05999999999989429
3.999999999993649 0.0 0.07999999999994742
4.999999999990727 0.0 0.01999999999995601
4.999999999990727 0.0 0.0399999999998959
4.999999999990727 0.0 0.0599999999998943
4.999999999990727 0.0 0.07999999999994742
5.999999999987807 0.0 0.01999999999995602
5.999999999987805 0.0 0.0399999999998959
5.999999999987806 0.0 0.05999999999989429
5.999999999987807 0.0 0.07999999999994742
6.999999999984883 0.0 0.01999999999995601
6.999999999984885 0.0 0.0399999999998959
6.999999999984885 0.0 0.05999999999989429
6.999999999984885 0.0 0.07999999999994742
7.999999999982033 0.0 0.01999999999995602
7.999999999982034 0.0 0.0399999999998959
7.999999999982034 0.0 0.0599999999998943
7.999999999982034 0.0 0.07999999999994742
8.999999999983277 0.0 0.01999999999995601
8.999999999983277 0.0 0.0399999999998959
8.999999999983277 0.0 0.05999999999989432
8.999999999983277 0.0 0.07999999999994742
9.999999999984798 0.0 0.01999999999995601
9.999999999984798 0.0 0.0399999999998959
9.999999999984798 0.0 0.05999999999989429
9.999999999984798 0.0 0.07999999999994742
10.99999999998632 0.0 0.01999999999995601
10.99999999998632 0.0 0.0399999999998959
10.99999999998632 0.0 0.05999999999989428
10.99999999998632 0.0 0.07999999999994742
11.99999999998784 0.0 0.01999999999995601
11.99999999998784 0.0 0.0399999999998959
11.99999999998784 0.0 0.05999999999989428
11.99999999998784 0.0 0.07999999999994742
12.99999999998936 0.0 0.01999999999995601
12.99999999998936 0.0 0.0399999999998959
12.99999999998936 0.0 0.05999999999989429
12.99999999998936 0.0 0.07999999999994742
13.99999999999088 0.0 0.01999999999995602
13.99999999999088 0.0 0.0399999999998959
13.99999999999087 0.0 0.05999999999989429
13.99999999999088 0.0 0.07999999999994742
14.9999999999924 0.0 0.01999999999995601
14.9999999999924 0.0 0.03999999999989589
14.9999999999924 0.0 0.0599999999998943
14.9999999999924 0.0 0.07999999999994742
15.99999999999392 0.0 0.01999999999995601
15.99999999999392 0.0 0.0399999999998959
15.99999999999392 0.0 0.0599999999998943
15.99999999999392 0.0 0.07999999999994742
16.99999999999544 0.0 0.01999999999995601
16.99999999999544 0.0 0.0399999999998959
16.99999999999544 0.0 0.0599999999998943
16.99999999999544 0.0 0.07999999999994742
17.99999999999696 0.0 0.01999999999995601
17.99999999999696 0.0 0.0399999999998959
17.99999999999696 0.0 0.0599999999998943
17.99999999999696 0.0 0.07999999999994743
18.99999999999848 0.0 0.01999999999995601
18.99999999999848 0.0 0.0399999999998959
18.99999999999848 0.0 0.0599999999998943
18.99999999999848 0.0 0.07999999999994742
20.0 0.999999999999102 0.01999999999995601
20.0 0.999999999999102 0.03999999999989589
20.0 0.999999999999102 0.0599999999998943
20.0 0.999999999999102 0.07999999999994742
20.0 1.999999999998378 0.01999999999995601
20.0 1.999999999998377 0.03999999999989589
20.0 1.999999999998378 0.0599999999998943
20.0 1.999999999998377 0.07999999999994742
20.0 2.999999999996569 0.01999999999995601
20.0 2.999999999996569 0.0399999999998959
20.0 2.999999999996569 0.05999999999989429
20.0 2.999999999996569 0.07999999999994743
20.0 3.999999999993649 0.01999999999995601
20.0 3.999999999993649 0.0399999999998959
20.0 3.999999999993648 0.05999999999989429
20.0 3.999999999993649 0.07999999999994742
20.0 4.999999999990727 0.01999999999995601
20.0 4.999999999990727 0.0399999999998959
20.0 4.999999999990727 0.0599999999998943
20.0 4.999999999990727 0.07999999999994742
20.0 5.999999999987807 0.01999999999995602
20.0 5.999999999987805 0.0399999999998959
20.0 5.999999999987806 0.05999999999989429
20.0 5.999999999987807 0.07999999999994742
20.0 6.999999999984883 0.01999999999995601
20.0 6.999999999984885 0.0399999999998959
20.0 6.999999999984885 0.05999999999989429
20.0 6.999999999984885 0.07999999999994742
20.0 7.999999999982033 0.01999999999995602
20.0 7.999999999982034 0.0399999999998959
20.0 7.999999999982034 0.0599999999998943
20.0 7.999999999982034 0.07999999999994742
20.0 8.999999999983277 0.01999999999995601
20.0 8.999999999983277 0.0399999999998959
20.0 8.999999999983277 0.05999999999989432
20.0 8.999999999983277 0.07999999999994742
20.0 9.999999999984798 0.01999999999995601
20.0 9.999999999984798 0.0399999999998959
20.0 9.999999999984798 0.05999999999989429
20.0 9.999999999984798 0.07999999999994742
20.0 10.99999999998632 0.01999999999995601
20.0 10.99999999998632 0.0399999999998959
20.0 10.99999999998632 0.05999999999989428
20.0 10.99999999998632 0.07999999999994742
20.0 11.99999999998784 0.01999999999995601
20.0 11.99999999998784 0.0399999999998959
20.0 11.99999999998784 0.05999999999989428
20.0 11.99999999998784 0.07999999999994742
20.0 12.99999999998936 0.01999999999995601
20.0 12.99999999998936 0.0399999999998959
20.0 12.99999999998936 0.05999999999989429
20.0 12.99999999998936 0.07999999999994742
20.0 13.99999999999088 0.01999999999995602
20.0 13.99999999999088 0.0399999999998959
20.0 13.99999999999087 0.05999999999989429
20.0 13.99999999999088 0.07999999999994742
20.0 14.9999999999924 0.01999999999995601
20.0 14.9999999999924 0.03999999999989589
20.0 14.9999999999924 0.0599999999998943
20.0 14.9999999999924 0.07999999999994742
20.0 15.99999999999392 0.01999999999995601
20.0 15.99999999999392 0.0399999999998959
20.0 15.99999999999392 0.0599999999998943
20.0 15.99999999999392 0.07999999999994742
20.0 16.99999999999544 0.01999999999995601
20.0 16.99999999999544 0.0399999999998959
20.0 16.99999999999544 0.0599999999998943
20.0 16.99999999999544 0.07999999999994742
20.0 17.99999999999696 0.01999999999995601
20.0 17.99999999999696 0.0399999999998959
20.0 17.99999999999696 0.0599999999998943
20.0 17.99999999999696 0.07999999999994743
20.0 18.99999999999848 0.01999999999995601
20.0 18.99999999999848 0.0399999999998959
20.0 18.99999999999848 0.0599999999998943
20.0 18.99999999999848 0.07999999999994742
19.0 20.0 0.01999999999995601
19.0 20.0 0.03999999999989589
19.0 20.0 0.0599999999998943
19.0 20.0 0.07999999999994742
18.0 20.0 0.01999999999995601
17.99999999999999 20.0 0.0399999999998959
17.99999999999999 20.0 0.05999999999989428
18.0 20.0 0.07999999999994742
16.99999999999999 20.0 0.01999999999995602
17.0 20.0 0.03999999999989589
17.0 20.0 0.0599999999998943
17.0 20.0 0.07999999999994742
15.99999999999999 20.0 0.01999999999995601
15.99999999999999 20.0 0.0399999999998959
15.99999999999999 20.0 0.0599999999998943
15.99999999999999 20.0 0.07999999999994742
14.99999999999999 20.0 0.01999999999995601
14.99999999999999 20.0 0.0399999999998959
14.99999999999999 20.0 0.05999999999989429
14.99999999999999 20.0 0.07999999999994742
13.99999999999999 20.0 0.01999999999995601
13.99999999999999 20.0 0.0399999999998959
13.99999999999999 20.0 0.0599999999998943
13.99999999999999 20.0 0.07999999999994742
12.99999999999999 20.0 0.01999999999995601
12.99999999999999 20.0 0.0399999999998959
12.99999999999999 20.0 0.0599999999998943
12.99999999999999 20.0 0.07999999999994742
11.99999999999999 20.0 0.01999999999995601
12.0 20.0 0.0399999999998959
11.99999999999999 20.0 0.05999999999989429
11.99999999999999 20.0 0.07999999999994742
11.0 20.0 0.01999999999995601
10.99999999999999 20.0 0.0399999999998959
10.99999999999999 20.0 0.05999999999989429
10.99999999999999 20.0 0.07999999999994742
9.999999999999993 20.0 0.01999999999995601
9.999999999999993 20.0 0.0399999999998959
9.999999999999993 20.0 0.0599999999998943
9.999999999999993 20.0 0.07999999999994742
8.999999999999993 20.0 0.01999999999995601
8.999999999999995 20.0 0.0399999999998959
8.999999999999995 20.0 0.0599999999998943
8.999999999999995 20.0 0.07999999999994742
7.999999999999996 20.0 0.01999999999995601
7.999999999999991 20.0 0.0399999999998959
7.999999999999992 20.0 0.0599999999998943
7.999999999999992 20.0 0.07999999999994742
6.999999999999995 20.0 0.01999999999995601
6.999999999999995 20.0 0.0399999999998959
6.999999999999995 20.0 0.05999999999989428
6.999999999999995 20.0 0.07999999999994742
5.999999999999996 20.0 0.01999999999995602
5.999999999999996 20.0 0.0399999999998959
5.999999999999996 20.0 0.0599999999998943
5.999999999999996 20.0 0.07999999999994742
4.999999999999996 20.0 0.01999999999995601
4.999999999999996 20.0 0.03999999999989589
4.999999999999997 20.0 0.0599999999998943
4.999999999999995 20.0 0.07999999999994742
3.999999999999998 20.0 0.019999999999956
3.999999999999996 20.0 0.03999999999989589
3.999999999999996 20.0 0.05999999999989432
3.999999999999996 20.0 0.07999999999994742
3.0 20.0 0.01999999999995601
3.0 20.0 0.0399999999998959
3.0 20.0 0.0599999999998943
2.999999999999999 20.0 0.07999999999994742
1.999999999999997 20.0 0.01999999999995601
1.999999999999996 20.0 0.0399999999998959
1.999999999999996 20.0 0.0599999999998943
1.999999999999996 20.0 0.07999999999994742
1.0 20.0 0.01999999999995601
1.0 20.0 0.03999999999989589
1.0 20.0 0.0599999999998943
1.0 20.0 0.0799999999999474
0.0 19.0 0.01999999999995601
0.0 19.0 0.03999999999989589
0.0 19.0 0.0599999999998943
0.0 19.0 0.07999999999994742
0.0 18.0 0.01999999999995601
0.0 17.99999999999999 0.0399999999998959
0.0 17.99999999999999 0.05999999999989428
0.0 18.0 0.07999999999994742
0.0 16.99999999999999 0.01999999999995602
0.0 17.0 0.03999999999989589
0.0 17.0 0.0599999999998943
0.0 17.0 0.07999999999994742
0.0 15.99999999999999 0.01999999999995601
0.0 15.99999999999999 0.0399999999998959
0.0 15.99999999999999 0.0599999999998943
0.0 15.99999999999999 0.07999999999994742
0.0 14.99999999999999 0.01999999999995601
0.0 14.99999999999999 0.0399999999998959
0.0 14.99999999999999 0.05999999999989429
0.0 14.99999999999999 0.07999999999994742
0.0 13.99999999999999 0.01999999999995601
0.0 13.99999999999999 0.0399999999998959
0.0 13.99999999999999 0.0599999999998943
0.0 13.99999999999999 0.07999999999994742
0.0 12.99999999999999 0.01999999999995601
0.0 12.99999999999999 0.0399999999998959
0.0 12.99999999999999 0.0599999999998943
0.0 12.99999999999999 0.07999999999994742
0.0 11.99999999999999 0.01999999999995601
0.0 12.0 0.0399999999998959
0.0 11.99999999999999 0.05999999999989429
0.0 11.99999999999999 0.07999999999994742
0.0 11.0 0.01999999999995601
0.0 10.99999999999999 0.0399999999998959
0.0 10.99999999999999 0.05999999999989429
0.0 10.99999999999999 0.07999999999994742
0.0 9.999999999999993 0.01999999999995601
0.0 9.999999999999993 0.0399999999998959
0.0 9.999999999999993 0.0599999999998943
0.0 9.999999999999993 0.07999999999994742
0.0 8.999999999999993 0.01999999999995601
0.0 8.999999999999995 0.0399999999998959
0.0 8.999999999999995 0.0599999999998943
0.0 8.999999999999995 0.07999999999994742
0.0 7.999999999999996 0.01999999999995601
0.0 7.999999999999991 0.0399999999998959
0.0 7.999999999999992 0.0599999999998943
0.0 7.999999999999992 0.07999999999994742
0.0 6.999999999999995 0.01999999999995601
0.0 6.999999999999995 0.0399999999998959
0.0 6.999999999999995 0.05999999999989428
0.0 6.999999999999995 0.07999999999994742
0.0 5.999999999999996 0.01999999999995602
0.0 5.999999999999996 0.0399999999998959
0.0 5.999999999999996 0.0599999999998943
0.0 5.999999999999996 0.07999999999994742
0.0 4.999999999999996 0.01999999999995601
0.0 4.999999999999996 0.03999999999989589
0.0 4.999999999999997 0.0599999999998943
0.0 4.999999999999995 0.07999999999994742
0.0 3.999999999999998 0.019999999999956
0.0 3.999999999999996 0.03999999999989589
0.0 3.999999999999996 0.05999999999989432
0.0 3.999999999999996 0.07999999999994742
0.0 3.0 0.01999999999995601
0.0 3.0 0.0399999999998959
0.0 3.0 0.0599999999998943
0.0 2.999999999999999 0.07999999999994742
0.0 1.999999999999997 0.01999999999995601
0.0 1.999999999999996 0.0399999999998959
0.0 1.999999999999996 0.0599999999998943
0.0 1.999999999999996 0.07999999999994742
0.0 1.0 0.01999999999995601
0.0 1.0 0.03999999999989589
0.0 1.0 0.0599999999998943
0.0 1.0 0.0799999999999474
0.9999999999991473 0.9999999999999553 0.01999999999995602
0.9999999999991472 0.9999999999999551 0.03999999999989586
0.9999999999991472 0.9999999999999551 0.0599999999998943
0.9999999999991473 0.9999999999999547 0.0799999999999474
0.9999999999991918 1.999999999999917 0.01999999999995602
0.9999999999991916 1.999999999999915 0.03999999999989589
0.9999999999991918 1.999999999999917 0.0599999999998943
0.9999999999991915 1.999999999999916 0.07999999999994743
0.9999999999992367 2.999999999999827 0.01999999999995601
0.9999999999992367 2.999999999999829 0.0399999999998959
0.9999999999992366 2.999999999999829 0.05999999999989429
0.9999999999992367 2.999999999999828 0.07999999999994743
0.9999999999992814 3.999999999999679 0.01999999999995601
0.9999999999992817 3.999999999999678 0.03999999999989588
0.9999999999992818 3.999999999999678 0.05999999999989433
0.9999999999992817 3.999999999999676 0.07999999999994738
0.9999999999993268 4.999999999999536 0.01999999999995602
0.999999999999326 4.999999999999533 0.03999999999989589
0.9999999999993261 4.999999999999536 0.05999999999989428
0.9999999999993265 4.999999999999533 0.07999999999994742
0.9999999999993711 5.999999999999384 0.01999999999995603
0.9999999999993713 5.999999999999384 0.03999999999989588
0.9999999999993713 5.999999999999385 0.05999999999989428
0.9999999999993712 5.999999999999385 0.07999999999994742
0.9999999999994166 6.999999999999236 0.019999999999956
0.9999999999994164 6.999999999999238 0.03999999999989588
0.9999999999994167 6.999999999999234 0.0599999999998943
0.9999999999994167 6.999999999999238 0.07999999999994742
0.9999999999994608 7.999999999999097 0.01999999999995603
0.9999999999994614 7.999999999999093 0.03999999999989587
0.9999999999994613 7.999999999999098 0.05999999999989429
0.9999999999994612 7.999999999999096 0.0799999999999474
0.9999999999995067 8.999999999999156 0.01999999999995601
0.9999999999995062 8.999999999999162 0.0399999999998959
0.9999999999995062 8.999999999999156 0.05999999999989432
0.9999999999995063 8.99999999999916 0.07999999999994743
0.9999999999995509 9.999999999999236 0.01999999999995602
0.9999999999995515 9.999999999999236 0.03999999999989589
0.9999999999995511 9.999999999999236 0.05999999999989433
0.999999999999551 9.999999999999236 0.07999999999994739
0.9999999999995958 10.99999999999931 0.01999999999995601
0.999999999999596 10.99999999999931 0.0399999999998959
0.9999999999995963 10.9999999999993 0.0599999999998943
0.9999999999995958 10.9999999999993 0.0799999999999474
0.9999999999996406 11.99999999999938 0.01999999999995602
0.9999999999996406 11.99999999999939 0.0399999999998959
0.9999999999996406 11.99999999999939 0.05999999999989429
0.9999999999996407 11.99999999999939 0.07999999999994742
0.9999999999996859 12.99999999999947 0.01999999999995602
0.9999999999996855 12.99999999999947 0.03999999999989589
0.9999999999996856 12.99999999999946 0.05999999999989432
0.9999999999996856 12.99999999999946 0.0799999999999474
0.9999999999997309 13.99999999999954 0.01999999999995601
0.9999999999997309 13.99999999999953 0.0399999999998959
0.9999999999997307 13.99999999999953 0.0599999999998943
0.9999999999997307 13.99999999999953 0.07999999999994742
0.9999999999997751 14.99999999999961 0.01999999999995601
0.9999999999997755 14.99999999999961 0.03999999999989587
0.9999999999997751 14.99999999999961 0.05999999999989428
0.9999999999997751 14.99999999999962 0.07999999999994742
0.9999999999998208 15.99999999999969 0.01999999999995601
0.9999999999998204 15.9999999999997 0.03999999999989589
0.9999999999998208 15.9999999999997 0.05999999999989432
0.9999999999998208 15.9999999999997 0.07999999999994742
0.9999999999998656 16.99999999999976 0.01999999999995602
0.9999999999998653 16.99999999999978 0.03999999999989588
0.9999999999998657 16.99999999999977 0.05999999999989435
0.9999999999998654 16.99999999999978 0.07999999999994742
0.9999999999999103 17.99999999999984 0.01999999999995602
0.9999999999999104 17.99999999999985 0.03999999999989588
0.9999999999999103 17.99999999999985 0.05999999999989428
0.9999999999999104 17.99999999999985 0.07999999999994742
0.9999999999999551 18.99999999999992 0.01999999999995602
0.999999999999955 18.99999999999993 0.03999999999989588
0.999999999999955 18.99999999999993 0.05999999999989431
0.9999999999999546 18.99999999999992 0.07999999999994742
1.999999999998459 0.999999999999911 0.01999999999995601
1.999999999998457 0.9999999999999104 0.03999999999989586
1.999999999998458 0.9999999999999103 0.05999999999989433
1.999999999998458 0.9999999999999103 0.07999999999994742
1.99999999999854 1.999999999999835 0.01999999999995601
1.999999999998538 1.999999999999833 0.0399999999998959
1.999999999998539 1.999999999999833 0.05999999999989433
1.999999999998539 1.999999999999833 0.07999999999994742
1.999999999998622 2.999999999999658 0.01999999999995601
1.99999999999862 2.999999999999656 0.03999999999989588
1.999999999998621 2.999999999999657 0.0599999999998943
1.99999999999862 2.999999999999657 0.07999999999994743
1.999999999998703 3.999999999999363 0.019999999999956
1.999999999998701 3.999999999999361 0.0399999999998959
1.999999999998701 3.999999999999364 0.05999999999989433
1.999999999998701 3.999999999999362 0.07999999999994736
1.999999999998783 4.999999999999067 0.01999999999995603
1.999999999998781 4.999999999999069 0.03999999999989589
1.999999999998783 4.999999999999069 0.0599999999998943
1.999999999998782 4.999999999999067 0.07999999999994739
1.999999999998863 5.999999999998781 0.01999999999995603
1.999999999998863 5.999999999998778 0.03999999999989589
1.999999999998862 5.999999999998779 0.05999999999989432
1.999999999998863 5.999999999998779 0.07999999999994742
1.999999999998944 6.999999999998481 0.019999999999956
1.999999999998942 6.999999999998481 0.03999999999989587
1.999999999998944 6.999999999998484 0.05999999999989427
1.999999999998944 6.999999999998483 0.07999999999994742
1.999999999999026 7.999999999998201 0.01999999999995603
1.999999999999025 7.999999999998193 0.03999999999989588
1.999999999999025 7.999999999998198 0.05999999999989428
1.999999999999024 7.999999999998197 0.07999999999994742
1.999999999999106 8.999999999998318 0.01999999999995601
1.999999999999105 8.999999999998318 0.0399999999998959
1.999999999999106 8.99999999999832 0.05999999999989433
1.999999999999106 8.99999999999832 0.07999999999994742
1.999999999999187 9.99999999999847 0.01999999999995602
1.999999999999187 9.999999999998472 0.03999999999989589
1.999999999999187 9.99999999999847 0.05999999999989434
1.999999999999187 9.99999999999847 0.07999999999994742
1.999999999999268 10.99999999999863 0.01999999999995601
1.999999999999267 10.99999999999863 0.0399999999998959
1.999999999999268 10.99999999999863 0.0599999999998943
1.999999999999268 10.99999999999863 0.07999999999994742
1.999999999999349 11.99999999999878 0.01999999999995603
1.999999999999349 11.99999999999878 0.0399999999998959
1.999999999999348 11.99999999999878 0.05999999999989429
1.999999999999348 11.99999999999878 0.07999999999994742
1.999999999999431 12.99999999999894 0.01999999999995601
1.999999999999429 12.99999999999893 0.03999999999989589
1.99999999999943 12.99999999999893 0.05999999999989433
1.999999999999431 12.99999999999893 0.07999999999994742
1.999999999999512 13.99999999999908 0.01999999999995601
1.99999999999951 13.99999999999907 0.0399999999998959
1.999999999999512 13.99999999999907 0.05999999999989431
1.999999999999512 13.99999999999908 0.07999999999994742
1.999999999999593 14.99999999999923 0.01999999999995601
1.999999999999591 14.99999999999923 0.03999999999989588
1.999999999999592 14.99999999999923 0.05999999999989429
1.999999999999592 14.99999999999923 0.07999999999994742
1.999999999999672 15.99999999999939 0.01999999999995601
1.999999999999672 15.99999999999939 0.0399999999998959
1.999999999999672 15.99999999999939 0.05999999999989429
1.999999999999672 15.99999999999939 0.07999999999994742
1.999999999999754 16.99999999999954 0.01999999999995602
1.999999999999753 16.99999999999955 0.0399999999998959
1.999999999999754 16.99999999999955 0.05999999999989433
1.999999999999754 16.99999999999954 0.07999999999994742
1.999999999999835 17.9999999999997 0.01999999999995603
1.999999999999834 17.99999999999968 0.0399999999998959
1.999999999999834 17.99999999999968 0.05999999999989429
1.999999999999834 17.99999999999969 0.07999999999994745
1.999999999999917 18.99999999999985 0.01999999999995602
1.999999999999916 18.99999999999985 0.0399999999998959
1.999999999999915 18.99999999999985 0.05999999999989433
1.999999999999916 18.99999999999985 0.07999999999994743
2.999999999996741 0.9999999999998658 0.01999999999995601
2.999999999996743 0.9999999999998658 0.03999999999989588
2.999999999996743 0.9999999999998657 0.05999999999989429
2.999999999996743 0.9999999999998658 0.07999999999994743
2.999999999996914 1.999999999999754 0.01999999999995601
2.999999999996912 1.999999999999753 0.03999999999989589
2.999999999996914 1.999999999999753 0.0599999999998943
2.999999999996913 1.999999999999753 0.07999999999994743
2.999999999997084 2.999999999999485 0.01999999999995601
2.999999999997084 2.999999999999485 0.0399999999998959
2.999999999997084 2.999999999999487 0.05999999999989427
2.999999999997084 2.999999999999484 0.07999999999994747
2.999999999997256 3.999999999999047 0.01999999999995599
2.999999999997256 3.999999999999045 0.0399999999998959
2.999999999997256 3.999999999999044 0.05999999999989432
2.999999999997256 3.999999999999043 0.07999999999994742
2.999999999997428 4.999999999998607 0.01999999999995601
2.999999999997426 4.999999999998606 0.0399999999998959
2.999999999997426 4.999999999998607 0.0599999999998943
2.999999999997428 4.999999999998605 0.07999999999994743
2.999999999997597 5.999999999998167 0.01999999999995603
2.999999999997598 5.999999999998168 0.0399999999998959
2.999999999997597 5.999999999998167 0.05999999999989429
2.999999999997597 5.999999999998169 0.07999999999994745
2.999999999997769 6.99999999999773 0.019999999999956
2.99999999999777 6.999999999997732 0.0399999999998959
2.99999999999777 6.999999999997732 0.05999999999989426
2.999999999997769 6.999999999997729 0.07999999999994742
2.999999999997942 7.999999999997295 0.01999999999995601
2.999999999997939 7.999999999997293 0.0399999999998959
2.99999999999794 7.999999999997293 0.05999999999989428
2.99999999999794 7.999999999997296 0.07999999999994742
2.999999999998113 8.999999999997485 0.01999999999995601
2.999999999998113 8.999999999997492 0.03999999999989589
2.999999999998114 8.999999999997488 0.05999999999989435
2.999999999998114 8.999999999997492 0.07999999999994742
2.999999999998285 9.999999999997716 0.01999999999995601
2.999999999998285 9.999999999997716 0.03999999999989589
2.999999999998285 9.999999999997714 0.0599999999998943
2.999999999998284 9.999999999997712 0.07999999999994742
2.999999999998457 10.99999999999795 0.01999999999995601
2.999999999998457 10.99999999999795 0.0399999999998959
2.999999999998456 10.99999999999795 0.05999999999989426
2.999999999998456 10.99999999999795 0.07999999999994743
2.999999999998627 11.99999999999818 0.01999999999995601
2.999999999998627 11.99999999999817 0.0399999999998959
2.999999999998627 11.99999999999817 0.0599999999998943
2.999999999998629 11.99999999999818 0.07999999999994743
2.9999999999988 12.99999999999841 0.019999999999956
2.999999999998798 12.9999999999984 0.0399999999998959
2.9999999999988 12.9999999999984 0.05999999999989432
2.999999999998798 12.9999999999984 0.07999999999994742
2.999999999998973 13.99999999999862 0.01999999999995601
2.999999999998971 13.99999999999862 0.0399999999998959
2.999999999998971 13.99999999999862 0.05999999999989429
2.999999999998971 13.99999999999862 0.07999999999994742
2.999999999999144 14.99999999999885 0.01999999999995601
2.999999999999142 14.99999999999885 0.03999999999989588
2.999999999999143 14.99999999999885 0.0599999999998943
2.999999999999141 14.99999999999885 0.07999999999994742
2.999999999999312 15.99999999999908 0.01999999999995601
2.999999999999314 15.99999999999908 0.0399999999998959
2.999999999999313 15.99999999999909 0.0599999999998943
2.999999999999314 15.99999999999909 0.07999999999994745
2.999999999999486 16.9999999999993 0.01999999999995603
2.999999999999486 16.99999999999931 0.0399999999998959
2.999999999999488 16.99999999999931 0.05999999999989433
2.999999999999486 16.99999999999931 0.07999999999994742
2.999999999999656 17.99999999999954 0.01999999999995601
2.999999999999656 17.99999999999953 0.0399999999998959
2.999999999999658 17.99999999999952 0.05999999999989426
2.999999999999658 17.99999999999955 0.07999999999994745
2.999999999999828 18.99999999999977 0.01999999999995601
2.999999999999829 18.99999999999977 0.0399999999998959
2.999999999999828 18.99999999999977 0.05999999999989429
2.999999999999828 18.99999999999977 0.07999999999994743
3.999999999993965 0.9999999999998205 0.01999999999995601
3.999999999993965 0.9999999999998203 0.03999999999989588
3.999999999993964 0.9999999999998204 0.05999999999989429
3.999999999993963 0.9999999999998203 0.0799999999999474
3.999999999994283 1.999999999999673 0.019999999999956
3.999999999994285 1.999999999999672 0.0399999999998959
3.999999999994285 1.999999999999672 0.0599999999998943
3.999999999994284 1.999999999999672 0.07999999999994743
3.999999999994601 2.999999999999315 0.01999999999995601
3.999999999994601 2.999999999999315 0.0399999999998959
3.999999999994599 2.999999999999314 0.05999999999989426
3.999999999994599 2.999999999999315 0.07999999999994743
3.999999999994917 3.999999999998729 0.01999999999995599
3.999999999994918 3.999999999998726 0.03999999999989588
3.999999999994917 3.999999999998726 0.05999999999989433
3.999999999994915 3.999999999998726 0.07999999999994735
3.999999999995236 4.999999999998142 0.01999999999995601
3.999999999995237 4.999999999998139 0.03999999999989586
3.999999999995237 4.999999999998142 0.05999999999989429
3.999999999995235 4.999999999998142 0.07999999999994742
3.999999999995553 5.999999999997557 0.01999999999995601
3.999999999995555 5.999999999997557 0.03999999999989588
3.999999999995555 5.999999999997558 0.05999999999989428
3.999999999995554 5.99999999999756 0.07999999999994742
3.999999999995869 6.99999999999697 0.019999999999956
3.99999999999587 6.999999999996973 0.0399999999998959
3.999999999995868 6.999999999996973 0.05999999999989429
3.999999999995869 6.999999999996974 0.07999999999994742
3.999999999996188 7.999999999996406 0.01999999999995601
3.999999999996188 7.9999999999964 0.0399999999998959
3.999999999996186 7.999999999996401 0.05999999999989429
3.999999999996186 7.999999999996401 0.0799999999999474
3.999999999996507 8.999999999996648 0.01999999999995601
3.999999999996505 8.999999999996648 0.0399999999998959
3.999999999996507 8.999999999996643 0.05999999999989432
3.999999999996506 8.999999999996643 0.07999999999994742
3.999999999996823 9.999999999996955 0.01999999999995601
3.99999999999682 9.999999999996955 0.0399999999998959
3.999999999996822 9.999999999996952 0.05999999999989433
3.999999999996822 9.999999999996957 0.07999999999994742
3.999999999997139 10.99999999999726 0.01999999999995601
3.99999999999714 10.99999999999726 0.0399999999998959
3.999999999997141 10.99999999999726 0.05999999999989429
3.99999999999714 10.99999999999725 0.07999999999994742
3.999999999997457 11.99999999999756 0.01999999999995601
3.999999999997455 11.99999999999756 0.0399999999998959
3.999999999997457 11.99999999999756 0.05999999999989429
3.999999999997457 11.99999999999756 0.07999999999994742
3.999999999997773 12.99999999999787 0.019999999999956
3.999999999997776 12.99999999999786 0.0399999999998959
3.999999999997775 12.99999999999787 0.05999999999989434
3.999999999997775 12.99999999999787 0.07999999999994742
3.999999999998093 13.99999999999817 0.01999999999995601
3.99999999999809 13.99999999999817 0.0399999999998959
3.999999999998092 13.99999999999817 0.0599999999998943
3.999999999998091 13.99999999999817 0.07999999999994742
3.99999999999841 14.99999999999847 0.01999999999995601
3.99999999999841 14.99999999999848 0.0399999999998959
3.999999999998409 14.99999999999847 0.05999999999989432
3.999999999998409 14.99999999999847 0.07999999999994742
3.999999999998729 15.99999999999878 0.01999999999995601
3.999999999998726 15.99999999999878 0.0399999999998959
3.999999999998725 15.99999999999878 0.05999999999989434
3.999999999998727 15.99999999999878 0.07999999999994742
3.999999999999047 16.99999999999908 0.019999999999956
3.999999999999043 16.99999999999908 0.03999999999989588
3.999999999999044 16.99999999999908 0.05999999999989433
3.999999999999044 16.99999999999909 0.07999999999994742
3.999999999999362 17.99999999999939 0.01999999999995601
3.999999999999361 17.99999999999939 0.0399999999998959
3.999999999999363 17.99999999999939 0.05999999999989432
3.999999999999363 17.99999999999939 0.07999999999994743
3.999999999999679 18.99999999999969 0.01999999999995601
3.999999999999678 18.99999999999969 0.03999999999989587
3.999999999999678 18.99999999999969 0.05999999999989432
3.999999999999675 18.99999999999969 0.07999999999994742
4.999999999991193 0.9999999999997755 0.01999999999995602
4.999999999991193 0.9999999999997755 0.03999999999989589
4.999999999991193 0.9999999999997755 0.05999999999989428
4.999999999991191 0.9999999999997754 0.07999999999994742
4.999999999991652 1.999999999999592 0.01999999999995602
4.999999999991651 1.999999999999591 0.0399999999998959
4.999999999991653 1.999999999999593 0.0599999999998943
4.999999999991649 1.999999999999592 0.07999999999994742
4.999999999992117 2.999999999999143 0.01999999999995601
4.999999999992114 2.999999999999142 0.0399999999998959
4.999999999992117 2.999999999999142 0.0599999999998943
4.999999999992119 2.999999999999143 0.07999999999994743
4.999999999992582 3.99999999999841 0.01999999999995601
4.999999999992581 3.999999999998409 0.03999999999989589
4.999999999992583 3.999999999998409 0.05999999999989429
4.999999999992579 3.99999999999841 0.07999999999994738
4.999999999993044 4.999999999997683 0.01999999999995603
4.999999999993042 4.999999999997679 0.0399999999998959
4.999999999993045 4.999999999997682 0.05999999999989428
4.999999999993043 4.999999999997679 0.07999999999994739
4.999999999993507 5.99999999999695 0.01999999999995603
4.999999999993507 5.999999999996947 0.03999999999989588
4.999999999993507 5.999999999996947 0.05999999999989428
4.999999999993507 5.999999999996948 0.07999999999994742
4.999999999993969 6.999999999996215 0.019999999999956
4.999999999993969 6.999999999996216 0.0399999999998959
4.999999999993969 6.999999999996215 0.05999999999989427
4.999999999993969 6.999999999996216 0.07999999999994742
4.999999999994435 7.999999999995504 0.01999999999995602
4.999999999994431 7.999999999995501 0.0399999999998959
4.999999999994435 7.999999999995501 0.05999999999989429
4.999999999994435 7.999999999995503 0.07999999999994742
4.999999999994898 8.999999999995815 0.01999999999995601
4.999999999994898 8.999999999995815 0.0399999999998959
4.999999999994898 8.999999999995813 0.05999999999989432
4.999999999994898 8.999999999995815 0.07999999999994742
4.999999999995362 9.9999999999962 0.019999999999956
4.99999999999536 9.999999999996197 0.0399999999998959
4.999999999995362 9.999999999996195 0.05999999999989433
4.99999999999536 9.999999999996195 0.07999999999994742
4.999999999995826 10.99999999999657 0.01999999999995601
4.999999999995826 10.99999999999658 0.0399999999998959
4.999999999995826 10.99999999999658 0.05999999999989428
4.999999999995824 10.99999999999658 0.07999999999994742
4.99999999999629 11.99999999999696 0.01999999999995602
4.999999999996288 11.99999999999696 0.0399999999998959
4.999999999996289 11.99999999999696 0.05999999999989429
4.999999999996287 11.99999999999695 0.07999999999994742
4.999999999996753 12.99999999999734 0.01999999999995602
4.999999999996753 12.99999999999733 0.0399999999998959
4.999999999996753 12.99999999999734 0.05999999999989429
4.999999999996753 12.99999999999734 0.07999999999994742
4.999999999997218 13.99999999999771 0.01999999999995601
4.999999999997215 13.99999999999771 0.0399999999998959
4.999999999997218 13.99999999999771 0.05999999999989432
4.999999999997216 13.99999999999772 0.07999999999994742
4.99999999999768 14.9999999999981 0.01999999999995601
4.999999999997679 14.9999999999981 0.0399999999998959
4.99999999999768 14.99999999999809 0.05999999999989428
4.999999999997677 14.99999999999809 0.07999999999994742
4.999999999998144 15.99999999999848 0.01999999999995601
4.999999999998143 15.99999999999848 0.0399999999998959
4.999999999998144 15.99999999999848 0.0599999999998943
4.999999999998141 15.99999999999848 0.07999999999994742
4.99999999999861 16.99999999999886 0.01999999999995602
4.999999999998606 16.99999999999886 0.03999999999989588
4.99999999999861 16.99999999999885 0.05999999999989432
4.999999999998606 16.99999999999885 0.07999999999994742
4.999999999999067 17.99999999999923 0.01999999999995603
4.999999999999069 17.99999999999923 0.0399999999998959
4.999999999999069 17.99999999999923 0.05999999999989429
4.999999999999066 17.99999999999923 0.07999999999994745
4.99999999999953 18.99999999999963 0.01999999999995602
4.99999999999953 18.99999999999962 0.03999999999989588
4.999999999999533 18.99999999999962 0.0599999999998943
4.999999999999531 18.99999999999962 0.07999999999994742
5.999999999988414 0.9999999999997311 0.01999999999995603
5.999999999988411 0.9999999999997311 0.03999999999989588
5.999999999988413 0.9999999999997307 0.05999999999989428
5.999999999988414 0.9999999999997304 0.0799999999999474
5.999999999989029 1.999999999999513 0.01999999999995603
5.999999999989026 1.999999999999511 0.03999999999989589
5.999999999989027 1.999999999999512 0.05999999999989429
5.999999999989027 1.999999999999512 0.07999999999994742
5.999999999989636 2.999999999998971 0.01999999999995603
5.999999999989631 2.999999999998971 0.0399999999998959
5.999999999989638 2.999999999998971 0.05999999999989427
5.999999999989642 2.999999999998971 0.07999999999994742
5.999999999990241 3.999999999998093 0.01999999999995601
5.999999999990239 3.999999999998091 0.0399999999998959
5.999999999990241 3.999999999998093 0.05999999999989428
5.999999999990242 3.999999999998091 0.07999999999994738
5.999999999990852 4.999999999997215 0.01999999999995603
5.999999999990849 4.999999999997213 0.0399999999998959
5.999999999990853 4.999999999997216 0.05999999999989428
5.999999999990857 4.999999999997215 0.07999999999994739
5.999999999991463 5.999999999996338 0.01999999999995603
5.999999999991463 5.999999999996338 0.0399999999998959
5.999999999991462 5.999999999996338 0.05999999999989428
5.999999999991464 5.999999999996342 0.07999999999994742
5.999999999992074 6.999999999995457 0.01999999999995602
5.999999999992071 6.999999999995463 0.0399999999998959
5.99999999999207 6.99999999999546 0.05999999999989426
5.999999999992076 6.99999999999546 0.07999999999994742
5.999999999992681 7.999999999994604 0.01999999999995603
5.999999999992681 7.999999999994602 0.0399999999998959
5.999999999992682 7.999999999994602 0.05999999999989428
5.999999999992682 7.999999999994602 0.07999999999994742
5.999999999993292 8.999999999994982 0.01999999999995603
5.999999999993292 8.999999999994982 0.0399999999998959
5.999999999993294 8.99999999999498 0.05999999999989433
5.999999999993291 8.999999999994978 0.07999999999994742
5.9999999999939 9.999999999995437 0.01999999999995601
5.999999999993899 9.999999999995435 0.03999999999989589
5.999999999993902 9.999999999995435 0.05999999999989433
5.999999999993902 9.999999999995435 0.0799999999999474
5.999999999994507 10.99999999999589 0.01999999999995603
5.999999999994508 10.99999999999589 0.0399999999998959
5.999999999994512 10.99999999999589 0.05999999999989429
5.999999999994512 10.99999999999589 0.07999999999994742
5.999999999995119 11.99999999999635 0.01999999999995602
5.999999999995116 11.99999999999635 0.0399999999998959
5.999999999995117 11.99999999999635 0.05999999999989428
5.999999999995118 11.99999999999634 0.07999999999994742
5.99999999999573 12.9999999999968 0.01999999999995601
5.99999999999573 12.9999999999968 0.0399999999998959
5.99999999999573 12.9999999999968 0.05999999999989428
5.999999999995731 12.9999999999968 0.07999999999994742
5.999999999996338 13.99999999999727 0.01999999999995603
5.999999999996334 13.99999999999726 0.0399999999998959
5.999999999996339 13.99999999999726 0.0599999999998943
5.999999999996341 13.99999999999726 0.07999999999994742
5.99999999999695 14.99999999999771 0.01999999999995603
5.999999999996946 14.99999999999771 0.03999999999989589
5.999999999996946 14.99999999999771 0.05999999999989427
5.999999999996948 14.99999999999771 0.0799999999999474
5.999999999997556 15.99999999999818 0.01999999999995602
5.999999999997556 15.99999999999818 0.0399999999998959
5.999999999997557 15.99999999999818 0.05999999999989428
5.999999999997561 15.99999999999818 0.07999999999994742
5.999999999998165 16.99999999999863 0.01999999999995603
5.999999999998164 16.99999999999864 0.0399999999998959
5.99999999999817 16.99999999999864 0.0599999999998943
5.999999999998167 16.99999999999864 0.07999999999994742
5.999999999998778 17.99999999999907 0.01999999999995603
5.999999999998778 17.99999999999907 0.0399999999998959
5.999999999998778 17.99999999999907 0.05999999999989428
5.99999999999878 17.99999999999908 0.07999999999994743
5.999999999999383 18.99999999999955 0.01999999999995602
5.999999999999384 18.99999999999955 0.0399999999998959
5.999999999999384 18.99999999999955 0.05999999999989428
5.999999999999384 18.99999999999955 0.07999999999994743
6.999999999985634 0.9999999999996855 0.019999999999956
6.999999999985641 0.9999999999996855 0.03999999999989588
6.999999999985642 0.9999999999996855 0.0599999999998943
6.999999999985641 0.9999999999996855 0.0799999999999474
6.999999999986392 1.999999999999431 0.019999999999956
6.999999999986393 1.999999999999429 0.0399999999998959
6.999999999986395 1.99999999999943 0.0599999999998943
6.99999999998639 1.999999999999429 0.07999999999994742
6.99999999998715 2.9999999999988 0.019999999999956
6.999999999987151 2.9999999999988 0.0399999999998959
6.999999999987152 2.9999999999988 0.05999999999989426
6.999999999987152 2.999999999998799 0.07999999999994742
6.999999999987907 3.999999999997773 0.01999999999995599
6.99999999998791 3.999999999997775 0.0399999999998959
6.99999999998791 3.999999999997774 0.0599999999998943
6.999999999987908 3.999999999997773 0.07999999999994742
6.999999999988662 4.999999999996753 0.019999999999956
6.999999999988662 4.99999999999675 0.0399999999998959
6.999999999988662 4.999999999996754 0.0599999999998943
6.999999999988662 4.999999999996753 0.0799999999999474
6.999999999989415 5.999999999995728 0.01999999999995602
6.999999999989416 5.999999999995733 0.0399999999998959
6.999999999989416 5.99999999999573 0.05999999999989428
6.99999999998942 5.999999999995731 0.07999999999994742
6.999999999990173 6.999999999994706 0.019999999999956
6.999999999990171 6.999999999994706 0.0399999999998959
6.999999999990175 6.999999999994708 0.05999999999989428
6.999999999990175 6.999999999994708 0.07999999999994742
6.999999999990929 7.999999999993708 0.019999999999956
6.999999999990926 7.999999999993701 0.0399999999998959
6.999999999990932 7.999999999993705 0.0599999999998943
6.99999999999093 7.999999999993705 0.0799999999999474
6.999999999991685 8.999999999994138 0.019999999999956
6.999999999991684 8.99999999999414 0.0399999999998959
6.999999999991685 8.99999999999414 0.0599999999998943
6.999999999991682 8.99999999999414 0.07999999999994742
6.999999999992436 9.999999999994674 0.019999999999956
6.999999999992437 9.999999999994673 0.0399999999998959
6.999999999992441 9.999999999994674 0.05999999999989429
6.999999999992441 9.999999999994671 0.07999999999994742
6.999999999993195 10.99999999999521 0.019999999999956
6.999999999993193 10.99999999999521 0.0399999999998959
6.999999999993193 10.99999999999521 0.0599999999998943
6.999999999993193 10.99999999999521 0.07999999999994742
6.99999999999395 11.99999999999574 0.019999999999956
6.999999999993953 11.99999999999574 0.0399999999998959
6.999999999993954 11.99999999999575 0.05999999999989429
6.999999999993951 11.99999999999574 0.0799999999999474
6.999999999994706 12.99999999999628 0.019999999999956
6.999999999994707 12.99999999999627 0.0399999999998959
6.999999999994708 12.99999999999627 0.0599999999998943
6.999999999994708 12.99999999999627 0.07999999999994742
6.999999999995457 13.99999999999681 0.01999999999995601
6.999999999995463 13.9999999999968 0.0399999999998959
6.99999999999546 13.9999999999968 0.0599999999998943
6.99999999999546 13.99999999999681 0.07999999999994742
6.999999999996218 14.99999999999734 0.019999999999956
6.999999999996218 14.99999999999734 0.0399999999998959
6.999999999996218 14.99999999999733 0.05999999999989429
6.999999999996218 14.99999999999734 0.07999999999994742
6.999999999996971 15.99999999999786 0.019999999999956
6.999999999996971 15.99999999999787 0.0399999999998959
6.999999999996972 15.99999999999786 0.05999999999989426
6.999999999996971 15.99999999999786 0.07999999999994742
6.999999999997728 16.99999999999841 0.01999999999995601
6.99999999999773 16.9999999999984 0.0399999999998959
6.99999999999773 16.99999999999841 0.0599999999998943
6.999999999997726 16.9999999999984 0.07999999999994742
6.999999999998482 17.99999999999894 0.019999999999956
6.999999999998488 17.99999999999894 0.0399999999998959
6.999999999998484 17.99999999999894 0.05999999999989427
6.999999999998484 17.99999999999893 0.07999999999994743
6.999999999999236 18.99999999999946 0.019999999999956
6.999999999999238 18.99999999999947 0.0399999999998959
6.999999999999238 18.99999999999946 0.05999999999989429
6.999999999999234 18.99999999999947 0.07999999999994742
7.999999999982929 0.9999999999996405 0.01999999999995603
7.99999999998293 0.9999999999996411 0.03999999999989589
7.999999999982929 0.9999999999996405 0.05999999999989428
7.999999999982928 0.9999999999996405 0.0799999999999474
7.99999999998383 1.99999999999935 0.01999999999995603
7.99999999998383 1.999999999999349 0.03999999999989589
7.999999999983831 1.999999999999349 0.05999999999989428
7.99999999998383 1.999999999999349 0.07999999999994742
7.999999999984722 2.999999999998627 0.01999999999995601
7.999999999984722 2.999999999998626 0.0399999999998959
7.999999999984726 2.999999999998627 0.05999999999989429
7.999999999984726 2.999999999998626 0.0799999999999474
7.999999999985625 3.999999999997457 0.01999999999995601
7.999999999985626 3.999999999997455 0.0399999999998959
7.999999999985625 3.99999999999746 0.0599999999998943
7.999999999985627 3.999999999997457 0.07999999999994739
7.999999999986519 4.999999999996288 0.01999999999995603
7.999999999986522 4.999999999996288 0.0399999999998959
7.999999999986522 4.999999999996289 0.05999999999989429
7.999999999986521 4.999999999996286 0.07999999999994738
7.999999999987421 5.999999999995119 0.01999999999995602
7.999999999987419 5.999999999995118 0.0399999999998959
7.999999999987422 5.999999999995119 0.05999999999989428
7.999999999987423 5.999999999995119 0.07999999999994742
7.99999999998832 6.999999999993951 0.01999999999995602
7.999999999988317 6.999999999993956 0.03999999999989589
7.999999999988317 6.999999999993954 0.05999999999989428
7.999999999988317 6.999999999993953 0.0799999999999474
7.999999999989216 7.999999999992809 0.01999999999995603
7.999999999989218 7.999999999992806 0.0399999999998959
7.999999999989218 7.999999999992809 0.05999999999989429
7.999999999989213 7.999999999992809 0.07999999999994739
7.999999999990117 8.999999999993308 0.01999999999995603
7.999999999990113 8.99999999999331 0.0399999999998959
7.999999999990117 8.99999999999331 0.05999999999989433
7.999999999990117 8.99999999999331 0.07999999999994742
7.999999999991016 9.999999999993912 0.01999999999995601
7.99999999999101 9.999999999993909 0.0399999999998959
7.999999999991013 9.999999999993914 0.0599999999998943
7.999999999991013 9.999999999993918 0.07999999999994742
7.999999999991911 10.99999999999453 0.01999999999995601
7.999999999991909 10.99999999999453 0.0399999999998959
7.99999999999191 10.99999999999453 0.05999999999989428
7.99999999999191 10.99999999999453 0.07999999999994742
7.999999999992808 11.99999999999512 0.01999999999995603
7.999999999992813 11.99999999999513 0.0399999999998959
7.999999999992809 11.99999999999513 0.05999999999989428
7.999999999992808 11.99999999999512 0.07999999999994742
7.999999999993706 12.99999999999575 0.01999999999995602
7.999999999993701 12.99999999999574 0.0399999999998959
7.999999999993701 12.99999999999574 0.0599999999998943
7.999999999993705 12.99999999999573 0.07999999999994742
7.999999999994603 13.99999999999634 0.01999999999995603
7.999999999994605 13.99999999999635 0.0399999999998959
7.999999999994602 13.99999999999634 0.05999999999989428
7.999999999994602 13.99999999999634 0.0799999999999474
7.999999999995504 14.99999999999696 0.01999999999995601
7.9999999999955 14.99999999999696 0.03999999999989588
7.999999999995502 14.99999999999696 0.05999999999989429
7.999999999995506 14.99999999999696 0.07999999999994742
7.999999999996407 15.99999999999757 0.01999999999995601
7.999999999996401 15.99999999999758 0.0399999999998959
7.999999999996401 15.99999999999757 0.05999999999989428
7.999999999996401 15.99999999999757 0.07999999999994742
7.999999999997298 16.99999999999817 0.01999999999995603
7.999999999997296 16.99999999999818 0.0399999999998959
7.999999999997293 16.99999999999818 0.05999999999989432
7.999999999997296 16.99999999999817 0.07999999999994742
7.9999999999982 17.99999999999877 0.01999999999995603
7.999999999998196 17.99999999999878 0.0399999999998959
7.999999999998195 17.99999999999878 0.05999999999989428
7.999999999998194 17.99999999999877 0.07999999999994743
7.999999999999096 18.99999999999939 0.01999999999995603
7.999999999999092 18.99999999999939 0.0399999999998959
7.999999999999096 18.99999999999939 0.05999999999989429
7.999999999999096 18.9999999999994 0.07999999999994742
8.99999999998411 0.999999999999596 0.01999999999995602
8.999999999984116 0.9999999999995957 0.03999999999989588
8.999999999984112 0.9999999999995959 0.05999999999989432
8.999999999984116 0.9999999999995959 0.07999999999994745
8.999999999984954 1.999999999999268 0.01999999999995601
8.999999999984952 1.999999999999268 0.0399999999998959
8.999999999984952 1.999999999999269 0.05999999999989433
8.999999999984952 1.999999999999268 0.07999999999994742
8.999999999985786 2.999999999998457 0.01999999999995601
8.999999999985787 2.999999999998455 0.0399999999998959
8.999999999985786 2.999999999998457 0.05999999999989433
8.999999999985786 2.999999999998455 0.07999999999994742
8.999999999986617 3.999999999997139 0.019999999999956
8.99999999998662 3.999999999997141 0.0399999999998959
8.999999999986619 3.999999999997139 0.05999999999989432
8.999999999986622 3.99999999999714 0.07999999999994739
8.99999999998745 4.999999999995826 0.01999999999995602
8.999999999987455 4.999999999995826 0.0399999999998959
8.999999999987454 4.999999999995826 0.05999999999989433
8.999999999987455 4.999999999995826 0.07999999999994739
8.999999999988297 5.99999999999451 0.01999999999995603
8.999999999988288 5.99999999999451 0.0399999999998959
8.999999999988292 5.999999999994511 0.05999999999989433
8.999999999988294 5.999999999994513 0.07999999999994743
8.999999999989125 6.999999999993197 0.01999999999995601
8.999999999989125 6.999999999993192 0.0399999999998959
8.999999999989125 6.999999999993191 0.05999999999989433
8.999999999989129 6.999999999993191 0.07999999999994743
8.999999999989965 7.999999999991913 0.01999999999995603
8.99999999998996 7.999999999991908 0.0399999999998959
8.99999999998996 7.99999999999191 0.05999999999989433
8.999999999989964 7.99999999999191 0.0799999999999474
8.999999999990804 8.999999999992472 0.01999999999995601
8.999999999990804 8.99999999999247 0.0399999999998959
8.999999999990802 8.999999999992472 0.05999999999989433
8.999999999990804 8.999999999992472 0.07999999999994742
8.999999999991633 9.999999999993156 0.01999999999995601
8.999999999991639 9.999999999993152 0.0399999999998959
8.999999999991637 9.999999999993149 0.05999999999989433
8.999999999991637 9.999999999993154 0.07999999999994742
8.99999999999247 10.99999999999384 0.01999999999995601
8.999999999992472 10.99999999999384 0.0399999999998959
8.999999999992472 10.99999999999384 0.05999999999989432
8.999999999992472 10.99999999999384 0.07999999999994742
8.999999999993308 11.99999999999452 0.01999999999995601
8.99999999999331 11.99999999999453 0.0399999999998959
8.999999999993308 11.99999999999453 0.0599999999998943
8.99999999999331 11.99999999999452 0.07999999999994742
8.999999999994138 12.99999999999521 0.019999999999956
8.999999999994143 12.99999999999521 0.0399999999998959
8.999999999994143 12.99999999999522 0.05999999999989433
8.999999999994143 12.99999999999521 0.07999999999994742
8.99999999999498 13.99999999999589 0.01999999999995603
8.99999999999498 13.99999999999589 0.0399999999998959
8.99999999999498 13.99999999999588 0.05999999999989432
8.999999999994978 13.99999999999589 0.07999999999994742
8.999999999995813 14.99999999999658 0.01999999999995601
8.999999999995815 14.99999999999658 0.0399999999998959
8.999999999995815 14.99999999999658 0.05999999999989429
8.999999999995815 14.99999999999658 0.07999999999994742
8.999999999996646 15.99999999999727 0.019999999999956
8.999999999996648 15.99999999999727 0.0399999999998959
8.99999999999665 15.99999999999726 0.05999999999989432
8.999999999996646 15.99999999999727 0.07999999999994742
8.999999999997488 16.99999999999794 0.01999999999995602
8.999999999997494 16.99999999999795 0.0399999999998959
8.999999999997492 16.99999999999795 0.05999999999989432
8.999999999997492 16.99999999999795 0.07999999999994742
8.999999999998318 17.99999999999863 0.01999999999995601
8.999999999998327 17.99999999999862 0.0399999999998959
8.999999999998323 17.99999999999862 0.05999999999989432
8.999999999998327 17.99999999999862 0.07999999999994742
8.999999999999156 18.99999999999932 0.019999999999956
8.999999999999162 18.99999999999932 0.0399999999998959
8.999999999999156 18.99999999999932 0.05999999999989432
8.99999999999916 18.99999999999932 0.07999999999994742
9.999999999985562 0.9999999999995511 0.01999999999995601
9.999999999985562 0.9999999999995506 0.03999999999989587
9.999999999985562 0.999999999999551 0.0599999999998943
9.999999999985562 0.9999999999995506 0.07999999999994742
9.999999999986315 1.999999999999187 0.01999999999995601
9.999999999986311 1.999999999999187 0.0399999999998959
9.999999999986317 1.999999999999187 0.05999999999989429
9.999999999986313 1.999999999999187 0.07999999999994742
9.999999999987077 2.999999999998285 0.019999999999956
9.999999999987075 2.999999999998284 0.0399999999998959
9.999999999987075 2.999999999998285 0.05999999999989428
9.999999999987079 2.999999999998284 0.07999999999994742
9.999999999987843 3.999999999996823 0.01999999999995599
9.999999999987839 3.99999999999682 0.0399999999998959
9.999999999987839 3.999999999996822 0.0599999999998943
9.999999999987846 3.999999999996821 0.07999999999994739
9.999999999988601 4.999999999995362 0.01999999999995601
9.999999999988603 4.99999999999536 0.0399999999998959
9.999999999988601 4.999999999995362 0.05999999999989429
9.999999999988598 4.99999999999536 0.07999999999994739
9.999999999989354 5.9999999999939 0.01999999999995601
9.999999999989354 5.9999999999939 0.0399999999998959
9.999999999989356 5.999999999993901 0.05999999999989429
9.999999999989356 5.9999999999939 0.0799999999999474
9.99999999999012 6.999999999992436 0.01999999999995601
9.999999999990118 6.999999999992437 0.0399999999998959
9.99999999999012 6.999999999992442 0.05999999999989429
9.999999999990116 6.999999999992441 0.0799999999999474
9.999999999990878 7.999999999991009 0.01999999999995601
9.999999999990871 7.999999999991011 0.03999999999989591
9.999999999990878 7.999999999991006 0.0599999999998943
9.99999999999088 7.99999999999101 0.07999999999994742
9.999999999991633 8.999999999991633 0.019999999999956
9.999999999991635 8.999999999991639 0.0399999999998959
9.999999999991635 8.999999999991637 0.05999999999989433
9.999999999991633 8.999999999991637 0.07999999999994742
9.999999999992394 9.999999999992395 0.019999999999956
9.99999999999239 9.99999999999239 0.0399999999998959
9.99999999999239 9.99999999999239 0.0599999999998943
9.99999999999239 9.99999999999239 0.0799999999999474
9.999999999993157 10.99999999999316 0.01999999999995601
9.999999999993152 10.99999999999316 0.0399999999998959
9.99999999999315 10.99999999999316 0.0599999999998943
9.999999999993154 10.99999999999315 0.07999999999994742
9.999999999993912 11.99999999999391 0.019999999999956
9.99999999999391 11.99999999999392 0.0399999999998959
9.999999999993914 11.99999999999392 0.05999999999989429
9.999999999993918 11.99999999999392 0.07999999999994742
9.999999999994674 12.99999999999468 0.019999999999956
9.999999999994674 12.99999999999467 0.0399999999998959
9.999999999994674 12.99999999999468 0.0599999999998943
9.999999999994671 12.99999999999467 0.07999999999994742
9.999999999995437 13.99999999999543 0.01999999999995601
9.999999999995435 13.99999999999543 0.03999999999989589
9.999999999995435 13.99999999999543 0.05999999999989428
9.999999999995435 13.99999999999543 0.0799999999999474
9.999999999996199 14.99999999999619 0.019999999999956
9.999999999996195 14.9999999999962 0.03999999999989589
9.999999999996195 14.9999999999962 0.05999999999989429
9.999999999996195 14.9999999999962 0.0799999999999474
9.999999999996957 15.99999999999695 0.01999999999995601
9.999999999996957 15.99999999999696 0.0399999999998959
9.999999999996954 15.99999999999696 0.05999999999989429
9.999999999996957 15.99999999999696 0.07999999999994742
9.999999999997717 16.99999999999771 0.01999999999995602
9.999999999997712 16.99999999999772 0.0399999999998959
9.99999999999772 16.99999999999772 0.05999999999989432
9.999999999997721 16.99999999999772 0.0799999999999474
9.999999999998476 17.99999999999848 0.019999999999956
9.999999999998478 17.99999999999848 0.0399999999998959
9.999999999998476 17.99999999999848 0.0599999999998943
9.99999999999848 17.99999999999848 0.07999999999994742
9.99999999999923 18.99999999999923 0.01999999999995601
9.999999999999233 18.99999999999924 0.0399999999998959
9.999999999999233 18.99999999999924 0.05999999999989433
9.999999999999233 18.99999999999924 0.07999999999994742
10.99999999998701 0.9999999999995061 0.01999999999995602
10.999999999987 0.9999999999995063 0.03999999999989588
10.999999999987 0.9999999999995062 0.0599999999998943
10.999999999987 0.9999999999995061 0.07999999999994742
10.99999999998769 1.999999999999107 0.01999999999995603
10.99999999998768 1.999999999999106 0.03999999999989589
10.99999999998769 1.999999999999106 0.05999999999989429
10.99999999998768 1.999999999999106 0.07999999999994743
10.99999999998837 2.999999999998113 0.01999999999995601
10.99999999998838 2.999999999998111 0.0399999999998959
10.99999999998837 2.999999999998111 0.05999999999989426
10.99999999998837 2.999999999998114 0.07999999999994743
10.99999999998906 3.999999999996506 0.019999999999956
10.99999999998906 3.999999999996506 0.0399999999998959
10.99999999998906 3.999999999996505 0.05999999999989429
10.99999999998906 3.999999999996505 0.07999999999994739
10.99999999998974 4.999999999994897 0.01999999999995602
10.99999999998974 4.999999999994898 0.0399999999998959
10.99999999998974 4.999999999994898 0.05999999999989428
10.99999999998974 4.999999999994898 0.07999999999994739
10.99999999999043 5.999999999993292 0.01999999999995603
10.99999999999042 5.999999999993289 0.0399999999998959
10.99999999999042 5.999999999993291 0.05999999999989428
10.99999999999042 5.999999999993293 0.07999999999994742
10.99999999999111 6.999999999991683 0.01999999999995601
10.99999999999111 6.999999999991683 0.0399999999998959
10.99999999999111 6.999999999991683 0.05999999999989426
10.99999999999111 6.999999999991683 0.0799999999999474
10.9999999999918 7.999999999990116 0.01999999999995602
10.99999999999179 7.999999999990113 0.0399999999998959
10.99999999999179 7.999999999990118 0.05999999999989428
10.99999999999179 7.999999999990118 0.07999999999994742
10.99999999999247 8.999999999990804 0.01999999999995601
10.99999999999247 8.999999999990804 0.0399999999998959
10.99999999999248 8.999999999990804 0.05999999999989431
10.99999999999248 8.999999999990802 0.07999999999994742
10.99999999999315 9.999999999991633 0.01999999999995601
10.99999999999315 9.999999999991633 0.0399999999998959
10.99999999999315 9.999999999991633 0.0599999999998943
10.99999999999316 9.999999999991635 0.07999999999994742
10.99999999999384 10.99999999999248 0.01999999999995601
10.99999999999384 10.99999999999248 0.0399999999998959
10.99999999999384 10.99999999999248 0.05999999999989426
10.99999999999384 10.99999999999248 0.07999999999994742
10.99999999999452 11.99999999999331 0.01999999999995601
10.99999999999453 11.99999999999331 0.0399999999998959
10.99999999999452 11.99999999999331 0.05999999999989428
10.99999999999453 11.9999999999933 0.07999999999994742
10.99999999999521 12.99999999999415 0.019999999999956
10.99999999999521 12.99999999999414 0.0399999999998959
10.99999999999521 12.99999999999415 0.05999999999989429
10.99999999999521 12.99999999999415 0.0799999999999474
10.99999999999589 13.99999999999497 0.01999999999995603
10.99999999999589 13.99999999999498 0.0399999999998959
10.99999999999589 13.99999999999497 0.05999999999989428
10.99999999999589 13.99999999999498 0.07999999999994742
10.99999999999658 14.99999999999581 0.01999999999995601
10.99999999999658 14.99999999999581 0.0399999999998959
10.99999999999658 14.99999999999581 0.05999999999989429
10.99999999999658 14.99999999999581 0.07999999999994742
10.99999999999726 15.99999999999665 0.01999999999995601
10.99999999999726 15.99999999999665 0.0399999999998959
10.99999999999726 15.99999999999665 0.05999999999989429
10.99999999999726 15.99999999999665 0.07999999999994742
10.99999999999795 16.99999999999748 0.01999999999995602
10.99999999999795 16.99999999999748 0.0399999999998959
10.99999999999795 16.99999999999748 0.05999999999989429
10.99999999999795 16.99999999999748 0.07999999999994742
10.99999999999863 17.99999999999832 0.019999999999956
10.99999999999863 17.99999999999832 0.0399999999998959
10.99999999999863 17.99999999999832 0.05999999999989428
10.99999999999863 17.99999999999832 0.07999999999994745
10.99999999999932 18.99999999999917 0.01999999999995601
10.99999999999931 18.99999999999916 0.0399999999998959
10.9999999999993 18.99999999999916 0.05999999999989429
10.9999999999993 18.99999999999916 0.07999999999994742
11.99999999998845 0.999999999999461 0.01999999999995602
11.99999999998846 0.9999999999994614 0.03999999999989588
11.99999999998846 0.9999999999994613 0.05999999999989429
11.99999999998845 0.9999999999994613 0.07999999999994742
11.99999999998906 1.999999999999026 0.01999999999995603
11.99999999998906 1.999999999999025 0.0399999999998959
11.99999999998906 1.999999999999025 0.05999999999989429
11.99999999998906 1.999999999999024 0.07999999999994742
11.99999999998966 2.999999999997942 0.01999999999995601
11.99999999998966 2.999999999997942 0.0399999999998959
11.99999999998966 2.999999999997942 0.05999999999989428
11.99999999998967 2.999999999997943 0.07999999999994746
11.99999999999029 3.99999999999619 0.019999999999956
11.99999999999028 3.99999999999619 0.03999999999989589
11.99999999999027 3.999999999996188 0.05999999999989429
11.99999999999028 3.999999999996188 0.07999999999994738
11.99999999999089 4.999999999994436 0.01999999999995603
11.99999999999088 4.999999999994436 0.0399999999998959
11.99999999999088 4.999999999994436 0.05999999999989428
11.99999999999088 4.999999999994436 0.07999999999994739
11.99999999999149 5.99999999999268 0.01999999999995602
11.99999999999149 5.99999999999268 0.0399999999998959
11.99999999999148 5.999999999992681 0.05999999999989428
11.99999999999149 5.999999999992681 0.0799999999999474
11.9999999999921 6.999999999990928 0.019999999999956
11.9999999999921 6.999999999990925 0.0399999999998959
11.9999999999921 6.999999999990925 0.05999999999989426
11.9999999999921 6.999999999990929 0.07999999999994742
11.9999999999927 7.999999999989217 0.01999999999995603
11.9999999999927 7.999999999989218 0.0399999999998959
11.9999999999927 7.999999999989221 0.05999999999989428
11.9999999999927 7.99999999998922 0.07999999999994742
11.99999999999331 8.999999999989965 0.01999999999995603
11.99999999999331 8.999999999989962 0.0399999999998959
11.99999999999331 8.99999999998996 0.05999999999989432
11.9999999999933 8.999999999989964 0.07999999999994742
11.99999999999391 9.999999999990878 0.019999999999956
11.99999999999392 9.999999999990873 0.0399999999998959
11.99999999999392 9.999999999990877 0.05999999999989428
11.99999999999392 9.99999999999088 0.0799999999999474
11.99999999999452 10.99999999999179 0.01999999999995602
11.99999999999453 10.99999999999179 0.0399999999998959
11.99999999999453 10.9999999999918 0.05999999999989428
11.99999999999453 10.9999999999918 0.07999999999994742
11.99999999999513 11.9999999999927 0.01999999999995603
11.99999999999513 11.9999999999927 0.0399999999998959
11.99999999999513 11.99999999999269 0.05999999999989428
11.99999999999513 11.9999999999927 0.07999999999994742
11.99999999999574 12.99999999999361 0.019999999999956
11.99999999999575 12.99999999999361 0.0399999999998959
11.99999999999574 12.99999999999361 0.05999999999989429
11.99999999999575 12.99999999999361 0.07999999999994742
11.99999999999635 13.99999999999452 0.01999999999995603
11.99999999999635 13.99999999999452 0.0399999999998959
11.99999999999635 13.99999999999452 0.05999999999989428
11.99999999999635 13.99999999999452 0.07999999999994742
11.99999999999696 14.99999999999543 0.01999999999995602
11.99999999999696 14.99999999999543 0.0399999999998959
11.99999999999696 14.99999999999544 0.05999999999989428
11.99999999999696 14.99999999999544 0.07999999999994742
11.99999999999757 15.99999999999635 0.01999999999995602
11.99999999999757 15.99999999999636 0.0399999999998959
11.99999999999756 15.99999999999635 0.05999999999989428
11.99999999999756 15.99999999999635 0.07999999999994742
11.99999999999818 16.99999999999725 0.01999999999995602
11.99999999999818 16.99999999999725 0.0399999999998959
11.99999999999817 16.99999999999726 0.05999999999989429
11.99999999999818 16.99999999999725 0.07999999999994742
11.99999999999878 17.99999999999817 0.01999999999995602
11.99999999999879 17.99999999999817 0.0399999999998959
11.99999999999878 17.99999999999817 0.05999999999989428
11.99999999999878 17.99999999999817 0.07999999999994742
11.99999999999939 18.99999999999908 0.01999999999995602
11.99999999999939 18.99999999999909 0.0399999999998959
11.99999999999939 18.99999999999908 0.05999999999989429
11.99999999999939 18.99999999999909 0.07999999999994742
12.99999999998989 0.9999999999994166 0.019999999999956
12.99999999998989 0.9999999999994161 0.03999999999989588
12.9999999999899 0.9999999999994167 0.05999999999989428
12.99999999998989 0.9999999999994169 0.07999999999994742
12.99999999999042 1.999999999998944 0.019999999999956
12.99999999999043 1.999999999998943 0.03999999999989589
12.99999999999043 1.999999999998944 0.0599999999998943
12.99999999999042 1.999999999998944 0.07999999999994742
12.99999999999095 2.999999999997769 0.01999999999995601
12.99999999999096 2.99999999999777 0.0399999999998959
12.99999999999096 2.99999999999777 0.05999999999989429
12.99999999999095 2.999999999997769 0.07999999999994742
12.99999999999148 3.999999999995871 0.01999999999995601
12.99999999999149 3.99999999999587 0.0399999999998959
12.99999999999149 3.99999999999587 0.0599999999998943
12.99999999999148 3.999999999995869 0.07999999999994739
12.99999999999202 4.999999999993969 0.01999999999995601
12.99999999999202 4.999999999993971 0.0399999999998959
12.99999999999202 4.999999999993969 0.05999999999989429
12.99999999999201 4.999999999993969 0.0799999999999474
12.99999999999255 5.99999999999207 0.01999999999995602
12.99999999999255 5.999999999992068 0.0399999999998959
12.99999999999256 5.999999999992069 0.05999999999989428
12.99999999999256 5.999999999992072 0.07999999999994742
12.99999999999308 6.999999999990173 0.019999999999956
12.99999999999307 6.999999999990171 0.0399999999998959
12.99999999999308 6.999999999990175 0.0599999999998943
12.99999999999308 6.999999999990175 0.07999999999994742
12.99999999999361 7.99999999998832 0.01999999999995602
12.99999999999361 7.999999999988319 0.03999999999989589
12.99999999999361 7.999999999988319 0.0599999999998943
12.9999999999936 7.999999999988317 0.0799999999999474
12.99999999999415 8.999999999989127 0.019999999999956
12.99999999999415 8.999999999989125 0.0399999999998959
12.99999999999415 8.999999999989125 0.05999999999989434
12.99999999999415 8.999999999989129 0.07999999999994742
12.99999999999468 9.99999999999012 0.01999999999995601
12.99999999999467 9.999999999990118 0.0399999999998959
12.99999999999467 9.99999999999012 0.05999999999989431
12.99999999999467 9.999999999990116 0.07999999999994742
12.99999999999521 10.99999999999111 0.01999999999995601
12.9999999999952 10.99999999999111 0.0399999999998959
12.99999999999521 10.99999999999111 0.05999999999989429
12.99999999999521 10.99999999999111 0.07999999999994742
12.99999999999574 11.99999999999209 0.01999999999995602
12.99999999999573 11.9999999999921 0.0399999999998959
12.99999999999574 11.9999999999921 0.05999999999989428
12.99999999999573 11.99999999999209 0.07999999999994742
12.99999999999628 12.99999999999308 0.019999999999956
12.99999999999627 12.99999999999308 0.0399999999998959
12.99999999999627 12.99999999999309 0.05999999999989433
12.99999999999627 12.99999999999308 0.07999999999994742
12.9999999999968 13.99999999999407 0.01999999999995602
12.9999999999968 13.99999999999407 0.0399999999998959
12.9999999999968 13.99999999999407 0.05999999999989428
12.9999999999968 13.99999999999407 0.07999999999994742
12.99999999999734 14.99999999999505 0.019999999999956
12.99999999999733 14.99999999999505 0.0399999999998959
12.99999999999734 14.99999999999505 0.05999999999989429
12.99999999999733 14.99999999999505 0.07999999999994742
12.99999999999787 15.99999999999605 0.019999999999956
12.99999999999786 15.99999999999606 0.0399999999998959
12.99999999999787 15.99999999999605 0.05999999999989429
12.99999999999787 15.99999999999605 0.07999999999994742
12.99999999999841 16.99999999999703 0.01999999999995602
12.9999999999984 16.99999999999703 0.0399999999998959
12.9999999999984 16.99999999999703 0.05999999999989433
12.9999999999984 16.99999999999703 0.07999999999994742
12.99999999999894 17.99999999999802 0.01999999999995602
12.99999999999893 17.99999999999802 0.0399999999998959
12.99999999999893 17.99999999999802 0.0599999999998943
12.99999999999893 17.99999999999802 0.07999999999994742
12.99999999999947 18.99999999999901 0.01999999999995601
12.99999999999946 18.99999999999901 0.0399999999998959
12.99999999999946 18.999999999999 0.05999999999989432
12.99999999999946 18.99999999999901 0.07999999999994742
13.99999999999133 0.9999999999993713 0.01999999999995602
13.99999999999133 0.9999999999993713 0.03999999999989588
13.99999999999133 0.9999999999993713 0.05999999999989428
13.99999999999133 0.9999999999993712 0.07999999999994742
13.99999999999179 1.999999999998864 0.01999999999995603
13.99999999999178 1.999999999998863 0.0399999999998959
13.99999999999178 1.999999999998862 0.05999999999989428
13.99999999999178 1.999999999998863 0.07999999999994742
13.99999999999225 2.999999999997599 0.01999999999995601
13.99999999999224 2.9999999999976 0.0399999999998959
13.99999999999224 2.999999999997599 0.05999999999989429
13.99999999999225 2.9999999999976 0.07999999999994747
13.9999999999927 3.999999999995553 0.01999999999995601
13.99999999999271 3.999999999995555 0.0399999999998959
13.9999999999927 3.999999999995555 0.05999999999989428
13.9999999999927 3.999999999995554 0.07999999999994742
13.99999999999315 4.999999999993511 0.01999999999995603
13.99999999999315 4.99999999999351 0.0399999999998959
13.99999999999315 4.999999999993511 0.05999999999989428
13.99999999999315 4.999999999993507 0.07999999999994739
13.99999999999362 5.999999999991465 0.01999999999995603
13.99999999999362 5.999999999991461 0.0399999999998959
13.99999999999361 5.999999999991462 0.05999999999989426
13.99999999999362 5.999999999991467 0.07999999999994743
13.99999999999406 6.999999999989416 0.01999999999995602
13.99999999999406 6.999999999989416 0.0399999999998959
13.99999999999406 6.999999999989416 0.05999999999989428
13.99999999999406 6.99999999998942 0.07999999999994742
13.99999999999452 7.999999999987421 0.01999999999995603
13.99999999999452 7.999999999987418 0.0399999999998959
13.99999999999452 7.999999999987422 0.05999999999989428
13.99999999999452 7.999999999987423 0.0799999999999474
13.99999999999498 8.9999999999883 0.01999999999995603
13.99999999999499 8.99999999998829 0.0399999999998959
13.99999999999497 8.999999999988292 0.05999999999989432
13.99999999999498 8.999999999988294 0.0799999999999474
13.99999999999543 9.999999999989354 0.01999999999995601
13.99999999999544 9.999999999989354 0.03999999999989589
13.99999999999543 9.999999999989356 0.05999999999989428
13.99999999999543 9.999999999989356 0.0799999999999474
13.99999999999589 10.99999999999042 0.01999999999995603
13.99999999999588 10.99999999999042 0.0399999999998959
13.99999999999589 10.99999999999042 0.05999999999989428
13.99999999999588 10.99999999999042 0.07999999999994742
13.99999999999635 11.99999999999149 0.01999999999995603
13.99999999999635 11.99999999999149 0.0399999999998959
13.99999999999634 11.99999999999148 0.05999999999989428
13.99999999999635 11.99999999999149 0.07999999999994742
13.99999999999681 12.99999999999255 0.019999999999956
13.9999999999968 12.99999999999254 0.0399999999998959
13.9999999999968 12.99999999999255 0.0599999999998943
13.9999999999968 12.99999999999254 0.07999999999994742
13.99999999999727 13.99999999999362 0.01999999999995603
13.99999999999726 13.99999999999362 0.0399999999998959
13.99999999999726 13.99999999999361 0.05999999999989426
13.99999999999726 13.99999999999362 0.07999999999994742
13.9999999999977 14.99999999999468 0.01999999999995603
13.99999999999771 14.99999999999468 0.03999999999989589
13.9999999999977 14.99999999999468 0.05999999999989427
13.99999999999771 14.99999999999467 0.0799999999999474
13.99999999999817 15.99999999999575 0.01999999999995601
13.99999999999817 15.99999999999575 0.0399999999998959
13.99999999999817 15.99999999999575 0.0599999999998943
13.99999999999817 15.99999999999575 0.07999999999994742
13.99999999999862 16.9999999999968 0.01999999999995601
13.99999999999862 16.9999999999968 0.0399999999998959
13.99999999999862 16.9999999999968 0.05999999999989431
13.99999999999862 16.9999999999968 0.07999999999994742
13.99999999999908 17.99999999999788 0.01999999999995603
13.99999999999908 17.99999999999787 0.0399999999998959
13.99999999999907 17.99999999999788 0.05999999999989428
13.99999999999908 17.99999999999787 0.07999999999994743
13.99999999999954 18.99999999999893 0.01999999999995601
13.99999999999953 18.99999999999894 0.0399999999998959
13.99999999999953 18.99999999999893 0.0599999999998943
13.99999999999953 18.99999999999893 0.07999999999994743
14.99999999999278 0.9999999999993264 0.01999999999995602
14.99999999999279 0.9999999999993261 0.03999999999989587
14.99999999999278 0.9999999999993261 0.05999999999989428
14.99999999999278 0.9999999999993264 0.07999999999994742
14.99999999999316 1.999999999998783 0.01999999999995602
14.99999999999316 1.999999999998782 0.03999999999989589
14.99999999999316 1.999999999998782 0.05999999999989429
14.99999999999315 1.999999999998783 0.07999999999994742
14.99999999999354 2.999999999997427 0.01999999999995601
14.99999999999353 2.999999999997426 0.03999999999989588
14.99999999999353 2.999999999997426 0.05999999999989428
14.99999999999354 2.999999999997426 0.07999999999994747
14.99999999999392 3.999999999995238 0.019999999999956
14.99999999999392 3.999999999995236 0.0399999999998959
14.99999999999392 3.999999999995236 0.05999999999989429
14.99999999999392 3.999999999995236 0.0799999999999474
14.9999999999943 4.999999999993045 0.01999999999995601
14.9999999999943 4.999999999993044 0.0399999999998959
14.9999999999943 4.999999999993043 0.05999999999989428
14.9999999999943 4.999999999993042 0.07999999999994739
14.99999999999468 5.999999999990848 0.01999999999995602
14.99999999999468 5.999999999990848 0.03999999999989589
14.99999999999468 5.999999999990849 0.05999999999989427
14.99999999999468 5.999999999990854 0.0799999999999474
14.99999999999505 6.999999999988656 0.019999999999956
14.99999999999505 6.999999999988663 0.03999999999989588
14.99999999999506 6.999999999988662 0.05999999999989427
14.99999999999506 6.99999999998866 0.07999999999994742
14.99999999999543 7.999999999986521 0.01999999999995602
14.99999999999544 7.99999999998652 0.03999999999989588
14.99999999999544 7.999999999986523 0.05999999999989429
14.99999999999544 7.999999999986522 0.0799999999999474
14.99999999999581 8.999999999987455 0.01999999999995602
14.99999999999582 8.999999999987454 0.03999999999989589
14.99999999999581 8.999999999987455 0.05999999999989432
14.99999999999581 8.999999999987455 0.07999999999994742
14.99999999999619 9.999999999988598 0.019999999999956
14.9999999999962 9.9999999999886 0.0399999999998959
14.9999999999962 9.9999999999886 0.0599999999998943
14.9999999999962 9.9999999999886 0.07999999999994742
14.99999999999658 10.99999999998974 0.01999999999995602
14.99999999999658 10.99999999998974 0.0399999999998959
14.99999999999658 10.99999999998974 0.05999999999989428
14.99999999999658 10.99999999998974 0.07999999999994742
14.99999999999696 11.99999999999088 0.01999999999995601
14.99999999999696 11.99999999999088 0.03999999999989589
14.99999999999696 11.99999999999088 0.05999999999989428
14.99999999999695 11.99999999999088 0.07999999999994742
14.99999999999733 12.99999999999202 0.019999999999956
14.99999999999734 12.99999999999202 0.0399999999998959
14.99999999999733 12.99999999999201 0.0599999999998943
14.99999999999734 12.99999999999201 0.07999999999994743
14.99999999999772 13.99999999999315 0.01999999999995603
14.99999999999772 13.99999999999315 0.0399999999998959
14.99999999999771 13.99999999999315 0.05999999999989427
14.99999999999772 13.99999999999315 0.0799999999999474
14.99999999999809 14.99999999999429 0.01999999999995602
14.99999999999809 14.9999999999943 0.0399999999998959
14.9999999999981 14.9999999999943 0.05999999999989428
14.99999999999809 14.9999999999943 0.07999999999994742
14.99999999999847 15.99999999999544 0.01999999999995601
14.99999999999847 15.99999999999544 0.03999999999989589
14.99999999999847 15.99999999999543 0.05999999999989429
14.99999999999847 15.99999999999544 0.07999999999994742
14.99999999999885 16.99999999999658 0.01999999999995601
14.99999999999885 16.99999999999658 0.03999999999989588
14.99999999999886 16.99999999999658 0.0599999999998943
14.99999999999886 16.99999999999658 0.0799999999999474
14.99999999999923 17.99999999999772 0.01999999999995601
14.99999999999923 17.99999999999772 0.0399999999998959
14.99999999999923 17.99999999999771 0.05999999999989429
14.99999999999923 17.99999999999772 0.07999999999994743
14.99999999999961 18.99999999999885 0.019999999999956
14.99999999999961 18.99999999999886 0.0399999999998959
14.9999999999996 18.99999999999886 0.05999999999989429
14.99999999999961 18.99999999999886 0.07999999999994742
15.99999999999423 0.9999999999992824 0.01999999999995602
15.99999999999424 0.9999999999992817 0.03999999999989586
15.99999999999423 0.9999999999992817 0.05999999999989429
15.99999999999423 0.9999999999992817 0.0799999999999474
15.99999999999453 1.999999999998701 0.01999999999995602
15.99999999999454 1.9999999999987 0.03999999999989589
15.99999999999452 1.9999999999987 0.05999999999989428
15.99999999999453 1.9999999999987 0.07999999999994742
15.99999999999484 2.999999999997255 0.01999999999995601
15.99999999999484 2.999999999997255 0.0399999999998959
15.99999999999484 2.999999999997256 0.05999999999989429
15.99999999999483 2.999999999997255 0.0799999999999475
15.99999999999513 3.999999999994919 0.01999999999995601
15.99999999999515 3.999999999994918 0.0399999999998959
15.99999999999514 3.999999999994918 0.0599999999998943
15.99999999999514 3.999999999994916 0.07999999999994738
15.99999999999545 4.999999999992585 0.01999999999995603
15.99999999999545 4.999999999992583 0.0399999999998959
15.99999999999544 4.999999999992584 0.05999999999989428
15.99999999999544 4.999999999992582 0.07999999999994739
15.99999999999575 5.999999999990243 0.01999999999995603
15.99999999999574 5.999999999990243 0.0399999999998959
15.99999999999575 5.999999999990244 0.05999999999989427
15.99999999999574 5.999999999990245 0.07999999999994742
15.99999999999605 6.999999999987905 0.019999999999956
15.99999999999606 6.999999999987908 0.0399999999998959
15.99999999999605 6.999999999987908 0.05999999999989426
15.99999999999605 6.999999999987907 0.0799999999999474
15.99999999999635 7.999999999985628 0.01999999999995603
15.99999999999636 7.999999999985625 0.0399999999998959
15.99999999999635 7.999999999985626 0.05999999999989429
15.99999999999636 7.999999999985629 0.07999999999994742
15.99999999999665 8.999999999986617 0.01999999999995603
15.99999999999665 8.99999999998662 0.0399999999998959
15.99999999999665 8.999999999986619 0.05999999999989432
15.99999999999665 8.99999999998662 0.07999999999994742
15.99999999999695 9.999999999987843 0.01999999999995601
15.99999999999696 9.999999999987839 0.0399999999998959
15.99999999999696 9.99999999998784 0.05999999999989429
15.99999999999696 9.999999999987844 0.07999999999994743
15.99999999999726 10.99999999998906 0.01999999999995602
15.99999999999727 10.99999999998905 0.0399999999998959
15.99999999999726 10.99999999998906 0.05999999999989429
15.99999999999727 10.99999999998906 0.07999999999994742
15.99999999999757 11.99999999999027 0.019999999999956
15.99999999999758 11.99999999999027 0.0399999999998959
15.99999999999757 11.99999999999027 0.05999999999989428
15.99999999999757 11.99999999999027 0.07999999999994742
15.99999999999786 12.99999999999149 0.019999999999956
15.99999999999788 12.99999999999149 0.0399999999998959
15.99999999999787 12.99999999999149 0.05999999999989429
15.99999999999787 12.99999999999149 0.07999999999994742
15.99999999999818 13.9999999999927 0.01999999999995603
15.99999999999818 13.9999999999927 0.0399999999998959
15.99999999999818 13.9999999999927 0.05999999999989428
15.99999999999818 13.9999999999927 0.07999999999994742
15.99999999999847 14.99999999999391 0.01999999999995603
15.99999999999848 14.99999999999392 0.03999999999989589
15.99999999999848 14.99999999999391 0.05999999999989429
15.99999999999847 14.99999999999391 0.07999999999994742
15.99999999999878 15.99999999999514 0.01999999999995601
15.99999999999879 15.99999999999514 0.0399999999998959
15.99999999999879 15.99999999999515 0.05999999999989428
15.99999999999878 15.99999999999515 0.07999999999994742
15.99999999999908 16.99999999999634 0.019999999999956
15.99999999999908 16.99999999999634 0.0399999999998959
15.99999999999909 16.99999999999635 0.05999999999989433
15.99999999999909 16.99999999999634 0.07999999999994743
15.99999999999939 17.99999999999757 0.01999999999995601
15.99999999999939 17.99999999999757 0.0399999999998959
15.99999999999939 17.99999999999757 0.05999999999989429
15.99999999999939 17.99999999999757 0.07999999999994743
15.99999999999968 18.99999999999878 0.01999999999995601
15.9999999999997 18.99999999999879 0.0399999999998959
15.99999999999969 18.99999999999877 0.05999999999989429
15.99999999999969 18.99999999999878 0.07999999999994742
16.99999999999567 0.9999999999992365 0.01999999999995602
16.99999999999566 0.9999999999992363 0.03999999999989588
16.99999999999567 0.9999999999992366 0.0599999999998943
16.99999999999567 0.9999999999992364 0.0799999999999474
16.99999999999588 1.999999999998621 0.01999999999995603
16.99999999999588 1.99999999999862 0.0399999999998959
16.99999999999589 1.99999999999862 0.05999999999989433
16.99999999999589 1.99999999999862 0.07999999999994743
16.99999999999612 2.999999999997084 0.01999999999995601
16.99999999999612 2.999999999997085 0.0399999999998959
16.99999999999612 2.999999999997085 0.0599999999998943
16.99999999999612 2.999999999997085 0.07999999999994746
16.99999999999635 3.9999999999946 0.019999999999956
16.99999999999635 3.999999999994601 0.0399999999998959
16.99999999999634 3.9999999999946 0.0599999999998943
16.99999999999635 3.999999999994601 0.07999999999994738
16.99999999999657 4.999999999992117 0.01999999999995602
16.99999999999658 4.999999999992115 0.0399999999998959
16.99999999999658 4.999999999992117 0.05999999999989432
16.99999999999658 4.999999999992116 0.07999999999994739
16.99999999999681 5.999999999989634 0.01999999999995603
16.9999999999968 5.999999999989631 0.03999999999989589
16.99999999999681 5.999999999989632 0.05999999999989428
16.9999999999968 5.999999999989637 0.0799999999999474
16.99999999999703 6.999999999987148 0.019999999999956
16.99999999999703 6.999999999987153 0.0399999999998959
16.99999999999703 6.99999999998715 0.05999999999989433
16.99999999999703 6.99999999998715 0.07999999999994742
16.99999999999726 7.999999999984723 0.01999999999995603
16.99999999999725 7.99999999998473 0.0399999999998959
16.99999999999726 7.999999999984726 0.05999999999989429
16.99999999999725 7.999999999984725 0.07999999999994742
16.99999999999748 8.999999999985787 0.01999999999995602
16.99999999999748 8.999999999985787 0.0399999999998959
16.99999999999748 8.999999999985787 0.05999999999989434
16.99999999999748 8.999999999985786 0.07999999999994742
16.99999999999771 9.999999999987084 0.01999999999995601
16.99999999999771 9.999999999987079 0.0399999999998959
16.99999999999772 9.999999999987079 0.05999999999989429
16.99999999999771 9.999999999987082 0.07999999999994742
16.99999999999794 10.99999999998837 0.01999999999995602
16.99999999999795 10.99999999998837 0.0399999999998959
16.99999999999795 10.99999999998837 0.05999999999989428
16.99999999999795 10.99999999998837 0.0799999999999474
16.99999999999816 11.99999999998967 0.01999999999995602
16.99999999999816 11.99999999998967 0.0399999999998959
16.99999999999817 11.99999999998967 0.05999999999989428
16.99999999999817 11.99999999998967 0.0799999999999474
16.9999999999984 12.99999999999095 0.01999999999995602
16.9999999999984 12.99999999999096 0.0399999999998959
16.9999999999984 12.99999999999096 0.0599999999998943
16.9999999999984 12.99999999999095 0.07999999999994742
16.99999999999862 13.99999999999225 0.01999999999995603
16.99999999999862 13.99999999999224 0.0399999999998959
16.99999999999862 13.99999999999224 0.05999999999989428
16.99999999999863 13.99999999999224 0.07999999999994742
16.99999999999886 14.99999999999354 0.01999999999995602
16.99999999999886 14.99999999999354 0.03999999999989589
16.99999999999886 14.99999999999354 0.05999999999989433
16.99999999999886 14.99999999999355 0.07999999999994742
16.99999999999907 15.99999999999484 0.01999999999995602
16.99999999999908 15.99999999999484 0.0399999999998959
16.99999999999908 15.99999999999484 0.05999999999989433
16.99999999999908 15.99999999999483 0.07999999999994742
16.99999999999931 16.99999999999611 0.01999999999995602
16.99999999999931 16.99999999999611 0.03999999999989591
16.99999999999932 16.99999999999612 0.05999999999989433
16.99999999999932 16.99999999999611 0.07999999999994742
16.99999999999953 17.99999999999741 0.01999999999995602
16.99999999999954 17.99999999999741 0.0399999999998959
16.99999999999954 17.99999999999741 0.0599999999998943
16.99999999999954 17.99999999999741 0.07999999999994743
16.99999999999977 18.9999999999987 0.01999999999995602
16.99999999999978 18.99999999999871 0.0399999999998959
16.99999999999977 18.9999999999987 0.05999999999989432
16.99999999999978 18.99999999999871 0.07999999999994742
17.9999999999971 0.9999999999991914 0.01999999999995602
17.9999999999971 0.9999999999991918 0.03999999999989586
17.99999999999709 0.9999999999991921 0.05999999999989428
17.9999999999971 0.9999999999991915 0.07999999999994745
17.99999999999726 1.99999999999854 0.01999999999995603
17.99999999999726 1.999999999998539 0.0399999999998959
17.99999999999726 1.99999999999854 0.0599999999998943
17.99999999999726 1.999999999998539 0.07999999999994743
17.99999999999742 2.999999999996912 0.01999999999995601
17.99999999999742 2.999999999996912 0.0399999999998959
17.99999999999741 2.999999999996911 0.05999999999989429
17.99999999999741 2.999999999996913 0.07999999999994747
17.99999999999756 3.999999999994282 0.019999999999956
17.99999999999756 3.999999999994284 0.0399999999998959
17.99999999999756 3.999999999994282 0.05999999999989429
17.99999999999756 3.999999999994282 0.07999999999994743
17.99999999999772 4.999999999991654 0.01999999999995603
17.99999999999772 4.999999999991656 0.0399999999998959
17.99999999999771 4.999999999991654 0.05999999999989429
17.99999999999772 4.999999999991655 0.07999999999994745
17.99999999999787 5.999999999989022 0.01999999999995603
17.99999999999786 5.999999999989018 0.0399999999998959
17.99999999999786 5.999999999989021 0.05999999999989428
17.99999999999787 5.999999999989027 0.07999999999994746
17.99999999999803 6.999999999986394 0.019999999999956
17.99999999999802 6.999999999986398 0.0399999999998959
17.99999999999802 6.999999999986396 0.0599999999998943
17.99999999999802 6.999999999986391 0.07999999999994743
17.99999999999817 7.999999999983828 0.01999999999995603
17.99999999999817 7.999999999983825 0.0399999999998959
17.99999999999816 7.999999999983824 0.05999999999989428
17.99999999999817 7.999999999983829 0.07999999999994743
17.99999999999832 8.999999999984944 0.01999999999995602
17.99999999999832 8.999999999984949 0.0399999999998959
17.99999999999832 8.999999999984942 0.05999999999989431
17.99999999999832 8.99999999998495 0.07999999999994743
17.99999999999848 9.999999999986326 0.019999999999956
17.99999999999847 9.99999999998632 0.0399999999998959
17.99999999999847 9.999999999986317 0.0599999999998943
17.99999999999847 9.99999999998632 0.07999999999994742
17.99999999999863 10.99999999998769 0.01999999999995601
17.99999999999863 10.99999999998768 0.0399999999998959
17.99999999999863 10.99999999998769 0.05999999999989428
17.99999999999863 10.99999999998768 0.07999999999994743
17.99999999999879 11.99999999998906 0.01999999999995602
17.99999999999878 11.99999999998906 0.03999999999989589
17.99999999999878 11.99999999998906 0.05999999999989425
17.99999999999878 11.99999999998906 0.07999999999994742
17.99999999999893 12.99999999999042 0.019999999999956
17.99999999999893 12.99999999999042 0.0399999999998959
17.99999999999893 12.99999999999042 0.05999999999989429
17.99999999999893 12.99999999999041 0.07999999999994742
17.99999999999909 13.99999999999179 0.01999999999995603
17.99999999999908 13.99999999999179 0.0399999999998959
17.99999999999908 13.99999999999178 0.05999999999989428
17.99999999999908 13.99999999999179 0.07999999999994743
17.99999999999923 14.99999999999315 0.01999999999995602
17.99999999999923 14.99999999999316 0.0399999999998959
17.99999999999923 14.99999999999316 0.05999999999989429
17.99999999999924 14.99999999999316 0.07999999999994743
17.99999999999939 15.99999999999452 0.01999999999995602
17.99999999999939 15.99999999999454 0.0399999999998959
17.99999999999939 15.99999999999452 0.05999999999989429
17.9999999999994 15.99999999999453 0.07999999999994743
17.99999999999953 16.99999999999589 0.01999999999995602
17.99999999999953 16.99999999999589 0.0399999999998959
17.99999999999954 16.99999999999589 0.0599999999998943
17.99999999999954 16.99999999999589 0.07999999999994743
17.99999999999969 17.99999999999725 0.01999999999995602
17.99999999999969 17.99999999999725 0.0399999999998959
17.99999999999968 17.99999999999725 0.05999999999989428
17.99999999999969 17.99999999999725 0.07999999999994743
17.99999999999984 18.99999999999863 0.01999999999995602
17.99999999999984 18.99999999999864 0.0399999999998959
17.99999999999984 18.99999999999863 0.05999999999989428
17.99999999999984 18.99999999999864 0.07999999999994742
18.99999999999856 0.9999999999991469 0.01999999999995602
18.99999999999856 0.9999999999991468 0.03999999999989588
18.99999999999855 0.9999999999991467 0.05999999999989428
18.99999999999856 0.9999999999991463 0.0799999999999474
18.99999999999863 1.999999999998459 0.01999999999995602
18.99999999999864 1.999999999998458 0.0399999999998959
18.99999999999863 1.999999999998458 0.0599999999998943
18.99999999999864 1.999999999998459 0.07999999999994743
18.9999999999987 2.999999999996741 0.01999999999995601
18.99999999999871 2.999999999996741 0.0399999999998959
18.99999999999871 2.999999999996743 0.05999999999989429
18.99999999999871 2.999999999996743 0.07999999999994749
18.99999999999878 3.999999999993967 0.01999999999995601
18.99999999999879 3.999999999993967 0.03999999999989589
18.99999999999877 3.999999999993965 0.05999999999989429
18.99999999999878 3.999999999993965 0.07999999999994739
18.99999999999886 4.999999999991191 0.01999999999995602
18.99999999999886 4.999999999991191 0.0399999999998959
18.99999999999885 4.999999999991189 0.05999999999989428
18.99999999999887 4.999999999991187 0.07999999999994739
18.99999999999892 5.999999999988413 0.01999999999995602
18.99999999999893 5.999999999988413 0.03999999999989588
18.99999999999892 5.999999999988413 0.05999999999989428
18.99999999999893 5.999999999988415 0.07999999999994742
18.999999999999 6.99999999998564 0.019999999999956
18.99999999999901 6.999999999985644 0.0399999999998959
18.999999999999 6.999999999985644 0.0599999999998943
18.99999999999901 6.999999999985642 0.07999999999994742
18.99999999999908 7.999999999982929 0.01999999999995602
18.99999999999909 7.999999999982928 0.0399999999998959
18.99999999999908 7.999999999982933 0.05999999999989429
18.99999999999909 7.999999999982933 0.0799999999999474
18.99999999999916 8.999999999984116 0.01999999999995601
18.99999999999917 8.999999999984114 0.0399999999998959
18.99999999999917 8.999999999984114 0.05999999999989433
18.99999999999917 8.999999999984116 0.0799999999999474
18.99999999999923 9.999999999985558 0.01999999999995601
18.99999999999924 9.999999999985556 0.0399999999998959
18.99999999999924 9.999999999985558 0.0599999999998943
18.99999999999924 9.999999999985558 0.0799999999999474
18.99999999999932 10.999999999987 0.01999999999995602
18.99999999999932 10.999999999987 0.0399999999998959
18.99999999999931 10.999999999987 0.0599999999998943
18.99999999999932 10.999999999987 0.0799999999999474
18.99999999999939 11.99999999998845 0.01999999999995602
18.99999999999939 11.99999999998845 0.0399999999998959
18.99999999999938 11.99999999998845 0.0599999999998943
18.9999999999994 11.99999999998844 0.07999999999994742
18.99999999999947 12.9999999999899 0.019999999999956
18.99999999999947 12.9999999999899 0.0399999999998959
18.99999999999946 12.9999999999899 0.05999999999989428
18.99999999999947 12.99999999998989 0.07999999999994743
18.99999999999954 13.99999999999133 0.01999999999995603
18.99999999999954 13.99999999999133 0.0399999999998959
18.99999999999953 13.99999999999133 0.05999999999989427
18.99999999999955 13.99999999999133 0.07999999999994743
18.99999999999963 14.99999999999277 0.01999999999995601
18.99999999999963 14.99999999999278 0.03999999999989588
18.99999999999961 14.99999999999278 0.05999999999989429
18.99999999999963 14.99999999999278 0.07999999999994743
18.99999999999969 15.99999999999422 0.01999999999995602
18.9999999999997 15.99999999999423 0.0399999999998959
18.99999999999969 15.99999999999422 0.05999999999989432
18.99999999999969 15.99999999999423 0.07999999999994743
18.99999999999977 16.99999999999567 0.01999999999995602
18.99999999999977 16.99999999999567 0.0399999999998959
18.99999999999977 16.99999999999566 0.05999999999989432
18.99999999999978 16.99999999999566 0.07999999999994742
18.99999999999984 17.9999999999971 0.01999999999995602
18.99999999999984 17.9999999999971 0.0399999999998959
18.99999999999984 17.9999999999971 0.05999999999989431
18.99999999999984 17.9999999999971 0.07999999999994742
18.99999999999991 18.99999999999856 0.01999999999995602
18.99999999999993 18.99999999999856 0.0399999999998959
18.99999999999991 18.99999999999855 0.05999999999989431
18.99999999999992 18.99999999999856 0.0799999999999474
CELLS 2000 18000
8 0 8 176 83 160 898 1202 1198
8 160 898 1202 1198 161 899 1203 1199
8 161 899 1203 1199 162 900 1204 1200
8 162 900 1204 1200 163 901 1205 1201
8 163 901 1205 1201 4 84 537 159
8 83 176 177 82 1198 1202 1206 1194
8 1198 1202 1206 1194 1199 1203 1207 1195
8 1199 1203 1207 1195 1200 1204 1208 1196
8 1200 1204 1208 1196 1201 1205 1209 1197
8 1201 1205 1209 1197 159 537 538 158
8 82 177 178 81 1194 1206 1210 1190
8 1194 1206 1210 1190 1195 1207 1211 1191
8 1195 1207 1211 1191 1196 1208 1212 1192
8 1196 1208 1212 1192 1197 1209 1213 1193
8 1197 1209 1213 1193 158 538 539 157
8 81 178 179 80 1190 1210 1214 1186
8 1190 1210 1214 1186 1191 1211 1215 1187
8 1191 1211 1215 1187 1192 1212 1216 1188
8 1192 1212 1216 1188 1193 1213 1217 1189
8 1193 1213 1217 1189 157 539 540 156
8 80 179 180 79 1186 1214 1218 1182
8 1186 1214 1218 1182 1187 1215 1219 1183
8 1187 1215 1219 1183 1188 1216 1220 1184
8 1188 1216 1220 1184 1189 1217 1221 1185
8 1189 1217 1221 1185 156 540 541 155
8 79 180 181 78 1182 1218 1222 1178
8 1182 1218 1222 1178 1183 1219 1223 1179
8 1183 1219 1223 1179 1184 1220 1224 1180
8 1184 1220 1224 1180 1185 1221 1225 1181
8 1185 1221 1225 1181 155 541 542 154
8 78 181 182 77 1178 1222 1226 1174
8 1178 1222 1226 1174 1179 1223 1227 1175
8 1179 1223 1227 1175 1180 1224 1228 1176
8 1180 1224 1228 1176 1181 1225 1229 1177
8 1181 1225 1229 1177 154 542 543 153
8 77 182 183 76 1174 1226 1230 1170
8 1174 1226 1230 1170 1175 1227 1231 1171
8 1175 1227 1231 1171 1176 1228 1232 1172
8 1176 1228 1232 1172 1177 1229 1233 1173
8 1177 1229 1233 1173 153 543 544 152
8 76 183 184 75 1170 1230 1234 1166
8 1170 1230 1234 1166 1171 1231 1235 1167
8 1171 1231 1235 1167 1172 1232 1236 1168
8 1172 1232 1236 1168 1173 1233 1237 1169
8 1173 1233 1237 1169 152 544 545 151
8 75 184 185 74 1166 1234 1238 1162
8 1166 1234 1238 1162 1167 1235 1239 1163
8 1167 1235 1239 1163 1168 1236 1240 1164
8 1168 1236 1240 1164 1169 1237 1241 1165
8 1169 1237 1241 1165 151 545 546 150
8 74 185 186 73 1162 1238 1242 1158
8 1162 1238 1242 1158 1163 1239 1243 1159
8 1163 1239 1243 1159 1164 1240 1244 1160
8 1164 1240 1244 1160 1165 1241 1245 1161
8 1165 1241 1245 1161 150 546 547 149
8 73 186 187 72 1158 1242 1246 1154
8 1158 1242 1246 1154 1159 1243 1247 1155
8 1159 1243 1247 1155 1160 1244 1248 1156
8 1160 1244 1248 1156 1161 1245 1249 1157
8 1161 1245 1249 1157 149 547 548 148
8 72 187 188 71 1154 1246 1250 1150
8 1154 1246 1250 1150 1155 1247 1251 1151
8 1155 1247 1251 1151 1156 1248 1252 1152
8 1156 1248 1252 1152 1157 1249 1253 1153
8 1157 1249 1253 1153 148 548 549 147
8 71 188 189 70 1150 1250 1254 1146
8 1150 1250 1254 1146 1151 1251 1255 1147
8 1151 1251 1255 1147 1152 1252 1256 1148
8 1152 1252 1256 1148 1153 1253 1257 1149
8 1153 1253 1257 1149 147 549 550 146
8 70 189 190 69 1146 1254 1258 1142
8 1146 1254 1258 1142 1147 1255 1259 1143
8 1147 1255 1259 1143 1148 1256 1260 1144
8 1148 1256 1260 1144 1149 1257 1261 1145
8 1149 1257 1261 1145 146 550 551 145
8 69 190 191 68 1142 1258 1262 1138
8 1142 1258 1262 1138 1143 1259 1263 1139
8 1143 1259 1263 1139 1144 1260 1264 1140
8 1144 1260 1264 1140 1145 1261 1265 1141
8 1145 1261 1265 1141 145 551 552 144
8 68 191 192 67 1138 1262 1266 1134
8 1138 1262 1266 1134 1139 1263 1267 1135
8 1139 1263 1267 1135 1140 1264 1268 1136
8 1140 1264 1268 1136 1141 1265 1269 1137
8 1141 1265 1269 1137 144 552 553 143
8 67 192 193 66 1134 1266 1270 1130
8 1134 1266 1270 1130 1135 1267 1271 1131
8 1135 1267 1271 1131 1136 1268 1272 1132
8 1136 1268 1272 1132 1137 1269 1273 1133
8 1137 1269 1273 1133 143 553 554 142
8 66 193 194 65 1130 1270 1274 1126
8 1130 1270 1274 1126 1131 1271 1275 1127
8 1131 1271 1275 1127 1132 1272 1276 1128
8 1132 1272 1276 1128 1133 1273 1277 1129
8 1133 1273 1277 1129 142 554 555 141
8 65 194 64 3 1126 1274 1122 172
8 1126 1274 1122 172 1127 1275 1123 173
8 1127 1275 1123 173 1128 1276 1124 174
8 1128 1276 1124 174 1129 1277 1125 175
8 1129 1277 1125 175 141 555 140 7
8 8 9 195 176 898 902 1278 1202
8 898 902 1278 1202 899 903 1279 1203
8 899 903 1279 1203 900 904 1280 1204
8 900 904 1280 1204 901 905 1281 1205
8 901 905 1281 1205 84 85 556 537
8 176 195 196 177 1202 1278 1282 1206
8 1202 1278 1282 1206 1203 1279 1283 1207
8 1203 1279 1283 1207 1204 1280 1284 1208
8 1204 1280 1284 1208 1205 1281 1285 1209
8 1205 1281 1285 1209 537 556 557 538
8 177 196 197 178 1206 1282 1286 1210
8 1206 1282 1286 1210 1207 1283 1287 1211
8 1207 1283 1287 1211 1208 1284 1288 1212
8 1208 1284 1288 1212 1209 1285 1289 1213
8 1209 1285 1289 1213 538 557 558 539
8 178 197 198 179 1210 1286 1290 1214
8 1210 1286 1290 1214 1211 1287 1291 1215
8 1211 1287 1291 1215 1212 1288 1292 1216
8 1212 1288 1292 1216 1213 1289 1293 1217
8 1213 1289 1293 1217 539 558 559 540
8 179 198 199 180 1214 1290 1294 1218
8 1214 1290 1294 1218 1215 1291 1295 1219
8 1215 1291 1295 1219 1216 1292 1296 1220
8 1216 1292 1296 1220 1217 1293 1297 1221
8 1217 1293 1297 1221 540 559 560 541
8 180 199 200 181 1218 1294 1298 1222
8 1218 1294 1298 1222 1219 1295 1299 1223
8 1219 1295 1299 1223 1220 1296 1300 1224
8 1220 1296 1300 1224 1221 1297 1301 1225
8 1221 1297 1301 1225 541 560 561 542
8 181 200 201 182 1222 1298 1302 1226
8 1222 1298 1302 1226 1223 1299 1303 1227
8 1223 1299 1303 1227 1224 1300 1304 1228
8 1224 1300 1304 1228 1225 1301 1305 1229
8 1225 1301 1305 1229 542 561 562 543
8 182 201 202 183 1226 1302 1306 1230
8 1226 1302 1306 1230 1227 1303 1307 1231
8 1227 1303 1307 1231 1228 1304 1308 1232
8 1228 1304 1308 1232 1229 1305 1309 1233
8 1229 1305 1309 1233 543 562 563 544
8 183 202 203 184 1230 1306 1310 1234
8 1230 1306 1310 1234 1231 1307 1311 1235
8 1231 1307 1311 1235 1232 1308 1312 1236
8 1232 1308 1312 1236 1233 1309 1313 1237
8 1233 1309 1313 1237 544 563 564 545
8 184 203 204 185 1234 1310 1314 1238
8 1234 1310 1314 1238 1235 1311 1315 1239
8 1235 1311 1315 1239 1236 1312 1316 1240
8 1236 1312 1316 1240 1237 1313 1317 1241
8 1237 1313 1317 1241 545 564 565 546
8 185 204 205 186 1238 1314 1318 1242
8 1238 1314 1318 1242 1239 1315 1319 1243
8 1239 1315 1319 1243 1240 1316 1320 1244
8 1240 1316 1320 1244 1241 1317 1321 1245
8 1241 1317 1321 1245 546 565 566 547
8 186 205 206 187 1242 1318 1322 1246
8 1242 1318 1322 1246 1243 1319 1323 1247
8 1243 1319 1323 1247 1244 1320 1324 1248
8 1244 1320 1324 1248 1245 1321 1325 1249
8 1245 1321 1325 1249 547 566 567 548
8 187 206 207 188 1246 1322 1326 1250
8 1246 1322 1326 1250 1247 1323 1327 1251
8 1247 1323 1327 1251 1248 1324 1328 1252
8 1248 1324 1328 1252 1249 1325 1329 1253
8 1249 1325 1329 1253 548 567 568 549
8 188 207 208 189 1250 1326 1330 1254
8 1250 1326 1330 1254 1251 1327 1331 1255
8 1251 1327 1331 1255 1252 1328 1332 1256
8 1252 1328 1332 1256 1253 1329 1333 1257
8 1253 1329 1333 1257 549 568 569 550
8 189 208 209 190 1254 1330 1334 1258
8 1254 1330 1334 1258 1255 1331 1335 1259
8 1255 1331 1335 1259 1256 1332 1336 1260
8 1256 1332 1336 1260 1257 1333 1337 1261
8 1257 1333 1337 1261 550 569 570 551
8 190 209 210 191 1258 1334 1338 1262
8 1258 1334 1338 1262 1259 1335 1339 1263
8 1259 1335 1339 1263 1260 1336 1340 1264
8 1260 1336 1340 1264 1261 1337 1341 1265
8 1261 1337 1341 1265 551 570 571 552
8 191 210 211 192 1262 1338 1342 1266
8 1262 1338 1342 1266 1263 1339 1343 1267
8 1263 1339 1343 1267 1264 1340 1344 1268
8 1264 1340 1344 1268 1265 1341 1345 1269
8 1265 1341 1345 1269 552 571 572 553
8 192 211 212 193 1266 1342 1346 1270
8 1266 1342 1346 1270 1267 1343 1347 1271
8 1267 1343 1347 1271 1268 1344 1348 1272
8 1268 1344 1348 1272 1269 1345 1349 1273
8 1269 1345 1349 1273 553 572 573 554
8 193 212 213 194 1270 1346 1350 1274
8 1270 1346 1350 1274 1271 1347 1351 1275
8 1271 1347 1351 1275 1272 1348 1352 1276
8 1272 1348 1352 1276 1273 1349 1353 1277
8 1273 1349 1353 1277 554 573 574 555
8 194 213 63 64 1274 1350 1118 1122
8 1274 1350 1118 1122 1275 1351 1119 1123
8 1275 1351 1119 1123 1276 1352 1120 1124
8 1276 1352 1120 1124 1277 1353 1121 1125
8 1277 1353 1121 1125 555 574 139 140
8 9 10 214 195 902 906 1354 1278
8 902 906 1354 1278 903 907 1355 1279
8 903 907 1355 1279 904 908 1356 1280
8 904 908 1356 1280 905 909 1357 1281
8 905 909 1357 1281 85 86 575 556
8 195 214 215 196 1278 1354 1358 1282
8 1278 1354 1358 1282 1279 1355 1359 1283
8 1279 1355 1359 1283 1280 1356 1360 1284
8 1280 1356 1360 1284 1281 1357 1361 1285
8 1281 1357 1361 1285 556 575 576 557
8 196 215 216 197 1282 1358 1362 1286
8 1282 1358 1362 1286 1283 1359 1363 1287
8 1283 1359 1363 1287 1284 1360 1364 1288
8 1284 1360 1364 1288 1285 1361 1365 1289
8 1285 1361 1365 1289 557 576 577 558
8 197 216 217 198 1286 1362 1366 1290
8 1286 1362 1366 1290 1287 1363 1367 1291
8 1287 1363 1367 1291 1288 1364 1368 1292
8 1288 1364 1368 1292 1289 1365 1369 1293
8 1289 1365 1369 1293 558 577 578 559
8 198 217 218 199 1290 1366 1370 1294
8 1290 1366 1370 1294 1291 1367 1371 1295
8 1291 1367 1371 1295 1292 1368 1372 1296
8 1292 1368 1372 1296 1293 1369 1373 1297
8 1293 1369 1373 1297 559 578 579 560
8 199 218 219 200 1294 1370 1374 1298
8 1294 1370 1374 1298 1295 1371 1375 1299
8 1295 1371 1375 1299 1296 1372 1376 1300
8 1296 1372 1376 1300 1297 1373 1377 1301
8 1297 1373 1377 1301 560 579 580 561
8 200 219 220 201 1298 1374 1378 1302
8 1298 1374 1378 1302 1299 1375 1379 1303
8 1299 1375 1379 1303 1300 1376 1380 1304
8 1300 1376 1380 1304 1301 1377 1381 1305
8 1301 1377 1381 1305 561 580 581 562
8 201 220 221 202 1302 1378 1382 1306
8 1302 1378 1382 1306 1303 1379 1383 1307
8 1303 1379 1383 1307 1304 1380 1384 1308
8 1304 1380 1384 1308 1305 1381 1385 1309
8 1305 1381 1385 1309 562 581 582 563
8 202 221 222 203 1306 1382 1386 1310
8 1306 1382 1386 1310 1307 1383 1387 1311
8 1307 1383 1387 1311 1308 1384 1388 1312
8 1308 1384 1388 1312 1309 1385 1389 1313
8 1309 1385 1389 1313 563 582 583 564
8 203 222 223 204 1310 1386 1390 1314
8 1310 1386 1390 1314 1311 1387 1391 1315
8 1311 1387 1391 1315 1312 1388 1392 1316
8 1312 1388 1392 1316 1313 1389 1393 1317
8 1313 1389 1393 1317 564 583 584 565
8 204 223 224 205 1314 1390 1394 1318
8 1314 1390 1394 1318 1315 1391 1395 1319
8 1315 1391 1395 1319 1316 1392 1396 1320
8 1316 1392 1396 1320 1317 1393 1397 1321
8 1317 1393 1397 1321 565 584 585 566
8 205 224 225 206 1318 1394 1398 1322
8 1318 1394 1398 1322 1319 1395 1399 1323
8 1319 1395 1399 1323 1320 1396 1400 1324
8 1320 1396 1400 1324 1321 1397 1401 1325
8 1321 1397 1401 1325 566 585 586 567
8 206 225 226 207 1322 1398 1402 1326
8 1322 1398 1402 1326 1323 1399 1403 1327
8 1323 1399 1403 1327 1324 1400 1404 1328
8 1324 1400 1404 1328 1325 1401 1405 1329
8 1325 1401 1405 1329 567 586 587 568
8 207 226 227 208 1326 1402 1406 1330
8 1326 1402 1406 1330 1327 1403 1407 1331
8 1327 1403 1407 1331 1328 1404 1408 1332
8 1328 1404 1408 1332 1329 1405 1409 1333
8 1329 1405 1409 1333 568 587 588 569
8 208 227 228 209 1330 1406 1410 1334
8 1330 1406 1410 1334 1331 1407 1411 1335
8 1331 1407 1411 1335 1332 1408 1412 1336
8 1332 1408 1412 1336 1333 1409 1413 1337
8 1333 1409 1413 1337 569 588 589 570
8 209 228 229 210 1334 1410 1414 1338
8 1334 1410 1414 1338 1335 1411 1415 1339
8 1335 1411 1415 1339 1336 1412 1416 1340
8 1336 1412 1416 1340 1337 1413 1417 1341
8 1337 1413 1417 1341 570 589 590 571
8 210 229 230 211 1338 1414 1418 1342
8 1338 1414 1418 1342 1339 1415 1419 1343
8 1339 1415 1419 1343 1340 1416 1420 1344
8 1340 1416 1420 1344 1341 1417 1421 1345
8 1341 1417 1421 1345 571 590 591 572
8 211 230 231 212 1342 1418 1422 1346
8 1342 1418 1422 1346 1343 1419 1423 1347
8 1343 1419 1423 1347 1344 1420 1424 1348
8 1344 1420 1424 1348 1345 1421 1425 1349
8 1345 1421 1425 1349 572 591 592 573
8 212 231 232 213 1346 1422 1426 1350
8 1346 1422 1426 1350 1347 1423 1427 1351
8 1347 1423 1427 1351 1348 1424 1428 1352
8 1348 1424 1428 1352 1349 1425 1429 1353
8 1349 1425 1429 1353 573 592 593 574
8 213 232 62 63 1350 1426 1114 1118
8 1350 1426 1114 1118 1351 1427 1115 1119
8 1351 1427 1115 1119 1352 1428 1116 1120
8 1352 1428 1116 1120 1353 1429 1117 1121
8 1353 1429 1117 1121 574 593 138 139
8 10 11 233 214 906 910 1430 1354
8 906 910 1430 1354 907 911 1431 1355
8 907 911 1431 1355 908 912 1432 1356
8 908 912 1432 1356 909 913 1433 1357
8 909 913 1433 1357 86 87 594 575
8 214 233 234 215 1354 1430 1434 1358
8 1354 1430 1434 1358 1355 1431 1435 1359
8 1355 1431 1435 1359 1356 1432 1436 1360
8 1356 1432 1436 1360 1357 1433 1437 1361
8 1357 1433 1437 1361 575 594 595 576
8 215 234 235 216 1358 1434 1438 1362
8 1358 1434 1438 1362 1359 1435 1439 1363
8 1359 1435 1439 1363 1360 1436 1440 1364
8 1360 1436 1440 1364 1361 1437 1441 1365
8 1361 1437 1441 1365 576 595 596 577
8 216 235 236 217 1362 1438 1442 1366
8 1362 1438 1442 1366 1363 1439 1443 1367
8 1363 1439 1443 1367 1364 1440 1444 1368
8 1364 1440 1444 1368 1365 1441 1445 1369
8 1365 1441 1445 1369 577 596 597 578
8 217 236 237 218 1366 1442 1446 1370
8 1366 1442 1446 1370 1367 1443 1447 1371
8 1367 1443 1447 1371 1368 1444 1448 1372
8 1368 1444 1448 1372 1369 1445 1449 1373
8 1369 1445 1449 1373 578 597 598 579
8 218 237 238 219 1370 1446 1450 1374
8 1370 1446 1450 1374 1371 1447 1451 1375
8 1371 1447 1451 1375 1372 1448 1452 1376
8 1372 1448 1452 1376 1373 1449 1453 1377
8 1373 1449 1453 1377 579 598 599 580
8 219 238 239 220 1374 1450 1454 1378
8 1374 1450 1454 1378 1375 1451 1455 1379
8 1375 1451 1455 1379 1376 1452 1456 1380
8 1376 1452 1456 1380 1377 1453 1457 1381
8 1377 1453 1457 1381 580 599 600 581
8 220 239 240 221 1378 1454 1458 1382
8 1378 1454 1458 1382 1379 1455 1459 1383
8 1379 1455 1459 1383 1380 1456 1460 1384
8 1380 1456 1460 1384 1381 1457 1461 1385
8 1381 1457 1461 1385 581 600 601 582
8 221 240 241 222 1382 1458 1462 1386
8 1382 1458 1462 1386 1383 1459 1463 1387
8 1383 1459 1463 1387 1384 1460 1464 1388
8 1384 1460 1464 1388 1385 1461 1465 1389
8 1385 1461 1465 1389 582 601 602 583
8 222 241 242 223 1386 1462 1466 1390
8 1386 1462 1466 1390 1387 1463 1467 1391
8 1387 1463 1467 1391 1388 1464 1468 1392
8 1388 1464 1468 1392 1389 1465 1469 1393
8 1389 1465 1469 1393 583 602 603 584
8 223 242 243 224 1390 1466 1470 1394
8 1390 1466 1470 1394 1391 1467 1471 1395
8 1391 1467 1471 1395 1392 1468 1472 1396
8 1392 1468 1472 1396 1393 1469 1473 1397
8 1393 1469 1473 1397 584 603 604 585
8 224 243 244 225 1394 1470 1474 1398
8 1394 1470 1474 1398 1395 1471 1475 1399
8 1395 1471 1475 1399 1396 1472 1476 1400
8 1396 1472 1476 1400 1397 1473 1477 1401
8 1397 1473 1477 1401 585 604 605 586
8 225 244 245 226 1398 1474 1478 1402
8 1398 1474 1478 1402 1399 1475 1479 1403
8 1399 1475 1479 1403 1400 1476 1480 1404
8 1400 1476 1480 1404 1401 1477 1481 1405
8 1401 1477 1481 1405 586 605 606 587
8 226 245 246 227 1402 1478 1482 1406
8 1402 1478 1482 1406 1403 1479 1483 1407
8 1403 1479 1483 1407 1404 1480 1484 1408
8 1404 1480 1484 1408 1405 1481 1485 1409
8 1405 1481 1485 1409 587 606 607 588
8 227 246 247 228 1406 1482 1486 1410
8 1406 1482 1486 1410 1407 1483 1487 1411
8 1407 1483 1487 1411 1408 1484 1488 1412
8 1408 1484 1488 1412 1409 1485 1489 1413
8 1409 1485 1489 1413 588 607 608 589
8 228 247 248 229 1410 1486 1490 1414
8 1410 1486 1490 1414 1411 1487 1491 1415
8 1411 1487 1491 1415 1412 1488 1492 1416
8 1412 1488 1492 1416 1413 1489 1493 1417
8 1413 1489 1493 1417 589 608 609 590
8 229 248 249 230 1414 1490 1494 1418
8 1414 1490 1494 1418 1415 1491 1495 1419
8 1415 1491 1495 1419 1416 1492 1496 1420
8 1416 1492 1496 1420 1417 1493 1497 1421
8 1417 1493 1497 1421 590 609 610 591
8 230 249 250 231 1418 1494 1498 1422
8 1418 1494 1498 1422 1419 1495 1499 1423
8 1419 1495 1499 1423 1420 1496 1500 1424
8 1420 1496 1500 1424 1421 1497 1501 1425
8 1421 1497 1501 1425 591 610 611 592
8 231 250 251 232 1422 1498 1502 1426
8 1422 1498 1502 1426 1423 1499 1503 1427
8 1423 1499 1503 1427 1424 1500 1504 1428
8 1424 1500 1504 1428 1425 1501 1505 1429
8 1425 1501 1505 1429 592 611 612 593
8 232 251 61 62 1426 1502 1110 1114
8 1426 1502 1110 1114 1427 1503 1111 1115
8 1427 1503 1111 1115 1428 1504 1112 1116
8 1428 1504 1112 1116 1429 1505 1113 1117
8 1429 1505 1113 1117 593 612 137 138
8 11 12 252 233 910 914 1506 1430
8 910 914 1506 1430 911 915 1507 1431
8 911 915 1507 1431 912 916 1508 1432
8 912 916 1508 1432 913 917 1509 1433
8 913 917 1509 1433 87 88 613 594
8 233 252 253 234 1430 1506 1510 1434
8 1430 1506 1510 1434 1431 1507 1511 1435
8 1431 1507 1511 1435 1432 1508 1512 1436
8 1432 1508 1512 1436 1433 1509 1513 1437
8 1433 1509 1513 1437 594 613 614 595
8 234 253 254 235 1434 1510 1514 1438
8 1434 1510 1514 1438 1435 1511 1515 1439
8 1435 1511 1515 1439 1436 1512 1516 1440
8 1436 1512 1516 1440 1437 1513 1517 1441
8 1437 1513 1517 1441 595 614 615 596
8 235 254 255 236 1438 1514 1518 1442
8 1438 1514 1518 1442 1439 1515 1519 1443
8 1439 1515 1519 1443 1440 1516 1520 1444
8 1440 1516 1520 1444 1441 1517 1521 1445
8 1441 1517 1521 1445 596 615 616 597
8 236 255 256 237 1442 1518 1522 1446
8 1442 1518 1522 1446 1443 1519 1523 1447
8 1443 1519 1523 1447 1444 1520 1524 1448
8 1444 1520 1524 1448 1445 1521 1525 1449
8 1445 1521 1525 1449 597 616 617 598
8 237 256 257 238 1446 1522 1526 1450
8 1446 1522 1526 1450 1447 1523 1527 1451
8 1447 1523 1527 1451 1448 1524 1528 1452
8 1448 1524 1528 1452 1449 1525 1529 1453
8 1449 1525 1529 1453 598 617 618 599
8 238 257 258 239 1450 1526 1530 1454
8 1450 1526 1530 1454 1451 1527 1531 1455
8 1451 1527 1531 1455 1452 1528 1532 1456
8 1452 1528 1532 1456 1453 1529 1533 1457
8 1453 1529 1533 1457 599 618 619 600
8 239 258 259 240 1454 1530 1534 1458
8 1454 1530 1534 1458 1455 1531 1535 1459
8 1455 1531 1535 1459 1456 1532 1536 1460
8 1456 1532 1536 1460 1457 1533 1537 1461
8 1457 1533 1537 1461 600 619 620 601
8 240 259 260 241 1458 1534 1538 1462
8 1458 1534 1538 1462 1459 1535 1539 1463
8 1459 1535 1539 1463 1460 1536 1540 1464
8 1460 1536 1540 1464 1461 1537 1541 1465
8 1461 1537 1541 1465 601 620 621 602
8 241 260 261 242 1462 1538 1542 1466
8 1462 1538 1542 1466 1463 1539 1543 1467
8 1463 1539 1543 1467 1464 1540 1544 1468
8 1464 1540 1544 1468 1465 1541 1545 1469
8 1465 1541 1545 1469 602 621 622 603
8 242 261 262 243 1466 1542 1546 1470
8 1466 1542 1546 1470 1467 1543 1547 1471
8 1467 1543 1547 1471 1468 1544 1548 1472
8 1468 1544 1548 1472 1469 1545 1549 1473
8 1469 1545 1549 1473 603 622 623 604
8 243 262 263 244 1470 1546 1550 1474
8 1470 1546 1550 1474 1471 1547 1551 1475
8 1471 1547 1551 1475 1472 1548 1552 1476
8 1472 1548 1552 1476 1473 1549 1553 1477
8 1473 1549 1553 1477 604 623 624 605
8 244 263 264 245 1474 1550 1554 1478
8 1474 1550 1554 1478 1475 1551 1555 1479
8 1475 1551 1555 1479 1476 1552 1556 1480
8 1476 1552 1556 1480 1477 1553 1557 1481
8 1477 1553 1557 1481 605 624 625 606
8 245 264 265 246 1478 1554 1558 1482
8 1478 1554 1558 1482 1479 1555 1559 1483
8 1479 1555 1559 1483 1480 1556 1560 1484
8 1480 1556 1560 1484 1481 1557 1561 1485
8 1481 1557 1561 1485 606 625 626 607
8 246 265 266 247 1482 1558 1562 1486
8 1482 1558 1562 1486 1483 1559 1563 1487
8 1483 1559 1563 1487 1484 1560 1564 1488
8 1484 1560 1564 1488 1485 1561 1565 1489
8 1485 1561 1565 1489 607 626 627 608
8 247 266 267 248 1486 1562 1566 1490
8 1486 1562 1566 1490 1487 1563 1567 1491
8 1487 1563 1567 1491 1488 1564 1568 1492
8 1488 1564 1568 1492 1489 1565 1569 1493
8 1489 1565 1569 1493 608 627 628 609
8 248 267 268 249 1490 1566 1570 1494
8 1490 1566 1570 1494 1491 1567 1571 1495
8 1491 1567 1571 1495 1492 1568 1572 1496
8 1492 1568 1572 1496 1493 1569 1573 1497
8 1493 1569 1573 1497 609 628 629 610
8 249 268 269 250 1494 1570 1574 1498
8 1494 1570 1574 1498 1495 1571 1575 1499
8 1495 1571 1575 1499 1496 1572 1576 1500
8 1496 1572 1576 1500 1497 1573 1577 1501
8 1497 1573 1577 1501 610 629 630 611
8 250 269 270 251 1498 1574 1578 1502
8 1498 1574 1578 1502 1499 1575 1579 1503
8 1499 1575 1579 1503 1500 1576 1580 1504
8 1500 1576 1580 1504 1501 1577 1581 1505
8 1501 1577 1581 1505 611 630 631 612
8 251 270 60 61 1502 1578 1106 1110
8 1502 1578 1106 1110 1503 1579 1107 1111
8 1503 1579 1107 1111 1504 1580 1108 1112
8 1504 1580 1108 1112 1505 1581 1109 1113
8 1505 1581 1109 1113 612 631 136 137
8 12 13 271 252 914 918 1582 1506
8 914 918 1582 1506 915 919 1583 1507
8 915 919 1583 1507 916 920 1584 1508
8 916 920 1584 1508 917 921 1585 1509
8 917 921 1585 1509 88 89 632 613
8 252 271 272 253 1506 1582 1586 1510
8 1506 1582 1586 1510 1507 1583 1587 1511
8 1507 1583 1587 1511 1508 1584 1588 1512
8 1508 1584 1588 1512 1509 1585 1589 1513
8 1509 1585 1589 1513 613 632 633 614
8 253 272 273 254 1510 1586 1590 1514
8 1510 1586 1590 1514 1511 1587 1591 1515
8 1511 1587 1591 1515 1512 1588 1592 1516
8 1512 1588 1592 1516 1513 1589 1593 1517
8 1513 1589 1593 1517 614 633 634 615
8 254 273 274 255 1514 1590 1594 1518
8 1514 1590 1594 1518 1515 1591 1595 1519
8 1515 1591 1595 1519 1516 1592 1596 1520
8 1516 1592 1596 1520 1517 1593 1597 1521
8 1517 1593 1597 1521 615 634 635 616
8 255 274 275 256 1518 1594 1598 1522
8 1518 1594 1598 1522 1519 1595 1599 1523
8 1519 1595 1599 1523 1520 1596 1600 1524
8 1520 1596 1600 1524 1521 1597 1601 1525
8 1521 1597 1601 1525 616 635 636 617
8 256 275 276 257 1522 1598 1602 1526
8 1522 1598 1602 1526 1523 1599 1603 1527
8 1523 1599 1603 1527 1524 1600 1604 1528
8 1524 1600 1604 1528 1525 1601 1605 1529
8 1525 1601 1605 1529 617 636 637 618
8 257 276 277 258 1526 1602 1606 1530
8 1526 1602 1606 1530 1527 1603 1607 1531
8 1527 1603 1607 1531 1528 1604 1608 1532
8 1528 1604 1608 1532 1529 1605 1609 1533
8 1529 1605 1609 1533 618 637 638 619
8 258 277 278 259 1530 1606 1610 1534
8 1530 1606 1610 1534 1531 1607 1611 1535
8 1531 1607 1611 1535 1532 1608 1612 1536
8 1532 1608 1612 1536 1533 1609 1613 1537
8 1533 1609 1613 1537 619 638 639 620
8 259 278 279 260 1534 1610 1614 1538
8 1534 1610 1614 1538 1535 1611 1615 1539
8 1535 1611 1615 1539 1536 1612 1616 1540
8 1536 1612 1616 1540 1537 1613 1617 1541
8 1537 1613 1617 1541 620 639 640 621
8 260 279 280 261 1538 1614 1618 1542
8 1538 1614 1618 1542 1539 1615 1619 1543
8 1539 1615 1619 1543 1540 1616 1620 1544
8 1540 1616 1620 1544 1541 1617 1621 1545
8 1541 1617 1621 1545 621 640 641 622
8 261 280 281 262 1542 1618 1622 1546
8 1542 1618 1622 1546 1543 1619 1623 1547
8 1543 1619 1623 1547 1544 1620 1624 1548
8 1544 1620 1624 1548 1545 1621 1625 1549
8 1545 1621 1625 1549 622 641 642 623
8 262 281 282 263 1546 1622 1626 1550
8 1546 1622 1626 1550 1547 1623 1627 1551
8 1547 1623 1627 1551 1548 1624 1628 1552
8 1548 1624 1628 1552 1549 1625 1629 1553
8 1549 1625 1629 1553 623 642 643 624
8 263 282 283 264 1550 1626 1630 1554
8 1550 1626 1630 1554 1551 1627 1631 1555
8 1551 1627 1631 1555 1552 1628 1632 1556
8 1552 1628 1632 1556 1553 1629 1633 1557
8 1553 1629 1633 1557 624 643 644 625
8 264 283 284 265 1554 1630 1634 1558
8 1554 1630 1634 1558 1555 1631 1635 1559
8 1555 1631 1635 1559 1556 1632 1636 1560
8 1556 1632 1636 1560 1557 1633 1637 1561
8 1557 1633 1637 1561 625 644 645 626
8 265 284 285 266 1558 1634 1638 1562
8 1558 1634 1638 1562 1559 1635 1639 1563
8 1559 1635 1639 1563 1560 1636 1640 1564
8 1560 1636 1640 1564 1561 1637 1641 1565
8 1561 1637 1641 1565 626 645 646 627
8 266 285 286 267 1562 1638 1642 1566
8 1562 1638 1642 1566 1563 1639 1643 1567
8 1563 1639 1643 1567 1564 1640 1644 1568
8 1564 1640 1644 1568 1565 1641 1645 1569
8 1565 1641 1645 1569 627 646 647 628
8 267 286 287 268 1566 1642 1646 1570
8 1566 1642 1646 1570 1567 1643 1647 1571
8 1567 1643 1647 1571 1568 1644 1648 1572
8 1568 1644 1648 1572 1569 1645 1649 1573
8 1569 1645 1649 1573 628 647 648 629
8 268 287 288 269 1570 1646 1650 1574
8 1570 1646 1650 1574 1571 1647 1651 1575
8 1571 1647 1651 1575 1572 1648 1652 1576
8 1572 1648 1652 1576 1573 1649 1653 1577
8 1573 1649 1653 1577 629 648 649 630
8 269 288 289 270 1574 1650 1654 1578
8 1574 1650 1654 1578 1575 1651 1655 1579
8 1575 1651 1655 1579 1576 1652 1656 1580
8 1576 1652 1656 1580 1577 1653 1657 1581
8 1577 1653 1657 1581 630 649 650 631
8 270 289 59 60 1578 1654 1102 1106
8 1578 1654 1102 1106 1579 1655 1103 1107
8 1579 1655 1103 1107 1580 1656 1104 1108
8 1580 1656 1104 1108 1581 1657 1105 1109
8 1581 1657 1105 1109 631 650 135 136
8 13 14 290 271 918 922 1658 1582
8 918 922 1658 1582 919 923 1659 1583
8 919 923 1659 1583 920 924 1660 1584
8 920 924 1660 1584 921 925 1661 1585
8 921 925 1661 1585 89 90 651 632
8 271 290 291 272 1582 1658 1662 1586
8 1582 1658 1662 1586 1583 1659 1663 1587
8 1583 1659 1663 1587 1584 1660 1664 1588
8 1584 1660 1664 1588 1585 1661 1665 1589
8 1585 1661 1665 1589 632 651 652 633
8 272 291 292 273 1586 1662 1666 1590
8 1586 1662 1666 1590 1587 1663 1667 1591
8 1587 1663 1667 1591 1588 1664 1668 1592
8 1588 1664 1668 1592 1589 1665 1669 1593
8 1589 1665 1669 1593 633 652 653 634
8 273 292 293 274 1590 1666 1670 1594
8 1590 1666 1670 1594 1591 1667 1671 1595
8 1591 1667 1671 1595 1592 1668 1672 1596
8 1592 1668 1672 1596 1593 1669 1673 1597
8 1593 1669 1673 1597 634 653 654 635
8 274 293 294 275 1594 1670 1674 1598
8 1594 1670 1674 1598 1595 1671 1675 1599
8 1595 1671 1675 1599 1596 1672 1676 1600
8 1596 1672 1676 1600 1597 1673 1677 1601
8 1597 1673 1677 1601 635 654 655 636
8 275 294 295 276 1598 1674 1678 1602
8 1598 1674 1678 1602 1599 1675 1679 1603
8 1599 1675 1679 1603 1600 1676 1680 1604
8 1600 1676 1680 1604 1601 1677 1681 1605
8 1601 1677 1681 1605 636 655 656 637
8 276 295 296 277 1602 1678 1682 1606
8 1602 1678 1682 1606 1603 1679 1683 1607
8 1603 1679 1683 1607 1604 1680 1684 1608
8 1604 1680 1684 1608 1605 1681 1685 1609
8 1605 1681 1685 1609 637 656 657 638
8 277 296 297 278 1606 1682 1686 1610
8 1606 1682 1686 1610 1607 1683 1687 1611
8 1607 1683 1687 1611 1608 1684 1688 1612
8 1608 1684 1688 1612 1609 1685 1689 1613
8 1609 1685 1689 1613 638 657 658 639
8 278 297 298 279 1610 1686 1690 1614
8 1610 1686 1690 1614 1611 1687 1691 1615
8 1611 1687 1691 1615 1612 1688 1692 1616
8 1612 1688 1692 1616 1613 1689 1693 1617
8 1613 1689 1693 1617 639 658 659 640
8 279 298 299 280 1614 1690 1694 1618
8 1614 1690 1694 1618 1615 1691 1695 1619
8 1615 1691 1695 1619 1616 1692 1696 1620
8 1616 1692 1696 1620 1617 1693 1697 1621
8 1617 1693 1697 1621 640 659 660 641
8 280 299 300 281 1618 1694 1698 1622
8 1618 1694 1698 1622 1619 1695 1699 1623
8 1619 1695 1699 1623 1620 1696 1700 1624
8 1620 1696 1700 1624 1621 1697 1701 1625
8 1621 1697 1701 1625 641 660 661 642
8 281 300 301 282 1622 1698 1702 1626
8 1622 1698 1702 1626 1623 1699 1703 1627
8 1623 1699 1703 1627 1624 1700 1704 1628
8 1624 1700 1704 1628 1625 1701 1705 1629
8 1625 1701 1705 1629 642 661 662 643
8 282 301 302 283 1626 1702 1706 1630
8 1626 1702 1706 1630 1627 1703 1707 1631
8 1627 1703 1707 1631 1628 1704 1708 1632
8 1628 1704 1708 1632 1629 1705 1709 1633
8 1629 1705 1709 1633 643 662 663 644
8 283 302 303 284 1630 1706 1710 1634
8 1630 1706 1710 1634 1631 1707 1711 1635
8 1631 1707 1711 1635 1632 1708 1712 1636
8 1632 1708 1712 1636 1633 1709 1713 1637
8 1633 1709 1713 1637 644 663 664 645
8 284 303 304 285 1634 1710 1714 1638
8 1634 1710 1714 1638 1635 1711 1715 1639
8 1635 1711 1715 1639 1636 1712 1716 1640
8 1636 1712 1716 1640 1637 1713 1717 1641
8 1637 1713 1717 1641 645 664 665 646
8 285 304 305 286 1638 1714 1718 1642
8 1638 1714 1718 1642 1639 1715 1719 1643
8 1639 1715 1719 1643 1640 1716 1720 1644
8 1640 1716 1720 1644 1641 1717 1721 1645
8 1641 1717 1721 1645 646 665 666 647
8 286 305 306 287 1642 1718 1722 1646
8 1642 1718 1722 1646 1643 1719 1723 1647
8 1643 1719 1723 1647 1644 1720 1724 1648
8 1644 1720 1724 1648 1645 1721 1725 1649
8 1645 1721 1725 1649 647 666 667 648
8 287 306 307 288 1646 1722 1726 1650
8 1646 1722 1726 1650 1647 1723 1727 1651
8 1647 1723 1727 1651 1648 1724 1728 1652
8 1648 1724 1728 1652 1649 1725 1729 1653
8 1649 1725 1729 1653 648 667 668 649
8 288 307 308 289 1650 1726 1730 1654
8 1650 1726 1730 1654 1651 1727 1731 1655
8 1651 1727 1731 1655 1652 1728 1732 1656
8 1652 1728 1732 1656 1653 1729 1733 1657
8 1653 1729 1733 1657 649 668 669 650
8 289 308 58 59 1654 1730 1098 1102
8 1654 1730 1098 1102 1655 1731 1099 1103
8 1655 1731 1099 1103 1656 1732 1100 1104
8 1656 1732 1100 1104 1657 1733 1101 1105
8 1657 1733 1101 1105 650 669 134 135
8 14 15 309 290 922 926 1734 1658
8 922 926 1734 1658 923 927 1735 1659
8 923 927 1735 1659 924 928 1736 1660
8 924 928 1736 1660 925 929 1737 1661
8 925 929 1737 1661 90 91 670 651
8 290 309 310 291 1658 1734 1738 1662
8 1658 1734 1738 1662 1659 1735 1739 1663
8 1659 1735 1739 1663 1660 1736 1740 1664
8 1660 1736 1740 1664 1661 1737 1741 1665
8 1661 1737 1741 1665 651 670 671 652
8 291 310 311 292 1662 1738 1742 1666
8 1662 1738 1742 1666 1663 1739 1743 1667
8 1663 1739 1743 1667 1664 1740 1744 1668
8 1664 1740 1744 1668 1665 1741 1745 1669
8 1665 1741 1745 1669 652 671 672 653
8 292 311 312 293 1666 1742 1746 1670
8 1666 1742 1746 1670 1667 1743 1747 1671
8 1667 1743 1747 1671 1668 1744 1748 1672
8 1668 1744 1748 1672 1669 1745 1749 1673
8 1669 1745 1749 1673 653 672 673 654
8 293 312 313 294 1670 1746 1750 1674
8 1670 1746 1750 1674 1671 1747 1751 1675
8 1671 1747 1751 1675 1672 1748 1752 1676
8 1672 1748 1752 1676 1673 1749 1753 1677
8 1673 1749 1753 1677 654 673 674 655
8 294 313 314 295 1674 1750 1754 1678
8 1674 1750 1754 1678 1675 1751 1755 1679
8 1675 1751 1755 1679 1676 1752 1756 1680
8 1676 1752 1756 1680 1677 1753 1757 1681
8 1677 1753 1757 1681 655 674 675 656
8 295 314 315 296 1678 1754 1758 1682
8 1678 1754 1758 1682 1679 1755 1759 1683
8 1679 1755 1759 1683 1680 1756 1760 1684
8 1680 1756 1760 1684 1681 1757 1761 1685
8 1681 1757 1761 1685 656 675 676 657
8 296 315 316 297 1682 1758 1762 1686
8 1682 1758 1762 1686 1683 1759 1763 1687
8 1683 1759 1763 1687 1684 1760 1764 1688
8 1684 1760 1764 1688 1685 1761 1765 1689
8 1685 1761 1765 1689 657 676 677 658
8 297 316 317 298 1686 1762 1766 1690
8 1686 1762 1766 1690 1687 1763 1767 1691
8 1687 1763 1767 1691 1688 1764 1768 1692
8 1688 1764 1768 1692 1689 1765 1769 1693
8 1689 1765 1769 1693 658 677 678 659
8 298 317 318 299 1690 1766 1770 1694
8 1690 1766 1770 1694 1691 1767 1771 1695
8 1691 1767 1771 1695 1692 1768 1772 1696
8 1692 1768 1772 1696 1693 1769 1773 1697
8 1693 1769 1773 1697 659 678 679 660
8 299 318 319 300 1694 1770 1774 1698
8 1694 1770 1774 1698 1695 1771 1775 1699
8 1695 1771 1775 1699 1696 1772 1776 1700
8 1696 1772 1776 1700 1697 1773 1777 1701
8 1697 1773 1777 1701 660 679 680 661
8 300 319 320 301 1698 1774 1778 1702
8 1698 1774 1778 1702 1699 1775 1779 1703
8 1699 1775 1779 1703 1700 1776 1780 1704
8 1700 1776 1780 1704 1701 1777 1781 1705
8 1701 1777 1781 1705 661 680 681 662
8 301 320 321 302 1702 1778 1782 1706
8 1702 1778 1782 1706 1703 1779 1783 1707
8 1703 1779 1783 1707 1704 1780 1784 1708
8 1704 1780 1784 1708 1705 1781 1785 1709
8 1705 1781 1785 1709 662 681 682 663
8 302 321 322 303 1706 1782 1786 1710
8 1706 1782 1786 1710 1707 1783 1787 1711
8 1707 1783 1787 1711 1708 1784 1788 1712
8 1708 1784 1788 1712 1709 1785 1789 1713
8 1709 1785 1789 1713 663 682 683 664
8 303 322 323 304 1710 1786 1790 1714
8 1710 1786 1790 1714 1711 1787 1791 1715
8 1711 1787 1791 1715 1712 1788 1792 1716
8 1712 1788 1792 1716 1713 1789 1793 1717
8 1713 1789 1793 1717 664 683 684 665
8 304 323 324 305 1714 1790 1794 1718
8 1714 1790 1794 1718 1715 1791 1795 1719
8 1715 1791 1795 1719 1716 1792 1796 1720
8 1716 1792 1796 1720 1717 1793 1797 1721
8 1717 1793 1797 1721 665 684 685 666
8 305 324 325 306 1718 1794 1798 1722
8 1718 1794 1798 1722 1719 1795 1799 1723
8 1719 1795 1799 1723 1720 1796 1800 1724
8 1720 1796 1800 1724 1721 1797 1801 1725
8 1721 1797 1801 1725 666 685 686 667
8 306 325 326 307 1722 1798 1802 1726
8 1722 1798 1802 1726 1723 1799 1803 1727
8 1723 1799 1803 1727 1724 1800 1804 1728
8 1724 1800 1804 1728 1725 1801 1805 1729
8 1725 1801 1805 1729 667 686 687 668
8 307 326 327 308 1726 1802 1806 1730
8 1726 1802 1806 1730 1727 1803 1807 1731
8 1727 1803 1807 1731 1728 1804 1808 1732
8 1728 1804 1808 1732 1729 1805 1809 1733
8 1729 1805 1809 1733 668 687 688 669
8 308 327 57 58 1730 1806 1094 1098
8 1730 1806 1094 1098 1731 1807 1095 1099
8 1731 1807 1095 1099 1732 1808 1096 1100
8 1732 1808 1096 1100 1733 1809 1097 1101
8 1733 1809 1097 1101 669 688 133 134
8 15 16 328 309 926 930 1810 1734
8 926 930 1810 1734 927 931 1811 1735
8 927 931 1811 1735 928 932 1812 1736
8 928 932 1812 1736 929 933 1813 1737
8 929 933 1813 1737 91 92 689 670
8 309 328 329 310 1734 1810 1814 1738
8 1734 1810 1814 1738 1735 1811 1815 1739
8 1735 1811 1815 1739 1736 1812 1816 1740
8 1736 1812 1816 1740 1737 1813 1817 1741
8 1737 1813 1817 1741 670 689 690 671
8 310 329 330 311 1738 1814 1818 1742
8 1738 1814 1818 1742 1739 1815 1819 1743
8 1739 1815 1819 1743 1740 1816 1820 1744
8 1740 1816 1820 1744 1741 1817 1821 1745
8 1741 1817 1821 1745 671 690 691 672
8 311 330 331 312 1742 1818 1822 1746
8 1742 1818 1822 1746 1743 1819 1823 1747
8 1743 1819 1823 1747 1744 1820 1824 1748
8 1744 1820 1824 1748 1745 1821 1825 1749
8 1745 1821 1825 1749 672 691 692 673
8 312 331 332 313 1746 1822 1826 1750
8 1746 1822 1826 1750 1747 1823 1827 1751
8 1747 1823 1827 1751 1748 1824 1828 1752
8 1748 1824 1828 1752 1749 1825 1829 1753
8 1749 1825 1829 1753 673 692 693 674
8 313 332 333 314 1750 1826 1830 1754
8 1750 1826 1830 1754 1751 1827 1831 1755
8 1751 1827 1831 1755 1752 1828 1832 1756
8 1752 1828 1832 1756 1753 1829 1833 1757
8 1753 1829 1833 1757 674 693 694 675
8 314 333 334 315 1754 1830 1834 1758
8 1754 1830 1834 1758 1755 1831 1835 1759
8 1755 1831 1835 1759 1756 1832 1836 1760
8 1756 1832 1836 1760 1757 1833 1837 1761
8 1757 1833 1837 1761 675 694 695 676
8 315 334 335 316 1758 1834 1838 1762
8 1758 1834 1838 1762 1759 1835 1839 1763
8 1759 1835 1839 1763 1760 1836 1840 1764
8 1760 1836 1840 1764 1761 1837 1841 1765
8 1761 1837 1841 1765 676 695 696 677
8 316 335 336 317 1762 1838 1842 1766
8 1762 1838 1842 1766 1763 1839 1843 1767
8 1763 1839 1843 1767 1764 1840 1844 1768
8 1764 1840 1844 1768 1765 1841 1845 1769
8 1765 1841 1845 1769 677 696 697 678
8 317 336 337 318 1766 1842 1846 1770
8 1766 1842 1846 1770 1767 1843 1847 1771
8 1767 1843 1847 1771 1768 1844 1848 1772
8 1768 1844 1848 1772 1769 1845 1849 1773
8 1769 1845 1849 1773 678 697 698 679
8 318 337 338 319 1770 1846 1850 1774
8 1770 1846 1850 1774 1771 1847 1851 1775
8 1771 1847 1851 1775 1772 1848 1852 1776
8 1772 1848 1852 1776 1773 1849 1853 1777
8 1773 1849 1853 1777 679 698 699 680
8 319 338 339 320 1774 1850 1854 1778
8 1774 1850 1854 1778 1775 1851 1855 1779
8 1775 1851 1855 1779 1776 1852 1856 1780
8 1776 1852 1856 1780 1777 1853 1857 1781
8 1777 1853 1857 1781 680 699 700 681
8 320 339 340 321 1778 1854 1858 1782
8 1778 1854 1858 1782 1779 1855 1859 1783
8 1779 1855 1859 1783 1780 1856 1860 1784
8 1780 1856 1860 1784 1781 1857 1861 1785
8 1781 1857 1861 1785 681 700 701 682
8 321 340 341 322 1782 1858 1862 1786
8 1782 1858 1862 1786 1783 1859 1863 1787
8 1783 1859 1863 1787 1784 1860 1864 1788
8 1784 1860 1864 1788 1785 1861 1865 1789
8 1785 1861 1865 1789 682 701 702 683
8 322 341 342 323 1786 1862 1866 1790
8 1786 1862 1866 1790 1787 1863 1867 1791
8 1787 1863 1867 1791 1788 1864 1868 1792
8 1788 1864 1868 1792 1789 1865 1869 1793
8 1789 1865 1869 1793 683 702 703 684
8 323 342 343 324 1790 1866 1870 1794
8 1790 1866 1870 1794 1791 1867 1871 1795
8 1791 1867 1871 1795 1792 1868 1872 1796
8 1792 1868 1872 1796 1793 1869 1873 1797
8 1793 1869 1873 1797 684 703 704 685
8 324 343 344 325 1794 1870 1874 1798
8 1794 1870 1874 1798 1795 1871 1875 1799
8 1795 1871 1875 1799 1796 1872 1876 1800
8 1796 1872 1876 1800 1797 1873 1877 1801
8 1797 1873 1877 1801 685 704 705 686
8 325 344 345 326 1798 1874 1878 1802
8 1798 1874 1878 1802 1799 1875 1879 1803
8 1799 1875 1879 1803 1800 1876 1880 1804
8 1800 1876 1880 1804 1801 1877 1881 1805
8 1801 1877 1881 1805 686 705 706 687
8 326 345 346 327 1802 1878 1882 1806
8 1802 1878 1882 1806 1803 1879 1883 1807
8 1803 1879 1883 1807 1804 1880 1884 1808
8 1804 1880 1884 1808 1805 1881 1885 1809
8 1805 1881 1885 1809 687 706 707 688
8 327 346 56 57 1806 1882 1090 1094
8 1806 1882 1090 1094 1807 1883 1091 1095
8 1807 1883 1091 1095 1808 1884 1092 1096
8 1808 1884 1092 1096 1809 1885 1093 1097
8 1809 1885 1093 1097 688 707 132 133
8 16 17 347 328 930 934 1886 1810
8 930 934 1886 1810 931 935 1887 1811
8 931 935 1887 1811 932 936 1888 1812
8 932 936 1888 1812 933 937 1889 1813
8 933 937 1889 1813 92 93 708 689
8 328 347 348 329 1810 1886 1890 1814
8 1810 1886 1890 1814 1811 1887 1891 1815
8 1811 1887 1891 1815 1812 1888 1892 1816
8 1812 1888 1892 1816 1813 1889 1893 1817
8 1813 1889 1893 1817 689 708 709 690
8 329 348 349 330 1814 1890 1894 1818
8 1814 1890 1894 1818 1815 1891 1895 1819
8 1815 1891 1895 1819 1816 1892 1896 1820
8 1816 1892 1896 1820 1817 1893 1897 1821
8 1817 1893 1897 1821 690 709 710 691
8 330 349 350 331 1818 1894 1898 1822
8 1818 1894 1898 1822 1819 1895 1899 1823
8 1819 1895 1899 1823 1820 1896 1900 1824
8 1820 1896 1900 1824 1821 1897 1901 1825
8 1821 1897 1901 1825 691 710 711 692
8 331 350 351 332 1822 1898 1902 1826
8 1822 1898 1902 1826 1823 1899 1903 1827
8 1823 1899 1903 1827 1824 1900 1904 1828
8 1824 1900 1904 1828 1825 1901 1905 1829
8 1825 1901 1905 1829 692 711 712 693
8 332 351 352 333 1826 1902 1906 1830
8 1826 1902 1906 1830 1827 1903 1907 1831
8 1827 1903 1907 1831 1828 1904 1908 1832
8 1828 1904 1908 1832 1829 1905 1909 1833
8 1829 1905 1909 1833 693 712 713 694
8 333 352 353 334 1830 1906 1910 1834
8 1830 1906 1910 1834 1831 1907 1911 1835
8 1831 1907 1911 1835 1832 1908 1912 1836
8 1832 1908 1912 1836 1833 1909 1913 1837
8 1833 1909 1913 1837 694 713 714 695
8 334 353 354 335 1834 1910 1914 1838
8 1834 1910 1914 1838 1835 1911 1915 1839
8 1835 1911 1915 1839 1836 1912 1916 1840
8 1836 1912 1916 1840 1837 1913 1917 1841
8 1837 1913 1917 1841 695 714 715 696
8 335 354 355 336 1838 1914 1918 1842
8 1838 1914 1918 1842 1839 1915 1919 1843
8 1839 1915 1919 1843 1840 1916 1920 1844
8 1840 1916 1920 1844 1841 1917 1921 1845
8 1841 1917 1921 1845 696 715 716 697
8 336 355 356 337 1842 1918 1922 1846
8 1842 1918 1922 1846 1843 1919 1923 1847
8 1843 1919 1923 1847 1844 1920 1924 1848
8 1844 1920 1924 1848 1845 1921 1925 1849
8 1845 1921 1925 1849 697 716 717 698
8 337 356 357 338 1846 1922 1926 1850
8 1846 1922 1926 1850 1847 1923 1927 1851
8 1847 1923 1927 1851 1848 1924 1928 1852
8 1848 1924 1928 1852 1849 1925 1929 1853
8 1849 1925 1929 1853 698 717 718 699
8 338 357 358 339 1850 1926 1930 1854
8 1850 1926 1930 1854 1851 1927 1931 1855
8 1851 1927 1931 1855 1852 1928 1932 1856
8 1852 1928 1932 1856 1853 1929 1933 1857
8 1853 1929 1933 1857 699 718 719 700
8 339 358 359 340 1854 1930 1934 1858
8 1854 1930 1934 1858 1855 1931 1935 1859
8 1855 1931 1935 1859 1856 1932 1936 1860
8 1856 1932 1936 1860 1857 1933 1937 1861
8 1857 1933 1937 1861 700 719 720 701
8 340 359 360 341 1858 1934 1938 1862
8 1858 1934 1938 1862 1859 1935 1939 1863
8 1859 1935 1939 1863 1860 1936 1940 1864
8 1860 1936 1940 1864 1861 1937 1941 1865
8 1861 1937 1941 1865 701 720 721 702
8 341 360 361 342 1862 1938 1942 1866
8 1862 1938 1942 1866 1863 1939 1943 1867
8 1863 1939 1943 1867 1864 1940 1944 1868
8 1864 1940 1944 1868 1865 1941 1945 1869
8 1865 1941 1945 1869 702 721 722 703
8 342 361 362 343 1866 1942 1946 1870
8 1866 1942 1946 1870 1867 1943 1947 1871
8 1867 1943 1947 1871 1868 1944 1948 1872
8 1868 1944 1948 1872 1869 1945 1949 1873
8 1869 1945 1949 1873 703 722 723 704
8 343 362 363 344 1870 1946 1950 1874
8 1870 1946 1950 1874 1871 1947 1951 1875
8 1871 1947 1951 1875 1872 1948 1952 1876
8 1872 1948 1952 1876 1873 1949 1953 1877
8 1873 1949 1953 1877 704 723 724 705
8 344 363 364 345 1874 1950 1954 1878
8 1874 1950 1954 1878 1875 1951 1955 1879
8 1875 1951 1955 1879 1876 1952 1956 1880
8 1876 1952 1956 1880 1877 1953 1957 1881
8 1877 1953 1957 1881 705 724 725 706
8 345 364 365 346 1878 1954 1958 1882
8 1878 1954 1958 1882 1879 1955 1959 1883
8 1879 1955 1959 1883 1880 1956 1960 1884
8 1880 1956 1960 1884 1881 1957 1961 1885
8 1881 1957 1961 1885 706 725 726 707
8 346 365 55 56 1882 1958 1086 1090
8 1882 1958 1086 1090 1883 1959 1087 1091
8 1883 1959 1087 1091 1884 1960 1088 1092
8 1884 1960 1088 1092 1885 1961 1089 1093
8 1885 1961 1089 1093 707 726 131 132
8 17 18 366 347 934 938 1962 1886
8 934 938 1962 1886 935 939 1963 1887
8 935 939 1963 1887 936 940 1964 1888
8 936 940 1964 1888 937 941 1965 1889
8 937 941 1965 1889 93 94 727 708
8 347 366 367 348 1886 1962 1966 1890
8 1886 1962 1966 1890 1887 1963 1967 1891
8 1887 1963 1967 1891 1888 1964 1968 1892
8 1888 1964 1968 1892 1889 1965 1969 1893
8 1889 1965 1969 1893 708 727 728 709
8 348 367 368 349 1890 1966 1970 1894
8 1890 1966 1970 1894 1891 1967 1971 1895
8 1891 1967 1971 1895 1892 1968 1972 1896
8 1892 1968 1972 1896 1893 1969 1973 1897
8 1893 1969 1973 1897 709 728 729 710
8 349 368 369 350 1894 1970 1974 1898
8 1894 1970 1974 1898 1895 1971 1975 1899
8 1895 1971 1975 1899 1896 1972 1976 1900
8 1896 1972 1976 1900 1897 1973 1977 1901
8 1897 1973 1977 1901 710 729 730 711
8 350 369 370 351 1898 1974 1978 1902
8 1898 1974 1978 1902 1899 1975 1979 1903
8 1899 1975 1979 1903 1900 1976 1980 1904
8 1900 1976 1980 1904 1901 1977 1981 1905
8 1901 1977 1981 1905 711 730 731 712
8 351 370 371 352 1902 1978 1982 1906
8 1902 1978 1982 1906 1903 1979 1983 1907
8 1903 1979 1983 1907 1904 1980 1984 1908
8 1904 1980 1984 1908 1905 1981 1985 1909
8 1905 1981 1985 1909 712 731 732 713
8 352 371 372 353 1906 1982 1986 1910
8 1906 1982 1986 1910 1907 1983 1987 1911
8 1907 1983 1987 1911 1908 1984 1988 1912
8 1908 1984 1988 1912 1909 1985 1989 1913
8 1909 1985 1989 1913 713 732 733 714
8 353 372 373 354 1910 1986 1990 1914
8 1910 1986 1990 1914 1911 1987 1991 1915
8 1911 1987 1991 1915 1912 1988 1992 1916
8 1912 1988 1992 1916 1913 1989 1993 1917
8 1913 1989 1993 1917 714 733 734 715
8 354 373 374 355 1914 1990 1994 1918
8 1914 1990 1994 1918 1915 1991 1995 1919
8 1915 1991 1995 1919 1916 1992 1996 1920
8 1916 1992 1996 1920 1917 1993 1997 1921
8 1917 1993 1997 1921 715 734 735 716
8 355 374 375 356 1918 1994 1998 1922
8 1918 1994 1998 1922 1919 1995 1999 1923
8 1919 1995 1999 1923 1920 1996 2000 1924
8 1920 1996 2000 1924 1921 1997 2001 1925
8 1921 1997 2001 1925 716 735 736 717
8 356 375 376 357 1922 1998 2002 1926
8 1922 1998 2002 1926 1923 1999 2003 1927
8 1923 1999 2003 1927 1924 2000 2004 1928
8 1924 2000 2004 1928 1925 2001 2005 1929
8 1925 2001 2005 1929 717 736 737 718
8 357 376 377 358 1926 2002 2006 1930
8 1926 2002 2006 1930 1927 2003 2007 1931
8 1927 2003 2007 1931 1928 2004 2008 1932
8 1928 2004 2008 1932 1929 2005 2009 1933
8 1929 2005 2009 1933 718 737 738 719
8 358 377 378 359 1930 2006 2010 1934
8 1930 2006 2010 1934 1931 2007 2011 1935
8 1931 2007 2011 1935 1932 2008 2012 1936
8 1932 2008 2012 1936 1933 2009 2013 1937
8 1933 2009 2013 1937 719 738 739 720
8 359 378 379 360 1934 2010 2014 1938
8 1934 2010 2014 1938 1935 2011 2015 1939
8 1935 2011 2015 1939 1936 2012 2016 1940
8 1936 2012 2016 1940 1937 2013 2017 1941
8 1937 2013 2017 1941 720 739 740 721
8 360 379 380 361 1938 2014 2018 1942
8 1938 2014 2018 1942 1939 2015 2019 1943
8 1939 2015 2019 1943 1940 2016 2020 1944
8 1940 2016 2020 1944 1941 2017 2021 1945
8 1941 2017 2021 1945 721 740 741 722
8 361 380 381 362 1942 2018 2022 1946
8 1942 2018 2022 1946 1943 2019 2023 1947
8 1943 2019 2023 1947 1944 2020 2024 1948
8 1944 2020 2024 1948 1945 2021 2025 1949
8 1945 2021 2025 1949 722 741 742 723
8 362 381 382 363 1946 2022 2026 1950
8 1946 2022 2026 1950 1947 2023 2027 1951
8 1947 2023 2027 1951 1948 2024 2028 1952
8 1948 2024 2028 1952 1949 2025 2029 1953
8 1949 2025 2029 1953 723 742 743 724
8 363 382 383 364 1950 2026 2030 1954
8 1950 2026 2030 1954 1951 2027 2031 1955
8 1951 2027 2031 1955 1952 2028 2032 1956
8 1952 2028 2032 1956 1953 2029 2033 1957
8 1953 2029 2033 1957 724 743 744 725
8 364 383 384 365 1954 2030 2034 1958
8 1954 2030 2034 1958 1955 2031 2035 1959
8 1955 2031 2035 1959 1956 2032 2036 1960
8 1956 2032 2036 1960 1957 2033 2037 1961
8 1957 2033 2037 1961 725 744 745 726
8 365 384 54 55 1958 2034 1082 1086
8 1958 2034 1082 1086 1959 2035 1083 1087
8 1959 2035 1083 1087 1960 2036 1084 1088
8 1960 2036 1084 1088 1961 2037 1085 1089
8 1961 2037 1085 1089 726 745 130 131
8 18 19 385 366 938 942 2038 1962
8 938 942 2038 1962 939 943 2039 1963
8 939 943 2039 1963 940 944 2040 1964
8 940 944 2040 1964 941 945 2041 1965
8 941 945 2041 1965 94 95 746 727
8 366 385 386 367 1962 2038 2042 1966
8 1962 2038 2042 1966 1963 2039 2043 1967
8 1963 2039 2043 1967 1964 2040 2044 1968
8 1964 2040 2044 1968 1965 2041 2045 1969
8 1965 2041 2045 1969 727 746 747 728
8 367 386 387 368 1966 2042 2046 1970
8 1966 2042 2046 1970 1967 2043 2047 1971
8 1967 2043 2047 1971 1968 2044 2048 1972
8 1968 2044 2048 1972 1969 2045 2049 1973
8 1969 2045 2049 1973 728 747 748 729
8 368 387 388 369 1970 2046 2050 1974
8 1970 2046 2050 1974 1971 2047 2051 1975
8 1971 2047 2051 1975 1972 2048 2052 1976
8 1972 2048 2052 1976 1973 2049 2053 1977
8 1973 2049 2053 1977 729 748 749 730
8 369 388 389 370 1974 2050 2054 1978
8 1974 2050 2054 1978 1975 2051 2055 1979
8 1975 2051 2055 1979 1976 2052 2056 1980
8 1976 2052 2056 1980 1977 2053 2057 1981
8 1977 2053 2057 1981 730 749 750 731
8 370 389 390 371 1978 2054 2058 1982
8 1978 2054 2058 1982 1979 2055 2059 1983
8 1979 2055 2059 1983 1980 2056 2060 1984
8 1980 2056 2060 1984 1981 2057 2061 1985
8 1981 2057 2061 1985 731 750 751 732
8 371 390 391 372 1982 2058 2062 1986
8 1982 2058 2062 1986 1983 2059 2063 1987
8 1983 2059 2063 1987 1984 2060 2064 1988
8 1984 2060 2064 1988 1985 2061 2065 1989
8 1985 2061 2065 1989 732 751 752 733
8 372 391 392 373 1986 2062 2066 1990
8 1986 2062 2066 1990 1987 2063 2067 1991
8 1987 2063 2067 1991 1988 2064 2068 1992
8 1988 2064 2068 1992 1989 2065 2069 1993
8 1989 2065 2069 1993 733 752 753 734
8 373 392 393 374 1990 2066 2070 1994
8 1990 2066 2070 1994 1991 2067 2071 1995
8 1991 2067 2071 1995 1992 2068 2072 1996
8 1992 2068 2072 1996 1993 2069 2073 1997
8 1993 2069 2073 1997 734 753 754 735
8 374 393 394 375 1994 2070 2074 1998
8 1994 2070 2074 1998 1995 2071 2075 1999
8 1995 2071 2075 1999 1996 2072 2076 2000
8 1996 2072 2076 2000 1997 2073 2077 2001
8 1997 2073 2077 2001 735 754 755 736
8 375 394 395 376 1998 2074 2078 2002
8 1998 2074 2078 2002 1999 2075 2079 2003
8 1999 2075 2079 2003 2000 2076 2080 2004
8 2000 2076 2080 2004 2001 2077 2081 2005
8 2001 2077 2081 2005 736 755 756 737
8 376 395 396 377 2002 2078 2082 2006
8 2002 2078 2082 2006 2003 2079 2083 2007
8 2003 2079 2083 2007 2004 2080 2084 2008
8 2004 2080 2084 2008 2005 2081 2085 2009
8 2005 2081 2085 2009 737 756 757 738
8 377 396 397 378 2006 2082 2086 2010
8 2006 2082 2086 2010 2007 2083 2087 2011
8 2007 2083 2087 2011 2008 2084 2088 2012
8 2008 2084 2088 2012 2009 2085 2089 2013
8 2009 2085 2089 2013 738 757 758 739
8 378 397 398 379 2010 2086 2090 2014
8 2010 2086 2090 2014 2011 2087 2091 2015
8 2011 2087 2091 2015 2012 2088 2092 2016
8 2012 2088 2092 2016 2013 2089 2093 2017
8 2013 2089 2093 2017 739 758 759 740
8 379 398 399 380 2014 2090 2094 2018
8 2014 2090 2094 2018 2015 2091 2095 2019
8 2015 2091 2095 2019 2016 2092 2096 2020
8 2016 2092 2096 2020 2017 2093 2097 2021
8 2017 2093 2097 2021 740 759 760 741
8 380 399 400 381 2018 2094 2098 2022
8 2018 2094 2098 2022 2019 2095 2099 2023
8 2019 2095 2099 2023 2020 2096 2100 2024
8 2020 2096 2100 2024 2021 2097 2101 2025
8 2021 2097 2101 2025 741 760 761 742
8 381 400 401 382 2022 2098 2102 2026
8 2022 2098 2102 2026 2023 2099 2103 2027
8 2023 2099 2103 2027 2024 2100 2104 2028
8 2024 2100 2104 2028 2025 2101 2105 2029
8 2025 2101 2105 2029 742 761 762 743
8 382 401 402 383 2026 2102 2106 2030
8 2026 2102 2106 2030 2027 2103 2107 2031
8 2027 2103 2107 2031 2028 2104 2108 2032
8 2028 2104 2108 2032 2029 2105 2109 2033
8 2029 2105 2109 2033 743 762 763 744
8 383 402 403 384 2030 2106 2110 2034
8 2030 2106 2110 2034 2031 2107 2111 2035
8 2031 2107 2111 2035 2032 2108 2112 2036
8 2032 2108 2112 2036 2033 2109 2113 2037
8 2033 2109 2113 2037 744 763 764 745
8 384 403 53 54 2034 2110 1078 1082
8 2034 2110 1078 1082 2035 2111 1079 1083
8 2035 2111 1079 1083 2036 2112 1080 1084
8 2036 2112 1080 1084 2037 2113 1081 1085
8 2037 2113 1081 1085 745 764 129 130
8 19 20 404 385 942 946 2114 2038
8 942 946 2114 2038 943 947 2115 2039
8 943 947 2115 2039 944 948 2116 2040
8 944 948 2116 2040 945 949 2117 2041
8 945 949 2117 2041 95 96 765 746
8 385 404 405 386 2038 2114 2118 2042
8 2038 2114 2118 2042 2039 2115 2119 2043
8 2039 2115 2119 2043 2040 2116 2120 2044
8 2040 2116 2120 2044 2041 2117 2121 2045
8 2041 2117 2121 2045 746 765 766 747
8 386 405 406 387 2042 2118 2122 2046
8 2042 2118 2122 2046 2043 2119 2123 2047
8 2043 2119 2123 2047 2044 2120 2124 2048
8 2044 2120 2124 2048 2045 2121 2125 2049
8 2045 2121 2125 2049 747 766 767 748
8 387 406 407 388 2046 2122 2126 2050
8 2046 2122 2126 2050 2047 2123 2127 2051
8 2047 2123 2127 2051 2048 2124 2128 2052
8 2048 2124 2128 2052 2049 2125 2129 2053
8 2049 2125 2129 2053 748 767 768 749
8 388 407 408 389 2050 2126 2130 2054
8 2050 2126 2130 2054 2051 2127 2131 2055
8 2051 2127 2131 2055 2052 2128 2132 2056
8 2052 2128 2132 2056 2053 2129 2133 2057
8 2053 2129 2133 2057 749 768 769 750
8 389 408 409 390 2054 2130 2134 2058
8 2054 2130 2134 2058 2055 2131 2135 2059
8 2055 2131 2135 2059 2056 2132 2136 2060
8 2056 2132 2136 2060 2057 2133 2137 2061
8 2057 2133 2137 2061 750 769 770 751
8 390 409 410 391 2058 2134 2138 2062
8 2058 2134 2138 2062 2059 2135 2139 2063
8 2059 2135 2139 2063 2060 2136 2140 2064
8 2060 2136 2140 2064 2061 2137 2141 2065
8 2061 2137 2141 2065 751 770 771 752
8 391 410 411 392 2062 2138 2142 2066
8 2062 2138 2142 2066 2063 2139 2143 2067
8 2063 2139 2143 2067 2064 2140 2144 2068
8 2064 2140 2144 2068 2065 2141 2145 2069
8 2065 2141 2145 2069 752 771 772 753
8 392 411 412 393 2066 2142 2146 2070
8 2066 2142 2146 2070 2067 2143 2147 2071
8 2067 2143 2147 2071 2068 2144 2148 2072
8 2068 2144 2148 2072 2069 2145 2149 2073
8 2069 2145 2149 2073 753 772 773 754
8 393 412 413 394 2070 2146 2150 2074
8 2070 2146 2150 2074 2071 2147 2151 2075
8 2071 2147 2151 2075 2072 2148 2152 2076
8 2072 2148 2152 2076 2073 2149 2153 2077
8 2073 2149 2153 2077 754 773 774 755
8 394 413 414 395 2074 2150 2154 2078
8 2074 2150 2154 2078 2075 2151 2155 2079
8 2075 2151 2155 2079 2076 2152 2156 2080
8 2076 2152 2156 2080 2077 2153 2157 2081
8 2077 2153 2157 2081 755 774 775 756
8 395 414 415 396 2078 2154 2158 2082
8 2078 2154 2158 2082 2079 2155 2159 2083
8 2079 2155 2159 2083 2080 2156 2160 2084
8 2080 2156 2160 2084 2081 2157 2161 2085
8 2081 2157 2161 2085 756 775 776 757
8 396 415 416 397 2082 2158 2162 2086
8 2082 2158 2162 2086 2083 2159 2163 2087
8 2083 2159 2163 2087 2084 2160 2164 2088
8 2084 2160 2164 2088 2085 2161 2165 2089
8 2085 2161 2165 2089 757 776 777 758
8 397 416 417 398 2086 2162 2166 2090
8 2086 2162 2166 2090 2087 2163 2167 2091
8 2087 2163 2167 2091 2088 2164 2168 2092
8 2088 2164 2168 2092 2089 2165 2169 2093
8 2089 2165 2169 2093 758 777 778 759
8 398 417 418 399 2090 2166 2170 2094
8 2090 2166 2170 2094 2091 2167 2171 2095
8 2091 2167 2171 2095 2092 2168 2172 2096
8 2092 2168 2172 2096 2093 2169 2173 2097
8 2093 2169 2173 2097 759 778 779 760
8 399 418 419 400 2094 2170 2174 2098
8 2094 2170 2174 2098 2095 2171 2175 2099
8 2095 2171 2175 2099 2096 2172 2176 2100
8 2096 2172 2176 2100 2097 2173 2177 2101
8 2097 2173 2177 2101 760 779 780 761
8 400 419 420 401 2098 2174 2178 2102
8 2098 2174 2178 2102 2099 2175 2179 2103
8 2099 2175 2179 2103 2100 2176 2180 2104
8 2100 2176 2180 2104 2101 2177 2181 2105
8 2101 2177 2181 2105 761 780 781 762
8 401 420 421 402 2102 2178 2182 2106
8 2102 2178 2182 2106 2103 2179 2183 2107
8 2103 2179 2183 2107 2104 2180 2184 2108
8 2104 2180 2184 2108 2105 2181 2185 2109
8 2105 2181 2185 2109 762 781 782 763
8 402 421 422 403 2106 2182 2186 2110
8 2106 2182 2186 2110 2107 2183 2187 2111
8 2107 2183 2187 2111 2108 2184 2188 2112
8 2108 2184 2188 2112 2109 2185 2189 2113
8 2109 2185 2189 2113 763 782 783 764
8 403 422 52 53 2110 2186 1074 1078
8 2110 2186 1074 1078 2111 2187 1075 1079
8 2111 2187 1075 1079 2112 2188 1076 1080
8 2112 2188 1076 1080 2113 2189 1077 1081
8 2113 2189 1077 1081 764 783 128 129
8 20 21 423 404 946 950 2190 2114
8 946 950 2190 2114 947 951 2191 2115
8 947 951 2191 2115 948 952 2192 2116
8 948 952 2192 2116 949 953 2193 2117
8 949 953 2193 2117 96 97 784 765
8 404 423 424 405 2114 2190 2194 2118
8 2114 2190 2194 2118 2115 2191 2195 2119
8 2115 2191 2195 2119 2116 2192 2196 2120
8 2116 2192 2196 2120 2117 2193 2197 2121
8 2117 2193 2197 2121 765 784 785 766
8 405 424 425 406 2118 2194 2198 2122
8 2118 2194 2198 2122 2119 2195 2199 2123
8 2119 2195 2199 2123 2120 2196 2200 2124
8 2120 2196 2200 2124 2121 2197 2201 2125
8 2121 2197 2201 2125 766 785 786 767
8 406 425 426 407 2122 2198 2202 2126
8 2122 2198 2202 2126 2123 2199 2203 2127
8 2123 2199 2203 2127 2124 2200 2204 2128
8 2124 2200 2204 2128 2125 2201 2205 2129
8 2125 2201 2205 2129 767 786 787 768
8 407 426 427 408 2126 2202 2206 2130
8 2126 2202 2206 2130 2127 2203 2207 2131
8 2127 2203 2207 2131 2128 2204 2208 2132
8 2128 2204 2208 2132 2129 2205 2209 2133
8 2129 2205 2209 2133 768 787 788 769
8 408 427 428 409 2130 2206 2210 2134
8 2130 2206 2210 2134 2131 2207 2211 2135
8 2131 2207 2211 2135 2132 2208 2212 2136
8 2132 2208 2212 2136 2133 2209 2213 2137
8 2133 2209 2213 2137 769 788 789 770
8 409 428 429 410 2134 2210 2214 2138
8 2134 2210 2214 2138 2135 2211 2215 2139
8 2135 2211 2215 2139 2136 2212 2216 2140
8 2136 2212 2216 2140 2137 2213 2217 2141
8 2137 2213 2217 2141 770 789 790 771
8 410 429 430 411 2138 2214 2218 2142
8 2138 2214 2218 2142 2139 2215 2219 2143
8 2139 2215 2219 2143 2140 2216 2220 2144
8 2140 2216 2220 2144 2141 2217 2221 2145
8 2141 2217 2221 2145 771 790 791 772
8 411 430 431 412 2142 2218 2222 2146
8 2142 2218 2222 2146 2143 2219 2223 2147
8 2143 2219 2223 2147 2144 2220 2224 2148
8 2144 2220 2224 2148 2145 2221 2225 2149
8 2145 2221 2225 2149 772 791 792 773
8 412 431 432 413 2146 2222 2226 2150
8 2146 2222 2226 2150 2147 2223 2227 2151
8 2147 2223 2227 2151 2148 2224 2228 2152
8 2148 2224 2228 2152 2149 2225 2229 2153
8 2149 2225 2229 2153 773 792 793 774
8 413 432 433 414 2150 2226 2230 2154
8 2150 2226 2230 2154 2151 2227 2231 2155
8 2151 2227 2231 2155 2152 2228 2232 2156
8 2152 2228 2232 2156 2153 2229 2233 2157
8 2153 2229 2233 2157 774 793 794 775
8 414 433 434 415 2154 2230 2234 2158
8 2154 2230 2234 2158 2155 2231 2235 2159
8 2155 2231 2235 2159 2156 2232 2236 2160
8 2156 2232 2236 2160 2157 2233 2237 2161
8 2157 2233 2237 2161 775 794 795 776
8 415 434 435 416 2158 2234 2238 2162
8 2158 2234 2238 2162 2159 2235 2239 2163
8 2159 2235 2239 2163 2160 2236 2240 2164
8 2160 2236 2240 2164 2161 2237 2241 2165
8 2161 2237 2241 2165 776 795 796 777
8 416 435 436 417 2162 2238 2242 2166
8 2162 2238 2242 2166 2163 2239 2243 2167
8 2163 2239 2243 2167 2164 2240 2244 2168
8 2164 2240 2244 2168 2165 2241 2245 2169
8 2165 2241 2245 2169 777 796 797 778
8 417 436 437 418 2166 2242 2246 2170
8 2166 2242 2246 2170 2167 2243 2247 2171
8 2167 2243 2247 2171 2168 2244 2248 2172
8 2168 2244 2248 2172 2169 2245 2249 2173
8 2169 2245 2249 2173 778 797 798 779
8 418 437 438 419 2170 2246 2250 2174
8 2170 2246 2250 2174 2171 2247 2251 2175
8 2171 2247 2251 2175 2172 2248 2252 2176
8 2172 2248 2252 2176 2173 2249 2253 2177
8 2173 2249 2253 2177 779 798 799 780
8 419 438 439 420 2174 2250 2254 2178
8 2174 2250 2254 2178 2175 2251 2255 2179
8 2175 2251 2255 2179 2176 2252 2256 2180
8 2176 2252 2256 2180 2177 2253 2257 2181
8 2177 2253 2257 2181 780 799 800 781
8 420 439 440 421 2178 2254 2258 2182
8 2178 2254 2258 2182 2179 2255 2259 2183
8 2179 2255 2259 2183 2180 2256 2260 2184
8 2180 2256 2260 2184 2181 2257 2261 2185
8 2181 2257 2261 2185 781 800 801 782
8 421 440 441 422 2182 2258 2262 2186
8 2182 2258 2262 2186 2183 2259 2263 2187
8 2183 2259 2263 2187 2184 2260 2264 2188
8 2184 2260 2264 2188 2185 2261 2265 2189
8 2185 2261 2265 2189 782 801 802 783
8 422 441 51 52 2186 2262 1070 1074
8 2186 2262 1070 1074 2187 2263 1071 1075
8 2187 2263 1071 1075 2188 2264 1072 1076
8 2188 2264 1072 1076 2189 2265 1073 1077
8 2189 2265 1073 1077 783 802 127 128
8 21 22 442 423 950 954 2266 2190
8 950 954 2266 2190 951 955 2267 2191
8 951 955 2267 2191 952 956 2268 2192
8 952 956 2268 2192 953 957 2269 2193
8 953 957 2269 2193 97 98 803 784
8 423 442 443 424 2190 2266 2270 2194
8 2190 2266 2270 2194 2191 2267 2271 2195
8 2191 2267 2271 2195 2192 2268 2272 2196
8 2192 2268 2272 2196 2193 2269 2273 2197
8 2193 2269 2273 2197 784 803 804 785
8 424 443 444 425 2194 2270 2274 2198
8 2194 2270 2274 2198 2195 2271 2275 2199
8 2195 2271 2275 2199 2196 2272 2276 2200
8 2196 2272 2276 2200 2197 2273 2277 2201
8 2197 2273 2277 2201 785 804 805 786
8 425 444 445 426 2198 2274 2278 2202
8 2198 2274 2278 2202 2199 2275 2279 2203
8 2199 2275 2279 2203 2200 2276 2280 2204
8 2200 2276 2280 2204 2201 2277 2281 2205
8 2201 2277 2281 2205 786 805 806 787
8 426 445 446 427 2202 2278 2282 2206
8 2202 2278 2282 2206 2203 2279 2283 2207
8 2203 2279 2283 2207 2204 2280 2284 2208
8 2204 2280 2284 2208 2205 2281 2285 2209
8 2205 2281 2285 2209 787 806 807 788
8 427 446 447 428 2206 2282 2286 2210
8 2206 2282 2286 2210 2207 2283 2287 2211
8 2207 2283 2287 2211 2208 2284 2288 2212
8 2208 2284 2288 2212 2209 2285 2289 2213
8 2209 2285 2289 2213 788 807 808 789
8 428 447 448 429 2210 2286 2290 2214
8 2210 2286 2290 2214 2211 2287 2291 2215
8 2211 2287 2291 2215 2212 2288 2292 2216
8 2212 2288 2292 2216 2213 2289 2293 2217
8 2213 2289 2293 2217 789 808 809 790
8 429 448 449 430 2214 2290 2294 2218
8 2214 2290 2294 2218 2215 2291 2295 2219
8 2215 2291 2295 2219 2216 2292 2296 2220
8 2216 2292 2296 2220 2217 2293 2297 2221
8 2217 2293 2297 2221 790 809 810 791
8 430 449 450 431 2218 2294 2298 2222
8 2218 2294 2298 2222 2219 2295 2299 2223
8 2219 2295 2299 2223 2220 2296 2300 2224
8 2220 2296 2300 2224 2221 2297 2301 2225
8 2221 2297 2301 2225 791 810 811 792
8 431 450 451 432 2222 2298 2302 2226
8 2222 2298 2302 2226 2223 2299 2303 2227
8 2223 2299 2303 2227 2224 2300 2304 2228
8 2224 2300 2304 2228 2225 2301 2305 2229
8 2225 2301 2305 2229 792 811 812 793
8 432 451 452 433 2226 2302 2306 2230
8 2226 2302 2306 2230 2227 2303 2307 2231
8 2227 2303 2307 2231 2228 2304 2308 2232
8 2228 2304 2308 2232 2229 2305 2309 2233
8 2229 2305 2309 2233 793 812 813 794
8 433 452 453 434 2230 2306 2310 2234
8 2230 2306 2310 2234 2231 2307 2311 2235
8 2231 2307 2311 2235 2232 2308 2312 2236
8 2232 2308 2312 2236 2233 2309 2313 2237
8 2233 2309 2313 2237 794 813 814 795
8 434 453 454 435 2234 2310 2314 2238
8 2234 2310 2314 2238 2235 2311 2315 2239
8 2235 2311 2315 2239 2236 2312 2316 2240
8 2236 2312 2316 2240 2237 2313 2317 2241
8 2237 2313 2317 2241 795 814 815 796
8 435 454 455 436 2238 2314 2318 2242
8 2238 2314 2318 2242 2239 2315 2319 2243
8 2239 2315 2319 2243 2240 2316 2320 2244
8 2240 2316 2320 2244 2241 2317 2321 2245
8 2241 2317 2321 2245 796 815 816 797
8 436 455 456 437 2242 2318 2322 2246
8 2242 2318 2322 2246 2243 2319 2323 2247
8 2243 2319 2323 2247 2244 2320 2324 2248
8 2244 2320 2324 2248 2245 2321 2325 2249
8 2245 2321 2325 2249 797 816 817 798
8 437 456 457 438 2246 2322 2326 2250
8 2246 2322 2326 2250 2247 2323 2327 2251
8 2247 2323 2327 2251 2248 2324 2328 2252
8 2248 2324 2328 2252 2249 2325 2329 2253
8 2249 2325 2329 2253 798 817 818 799
8 438 457 458 439 2250 2326 2330 2254
8 2250 2326 2330 2254 2251 2327 2331 2255
8 2251 2327 2331 2255 2252 2328 2332 2256
8 2252 2328 2332 2256 2253 2329 2333 2257
8 2253 2329 2333 2257 799 818 819 800
8 439 458 459 440 2254 2330 2334 2258
8 2254 2330 2334 2258 2255 2331 2335 2259
8 2255 2331 2335 2259 2256 2332 2336 2260
8 2256 2332 2336 2260 2257 2333 2337 2261
8 2257 2333 2337 2261 800 819 820 801
8 440 459 460 441 2258 2334 2338 2262
8 2258 2334 2338 2262 2259 2335 2339 2263
8 2259 2335 2339 2263 2260 2336 2340 2264
8 2260 2336 2340 2264 2261 2337 2341 2265
8 2261 2337 2341 2265 801 820 821 802
8 441 460 50 51 2262 2338 1066 1070
8 2262 2338 1066 1070 2263 2339 1067 1071
8 2263 2339 1067 1071 2264 2340 1068 1072
8 2264 2340 1068 1072 2265 2341 1069 1073
8 2265 2341 1069 1073 802 821 126 127
8 22 23 461 442 954 958 2342 2266
8 954 958 2342 2266 955 959 2343 2267
8 955 959 2343 2267 956 960 2344 2268
8 956 960 2344 2268 957 961 2345 2269
8 957 961 2345 2269 98 99 822 803
8 442 461 462 443 2266 2342 2346 2270
8 2266 2342 2346 2270 2267 2343 2347 2271
8 2267 2343 2347 2271 2268 2344 2348 2272
8 2268 2344 2348 2272 2269 2345 2349 2273
8 2269 2345 2349 2273 803 822 823 804
8 443 462 463 444 2270 2346 2350 2274
8 2270 2346 2350 2274 2271 2347 2351 2275
8 2271 2347 2351 2275 2272 2348 2352 2276
8 2272 2348 2352 2276 2273 2349 2353 2277
8 2273 2349 2353 2277 804 823 824 805
8 444 463 464 445 2274 2350 2354 2278
8 2274 2350 2354 2278 2275 2351 2355 2279
8 2275 2351 2355 2279 2276 2352 2356 2280
8 2276 2352 2356 2280 2277 2353 2357 2281
8 2277 2353 2357 2281 805 824 825 806
8 445 464 465 446 2278 2354 2358 2282
8 2278 2354 2358 2282 2279 2355 2359 2283
8 2279 2355 2359 2283 2280 2356 2360 2284
8 2280 2356 2360 2284 2281 2357 2361 2285
8 2281 2357 2361 2285 806 825 826 807
8 446 465 466 447 2282 2358 2362 2286
8 2282 2358 2362 2286 2283 2359 2363 2287
8 2283 2359 2363 2287 2284 2360 2364 2288
8 2284 2360 2364 2288 2285 2361 2365 2289
8 2285 2361 2365 2289 807 826 827 808
8 447 466 467 448 2286 2362 2366 2290
8 2286 2362 2366 2290 2287 2363 2367 2291
8 2287 2363 2367 2291 2288 2364 2368 2292
8 2288 2364 2368 2292 2289 2365 2369 2293
8 2289 2365 2369 2293 808 827 828 809
8 448 467 468 449 2290 2366 2370 2294
8 2290 2366 2370 2294 2291 2367 2371 2295
8 2291 2367 2371 2295 2292 2368 2372 2296
8 2292 2368 2372 2296 2293 2369 2373 2297
8 2293 2369 2373 2297 809 828 829 810
8 449 468 469 450 2294 2370 2374 2298
8 2294 2370 2374 2298 2295 2371 2375 2299
8 2295 2371 2375 2299 2296 2372 2376 2300
8 2296 2372 2376 2300 2297 2373 2377 2301
8 2297 2373 2377 2301 810 829 830 811
8 450 469 470 451 2298 2374 2378 2302
8 2298 2374 2378 2302 2299 2375 2379 2303
8 2299 2375 2379 2303 2300 2376 2380 2304
8 2300 2376 2380 2304 2301 2377 2381 2305
8 2301 2377 2381 2305 811 830 831 812
8 451 470 471 452 2302 2378 2382 2306
8 2302 2378 2382 2306 2303 2379 2383 2307
8 2303 2379 2383 2307 2304 2380 2384 2308
8 2304 2380 2384 2308 2305 2381 2385 2309
8 2305 2381 2385 2309 812 831 832 813
8 452 471 472 453 2306 2382 2386 2310
8 2306 2382 2386 2310 2307 2383 2387 2311
8 2307 2383 2387 2311 2308 2384 2388 2312
8 2308 2384 2388 2312 2309 2385 2389 2313
8 2309 2385 2389 2313 813 832 833 814
8 453 472 473 454 2310 2386 2390 2314
8 2310 2386 2390 2314 2311 2387 2391 2315
8 2311 2387 2391 2315 2312 2388 2392 2316
8 2312 2388 2392 2316 2313 2389 2393 2317
8 2313 2389 2393 2317 814 833 834 815
8 454 473 474 455 2314 2390 2394 2318
8 2314 2390 2394 2318 2315 2391 2395 2319
8 2315 2391 2395 2319 2316 2392 2396 2320
8 2316 2392 2396 2320 2317 2393 2397 2321
8 2317 2393 2397 2321 815 834 835 816
8 455 474 475 456 2318 2394 2398 2322
8 2318 2394 2398 2322 2319 2395 2399 2323
8 2319 2395 2399 2323 2320 2396 2400 2324
8 2320 2396 2400 2324 2321 2397 2401 2325
8 2321 2397 2401 2325 816 835 836 817
8 456 475 476 457 2322 2398 2402 2326
8 2322 2398 2402 2326 2323 2399 2403 2327
8 2323 2399 2403 2327 2324 2400 2404 2328
8 2324 2400 2404 2328 2325 2401 2405 2329
8 2325 2401 2405 2329 817 836 837 818
8 457 476 477 458 2326 2402 2406 2330
8 2326 2402 2406 2330 2327 2403 2407 2331
8 2327 2403 2407 2331 2328 2404 2408 2332
8 2328 2404 2408 2332 2329 2405 2409 2333
8 2329 2405 2409 2333 818 837 838 819
8 458 477 478 459 2330 2406 2410 2334
8 2330 2406 2410 2334 2331 2407 2411 2335
8 2331 2407 2411 2335 2332 2408 2412 2336
8 2332 2408 2412 2336 2333 2409 2413 2337
8 2333 2409 2413 2337 819 838 839 820
8 459 478 479 460 2334 2410 2414 2338
8 2334 2410 2414 2338 2335 2411 2415 2339
8 2335 2411 2415 2339 2336 2412 2416 2340
8 2336 2412 2416 2340 2337 2413 2417 2341
8 2337 2413 2417 2341 820 839 840 821
8 460 479 49 50 2338 2414 1062 1066
8 2338 2414 1062 1066 2339 2415 1063 1067
8 2339 2415 1063 1067 2340 2416 1064 1068
8 2340 2416 1064 1068 2341 2417 1065 1069
8 2341 2417 1065 1069 821 840 125 126
8 23 24 480 461 958 962 2418 2342
8 958 962 2418 2342 959 963 2419 2343
8 959 963 2419 2343 960 964 2420 2344
8 960 964 2420 2344 961 965 2421 2345
8 961 965 2421 2345 99 100 841 822
8 461 480 481 462 2342 2418 2422 2346
8 2342 2418 2422 2346 2343 2419 2423 2347
8 2343 2419 2423 2347 2344 2420 2424 2348
8 2344 2420 2424 2348 2345 2421 2425 2349
8 2345 2421 2425 2349 822 841 842 823
8 462 481 482 463 2346 2422 2426 2350
8 2346 2422 2426 2350 2347 2423 2427 2351
8 2347 2423 2427 2351 2348 2424 2428 2352
8 2348 2424 2428 2352 2349 2425 2429 2353
8 2349 2425 2429 2353 823 842 843 824
8 463 482 483 464 2350 2426 2430 2354
8 2350 2426 2430 2354 2351 2427 2431 2355
8 2351 2427 2431 2355 2352 2428 2432 2356
8 2352 2428 2432 2356 2353 2429 2433 2357
8 2353 2429 2433 2357 824 843 844 825
8 464 483 484 465 2354 2430 2434 2358
8 2354 2430 2434 2358 2355 2431 2435 2359
8 2355 2431 2435 2359 2356 2432 2436 2360
8 2356 2432 2436 2360 2357 2433 2437 2361
8 2357 2433 2437 2361 825 844 845 826
8 465 484 485 466 2358 2434 2438 2362
8 2358 2434 2438 2362 2359 2435 2439 2363
8 2359 2435 2439 2363 2360 2436 2440 2364
8 2360 2436 2440 2364 2361 2437 2441 2365
8 2361 2437 2441 2365 826 845 846 827
8 466 485 486 467 2362 2438 2442 2366
8 2362 2438 2442 2366 2363 2439 2443 2367
8 2363 2439 2443 2367 2364 2440 2444 2368
8 2364 2440 2444 2368 2365 2441 2445 2369
8 2365 2441 2445 2369 827 846 847 828
8 467 486 487 468 2366 2442 2446 2370
8 2366 2442 2446 2370 2367 2443 2447 2371
8 2367 2443 2447 2371 2368 2444 2448 2372
8 2368 2444 2448 2372 2369 2445 2449 2373
8 2369 2445 2449 2373 828 847 848 829
8 468 487 488 469 2370 2446 2450 2374
8 2370 2446 2450 2374 2371 2447 2451 2375
8 2371 2447 2451 2375 2372 2448 2452 2376
8 2372 2448 2452 2376 2373 2449 2453 2377
8 2373 2449 2453 2377 829 848 849 830
8 469 488 489 470 2374 2450 2454 2378
8 2374 2450 2454 2378 2375 2451 2455 2379
8 2375 2451 2455 2379 2376 2452 2456 2380
8 2376 2452 2456 2380 2377 2453 2457 2381
8 2377 2453 2457 2381 830 849 850 831
8 470 489 490 471 2378 2454 2458 2382
8 2378 2454 2458 2382 2379 2455 2459 2383
8 2379 2455 2459 2383 2380 2456 2460 2384
8 2380 2456 2460 2384 2381 2457 2461 2385
8 2381 2457 2461 2385 831 850 851 832
8 471 490 491 472 2382 2458 2462 2386
8 2382 2458 2462 2386 2383 2459 2463 2387
8 2383 2459 2463 2387 2384 2460 2464 2388
8 2384 2460 2464 2388 2385 2461 2465 2389
8 2385 2461 2465 2389 832 851 852 833
8 472 491 492 473 2386 2462 2466 2390
8 2386 2462 2466 2390 2387 2463 2467 2391
8 2387 2463 2467 2391 2388 2464 2468 2392
8 2388 2464 2468 2392 2389 2465 2469 2393
8 2389 2465 2469 2393 833 852 853 834
8 473 492 493 474 2390 2466 2470 2394
8 2390 2466 2470 2394 2391 2467 2471 2395
8 2391 2467 2471 2395 2392 2468 2472 2396
8 2392 2468 2472 2396 2393 2469 2473 2397
8 2393 2469 2473 2397 834 853 854 835
8 474 493 494 475 2394 2470 2474 2398
8 2394 2470 2474 2398 2395 2471 2475 2399
8 2395 2471 2475 2399 2396 2472 2476 2400
8 2396 2472 2476 2400 2397 2473 2477 2401
8 2397 2473 2477 2401 835 854 855 836
8 475 494 495 476 2398 2474 2478 2402
8 2398 2474 2478 2402 2399 2475 2479 2403
8 2399 2475 2479 2403 2400 2476 2480 2404
8 2400 2476 2480 2404 2401 2477 2481 2405
8 2401 2477 2481 2405 836 855 856 837
8 476 495 496 477 2402 2478 2482 2406
8 2402 2478 2482 2406 2403 2479 2483 2407
8 2403 2479 2483 2407 2404 2480 2484 2408
8 2404 2480 2484 2408 2405 2481 2485 2409
8 2405 2481 2485 2409 837 856 857 838
8 477 496 497 478 2406 2482 2486 2410
8 2406 2482 2486 2410 2407 2483 2487 2411
8 2407 2483 2487 2411 2408 2484 2488 2412
8 2408 2484 2488 2412 2409 2485 2489 2413
8 2409 2485 2489 2413 838 857 858 839
8 478 497 498 479 2410 2486 2490 2414
8 2410 2486 2490 2414 2411 2487 2491 2415
8 2411 2487 2491 2415 2412 2488 2492 2416
8 2412 2488 2492 2416 2413 2489 2493 2417
8 2413 2489 2493 2417 839 858 859 840
8 479 498 48 49 2414 2490 1058 1062
8 2414 2490 1058 1062 2415 2491 1059 1063
8 2415 2491 1059 1063 2416 2492 1060 1064
8 2416 2492 1060 1064 2417 2493 1061 1065
8 2417 2493 1061 1065 840 859 124 125
8 24 25 499 480 962 966 2494 2418
8 962 966 2494 2418 963 967 2495 2419
8 963 967 2495 2419 964 968 2496 2420
8 964 968 2496 2420 965 969 2497 2421
8 965 969 2497 2421 100 101 860 841
8 480 499 500 481 2418 2494 2498 2422
8 2418 2494 2498 2422 2419 2495 2499 2423
8 2419 2495 2499 2423 2420 2496 2500 2424
8 2420 2496 2500 2424 2421 2497 2501 2425
8 2421 2497 2501 2425 841 860 861 842
8 481 500 501 482 2422 2498 2502 2426
8 2422 2498 2502 2426 2423 2499 2503 2427
8 2423 2499 2503 2427 2424 2500 2504 2428
8 2424 2500 2504 2428 2425 2501 2505 2429
8 2425 2501 2505 2429 842 861 862 843
8 482 501 502 483 2426 2502 2506 2430
8 2426 2502 2506 2430 2427 2503 2507 2431
8 2427 2503 2507 2431 2428 2504 2508 2432
8 2428 2504 2508 2432 2429 2505 2509 2433
8 2429 2505 2509 2433 843 862 863 844
8 483 502 503 484 2430 2506 2510 2434
8 2430 2506 2510 2434 2431 2507 2511 2435
8 2431 2507 2511 2435 2432 2508 2512 2436
8 2432 2508 2512 2436 2433 2509 2513 2437
8 2433 2509 2513 2437 844 863 864 845
8 484 503 504 485 2434 2510 2514 2438
8 2434 2510 2514 2438 2435 2511 2515 2439
8 2435 2511 2515 2439 2436 2512 2516 2440
8 2436 2512 2516 2440 2437 2513 2517 2441
8 2437 2513 2517 2441 845 864 865 846
8 485 504 505 486 2438 2514 2518 2442
8 2438 2514 2518 2442 2439 2515 2519 2443
8 2439 2515 2519 2443 2440 2516 2520 2444
8 2440 2516 2520 2444 2441 2517 2521 2445
8 2441 2517 2521 2445 846 865 866 847
8 486 505 506 487 2442 2518 2522 2446
8 2442 2518 2522 2446 2443 2519 2523 2447
8 2443 2519 2523 2447 2444 2520 2524 2448
8 2444 2520 2524 2448 2445 2521 2525 2449
8 2445 2521 2525 2449 847 866 867 848
8 487 506 507 488 2446 2522 2526 2450
8 2446 2522 2526 2450 2447 2523 2527 2451
8 2447 2523 2527 2451 2448 2524 2528 2452
8 2448 2524 2528 2452 2449 2525 2529 2453
8 2449 2525 2529 2453 848 867 868 849
8 488 507 508 489 2450 2526 2530 2454
8 2450 2526 2530 2454 2451 2527 2531 2455
8 2451 2527 2531 2455 2452 2528 2532 2456
8 2452 2528 2532 2456 2453 2529 2533 2457
8 2453 2529 2533 2457 849 868 869 850
8 489 508 509 490 2454 2530 2534 2458
8 2454 2530 2534 2458 2455 2531 2535 2459
8 2455 2531 2535 2459 2456 2532 2536 2460
8 2456 2532 2536 2460 2457 2533 2537 2461
8 2457 2533 2537 2461 850 869 870 851
8 490 509 510 491 2458 2534 2538 2462
8 2458 2534 2538 2462 2459 2535 2539 2463
8 2459 2535 2539 2463 2460 2536 2540 2464
8 2460 2536 2540 2464 2461 2537 2541 2465
8 2461 2537 2541 2465 851 870 871 852
8 491 510 511 492 2462 2538 2542 2466
8 2462 2538 2542 2466 2463 2539 2543 2467
8 2463 2539 2543 2467 2464 2540 2544 2468
8 2464 2540 2544 2468 2465 2541 2545 2469
8 2465 2541 2545 2469 852 871 872 853
8 492 511 512 493 2466 2542 2546 2470
8 2466 2542 2546 2470 2467 2543 2547 2471
8 2467 2543 2547 2471 2468 2544 2548 2472
8 2468 2544 2548 2472 2469 2545 2549 2473
8 2469 2545 2549 2473 853 872 873 854
8 493 512 513 494 2470 2546 2550 2474
8 2470 2546 2550 2474 2471 2547 2551 2475
8 2471 2547 2551 2475 2472 2548 2552 2476
8 2472 2548 2552 2476 2473 2549 2553 2477
8 2473 2549 2553 2477 854 873 874 855
8 494 513 514 495 2474 2550 2554 2478
8 2474 2550 2554 2478 2475 2551 2555 2479
8 2475 2551 2555 2479 2476 2552 2556 2480
8 2476 2552 2556 2480 2477 2553 2557 2481
8 2477 2553 2557 2481 855 874 875 856
8 495 514 515 496 2478 2554 2558 2482
8 2478 2554 2558 2482 2479 2555 2559 2483
8 2479 2555 2559 2483 2480 2556 2560 2484
8 2480 2556 2560 2484 2481 2557 2561 2485
8 2481 2557 2561 2485 856 875 876 857
8 496 515 516 497 2482 2558 2562 2486
8 2482 2558 2562 2486 2483 2559 2563 2487
8 2483 2559 2563 2487 2484 2560 2564 2488
8 2484 2560 2564 2488 2485 2561 2565 2489
8 2485 2561 2565 2489 857 876 877 858
8 497 516 517 498 2486 2562 2566 2490
8 2486 2562 2566 2490 2487 2563 2567 2491
8 2487 2563 2567 2491 2488 2564 2568 2492
8 2488 2564 2568 2492 2489 2565 2569 2493
8 2489 2565 2569 2493 858 877 878 859
8 498 517 47 48 2490 2566 1054 1058
8 2490 2566 1054 1058 2491 2567 1055 1059
8 2491 2567 1055 1059 2492 2568 1056 1060
8 2492 2568 1056 1060 2493 2569 1057 1061
8 2493 2569 1057 1061 859 878 123 124
8 25 26 518 499 966 970 2570 2494
8 966 970 2570 2494 967 971 2571 2495
8 967 971 2571 2495 968 972 2572 2496
8 968 972 2572 2496 969 973 2573 2497
8 969 973 2573 2497 101 102 879 860
8 499 518 519 500 2494 2570 2574 2498
8 2494 2570 2574 2498 2495 2571 2575 2499
8 2495 2571 2575 2499 2496 2572 2576 2500
8 2496 2572 2576 2500 2497 2573 2577 2501
8 2497 2573 2577 2501 860 879 880 861
8 500 519 520 501 2498 2574 2578 2502
8 2498 2574 2578 2502 2499 2575 2579 2503
8 2499 2575 2579 2503 2500 2576 2580 2504
8 2500 2576 2580 2504 2501 2577 2581 2505
8 2501 2577 2581 2505 861 880 881 862
8 501 520 521 502 2502 2578 2582 2506
8 2502 2578 2582 2506 2503 2579 2583 2507
8 2503 2579 2583 2507 2504 2580 2584 2508
8 2504 2580 2584 2508 2505 2581 2585 2509
8 2505 2581 2585 2509 862 881 882 863
8 502 521 522 503 2506 2582 2586 2510
8 2506 2582 2586 2510 2507 2583 2587 2511
8 2507 2583 2587 2511 2508 2584 2588 2512
8 2508 2584 2588 2512 2509 2585 2589 2513
8 2509 2585 2589 2513 863 882 883 864
8 503 522 523 504 2510 2586 2590 2514
8 2510 2586 2590 2514 2511 2587 2591 2515
8 2511 2587 2591 2515 2512 2588 2592 2516
8 2512 2588 2592 2516 2513 2589 2593 2517
8 2513 2589 2593 2517 864 883 884 865
8 504 523 524 505 2514 2590 2594 2518
8 2514 2590 2594 2518 2515 2591 2595 2519
8 2515 2591 2595 2519 2516 2592 2596 2520
8 2516 2592 2596 2520 2517 2593 2597 2521
8 2517 2593 2597 2521 865 884 885 866
8 505 524 525 506 2518 2594 2598 2522
8 2518 2594 2598 2522 2519 2595 2599 2523
8 2519 2595 2599 2523 2520 2596 2600 2524
8 2520 2596 2600 2524 2521 2597 2601 2525
8 2521 2597 2601 2525 866 885 886 867
8 506 525 526 507 2522 2598 2602 2526
8 2522 2598 2602 2526 2523 2599 2603 2527
8 2523 2599 2603 2527 2524 2600 2604 2528
8 2524 2600 2604 2528 2525 2601 2605 2529
8 2525 2601 2605 2529 867 886 887 868
8 507 526 527 508 2526 2602 2606 2530
8 2526 2602 2606 2530 2527 2603 2607 2531
8 2527 2603 2607 2531 2528 2604 2608 2532
8 2528 2604 2608 2532 2529 2605 2609 2533
8 2529 2605 2609 2533 868 887 888 869
8 508 527 528 509 2530 2606 2610 2534
8 2530 2606 2610 2534 2531 2607 2611 2535
8 2531 2607 2611 2535 2532 2608 2612 2536
8 2532 2608 2612 2536 2533 2609 2613 2537
8 2533 2609 2613 2537 869 888 889 870
8 509 528 529 510 2534 2610 2614 2538
8 2534 2610 2614 2538 2535 2611 2615 2539
8 2535 2611 2615 2539 2536 2612 2616 2540
8 2536 2612 2616 2540 2537 2613 2617 2541
8 2537 2613 2617 2541 870 889 890 871
8 510 529 530 511 2538 2614 2618 2542
8 2538 2614 2618 2542 2539 2615 2619 2543
8 2539 2615 2619 2543 2540 2616 2620 2544
8 2540 2616 2620 2544 2541 2617 2621 2545
8 2541 2617 2621 2545 871 890 891 872
8 511 530 531 512 2542 2618 2622 2546
8 2542 2618 2622 2546 2543 2619 2623 2547
8 2543 2619 2623 2547 2544 2620 2624 2548
8 2544 2620 2624 2548 2545 2621 2625 2549
8 2545 2621 2625 2549 872 891 892 873
8 512 531 532 513 2546 2622 2626 2550
8 2546 2622 2626 2550 2547 2623 2627 2551
8 2547 2623 2627 2551 2548 2624 2628 2552
8 2548 2624 2628 2552 2549 2625 2629 2553
8 2549 2625 2629 2553 873 892 893 874
8 513 532 533 514 2550 2626 2630 2554
8 2550 2626 2630 2554 2551 2627 2631 2555
8 2551 2627 2631 2555 2552 2628 2632 2556
8 2552 2628 2632 2556 2553 2629 2633 2557
8 2553 2629 2633 2557 874 893 894 875
8 514 533 534 515 2554 2630 2634 2558
8 2554 2630 2634 2558 2555 2631 2635 2559
8 2555 2631 2635 2559 2556 2632 2636 2560
8 2556 2632 2636 2560 2557 2633 2637 2561
8 2557 2633 2637 2561 875 894 895 876
8 515 534 535 516 2558 2634 2638 2562
8 2558 2634 2638 2562 2559 2635 2639 2563
8 2559 2635 2639 2563 2560 2636 2640 2564
8 2560 2636 2640 2564 2561 2637 2641 2565
8 2561 2637 2641 2565 876 895 896 877
8 516 535 536 517 2562 2638 2642 2566
8 2562 2638 2642 2566 2563 2639 2643 2567
8 2563 2639 2643 2567 2564 2640 2644 2568
8 2564 2640 2644 2568 2565 2641 2645 2569
8 2565 2641 2645 2569 877 896 897 878
8 517 536 46 47 2566 2642 1050 1054
8 2566 2642 1050 1054 2567 2643 1051 1055
8 2567 2643 1051 1055 2568 2644 1052 1056
8 2568 2644 1052 1056 2569 2645 1053 1057
8 2569 2645 1053 1057 878 897 122 123
8 26 1 27 518 970 164 974 2570
8 970 164 974 2570 971 165 975 2571
8 971 165 975 2571 972 166 976 2572
8 972 166 976 2572 973 167 977 2573
8 973 167 977 2573 102 5 103 879
8 518 27 28 519 2570 974 978 2574
8 2570 974 978 2574 2571 975 979 2575
8 2571 975 979 2575 2572 976 980 2576
8 2572 976 980 2576 2573 977 981 2577
8 2573 977 981 2577 879 103 104 880
8 519 28 29 520 2574 978 982 2578
8 2574 978 982 2578 2575 979 983 2579
8 2575 979 983 2579 2576 980 984 2580
8 2576 980 984 2580 2577 981 985 2581
8 2577 981 985 2581 880 104 105 881
8 520 29 30 521 2578 982 986 2582
8 2578 982 986 2582 2579 983 987 2583
8 2579 983 987 2583 2580 984 988 2584
8 2580 984 988 2584 2581 985 989 2585
8 2581 985 989 2585 881 105 106 882
8 521 30 31 522 2582 986 990 2586
8 2582 986 990 2586 2583 987 991 2587
8 2583 987 991 2587 2584 988 992 2588
8 2584 988 992 2588 2585 989 993 2589
8 2585 989 993 2589 882 106 107 883
8 522 31 32 523 2586 990 994 2590
8 2586 990 994 2590 2587 991 995 2591
8 2587 991 995 2591 2588 992 996 2592
8 2588 992 996 2592 2589 993 997 2593
8 2589 993 997 2593 883 107 108 884
8 523 32 33 524 2590 994 998 2594
8 2590 994 998 2594 2591 995 999 2595
8 2591 995 999 2595 2592 996 1000 2596
8 2592 996 1000 2596 2593 997 1001 2597
8 2593 997 1001 2597 884 108 109 885
8 524 33 34 525 2594 998 1002 2598
8 2594 998 1002 2598 2595 999 1003 2599
8 2595 999 1003 2599 2596 1000 1004 2600
8 2596 1000 1004 2600 2597 1001 1005 2601
8 2597 1001 1005 2601 885 109 110 886
8 525 34 35 526 2598 1002 1006 2602
8 2598 1002 1006 2602 2599 1003 1007 2603
8 2599 1003 1007 2603 2600 1004 1008 2604
8 2600 1004 1008 2604 2601 1005 1009 2605
8 2601 1005 1009 2605 886 110 111 887
8 526 35 36 527 2602 1006 1010 2606
8 2602 1006 1010 2606 2603 1007 1011 2607
8 2603 1007 1011 2607 2604 1008 1012 2608
8 2604 1008 1012 2608 2605 1009 1013 2609
8 2605 1009 1013 2609 887 111 112 888
8 527 36 37 528 2606 1010 1014 2610
8 2606 1010 1014 2610 2607 1011 1015 2611
8 2607 1011 1015 2611 2608 1012 1016 2612
8 2608 1012 1016 2612 2609 1013 1017 2613
8 2609 1013 1017 2613 888 112 113 889
8 528 37 38 529 2610 1014 1018 2614
8 2610 1014 1018 2614 2611 1015 1019 2615
8 2611 1015 1019 2615 2612 1016 1020 2616
8 2612 1016 1020 2616 2613 1017 1021 2617
8 2613 1017 1021 2617 889 113 114 890
8 529 38 39 530 2614 1018 1022 2618
8 2614 1018 1022 2618 2615 1019 1023 2619
8 2615 1019 1023 2619 2616 1020 1024 2620
8 2616 1020 1024 2620 2617 1021 1025 2621
8 2617 1021 1025 2621 890 114 115 891
8 530 39 40 531 2618 1022 1026 2622
8 2618 1022 1026 2622 2619 1023 1027 2623
8 2619 1023 1027 2623 2620 1024 1028 2624
8 2620 1024 1028 2624 2621 1025 1029 2625
8 2621 1025 1029 2625 891 115 116 892
8 531 40 41 532 2622 1026 1030 2626
8 2622 1026 1030 2626 2623 1027 1031 2627
8 2623 1027 1031 2627 2624 1028 1032 2628
8 2624 1028 1032 2628 2625 1029 1033 2629
8 2625 1029 1033 2629 892 116 117 893
8 532 41 42 533 2626 1030 1034 2630
8 2626 1030 1034 2630 2627 1031 1035 2631
8 2627 1031 1035 2631 2628 1032 1036 2632
8 2628 1032 1036 2632 2629 1033 1037 2633
8 2629 1033 1037 2633 893 117 118 894
8 533 42 43 534 2630 1034 1038 2634
8 2630 1034 1038 2634 2631 1035 1039 2635
8 2631 1035 1039 2635 2632 1036 1040 2636
8 2632 1036 1040 2636 2633 1037 1041 2637
8 2633 1037 1041 2637 894 118 119 895
8 534 43 44 535 2634 1038 1042 2638
8 2634 1038 1042 2638 2635 1039 1043 2639
8 2635 1039 1043 2639 2636 1040 1044 2640
8 2636 1040 1044 2640 2637 1041 1045 2641
8 2637 1041 1045 2641 895 119 120 896
8 535 44 45 536 2638 1042 1046 2642
8 2638 1042 1046 2642 2639 1043 1047 2643
8 2639 1043 1047 2643 2640 1044 1048 2644
8 2640 1044 1048 2644 2641 1045 1049 2645
8 2641 1045 1049 2645 896 120 121 897
8 536 45 2 46 2642 1046 168 1050
8 2642 1046 168 1050 2643 1047 169 1051
8 2643 1047 169 1051 2644 1048 170 1052
8 2644 1048 170 1052 2645 1049 171 1053
8 2645 1049 171 1053 897 121 6 122
CELL_TYPES 2000
12
12
12
12
12
12
12
12
12
12
12
12
12
12
12
12
12
12
12
12
12
12
12
12
12
12
12
12
12
12
12
12
12
12
12
12
12
12
12
12
12
12
12
12
12
12
12
12
12
12
12
12
12
12
12
12
12
12
12
12
12
12
12
12
12
12
12
12
12
12
12
12
12
12
12
12
12
12
12
12
12
12
12
12
12
12
12
12
12
12
12
12
12
12
12
12
12
12
12
12
12
12
12
12
12
12
12
12
12
12
12
12
12
12
12
12
12
12
12
12
12
12
12
12
12
12
12
12
12
12
12
12
12
12
12
12
12
12
12
12
12
12
12
12
12
12
12
12
12
12
12
12
12
12
12
12
12
12
12
12
12
12
12
12
12
12
12
12
12
12
12
12
12
12
12
12
12
12
12
12
12
12
12
12
12
12
12
12
12
12
12
12
12
12
12
12
12
12
12
12
12
12
12
12
12
12
12
12
12
12
12
12
12
12
12
12
12
12
12
12
12
12
12
12
12
12
12
12
12
12
12
12
12
12
12
12
12
12
12
12
12
12
12
12
12
12
12
12
12
12
12
12
12
12
12
12
12
12
12
12
12
12
12
12
12
12
12
12
12
12
12
12
12
12
12
12
12
12
12
12
12
12
12
12
12
12
12
12
12
12
12
12
12
12
12
12
12
12
12
12
12
12
12
12
12
12
12
12
12
12
12
12
12
12
12
12
12
12
12
12
12
12
12
12
12
12
12
12
12
12
12
12
12
12
12
12
12
12
12
12
12
12
12
12
12
12
12
12
12
12
12
12
12
12
12
12
12
12
12
12
12
12
12
12
12
12
12
12
12
12
12
12
12
12
12
12
12
12
12
12
12
12
12
12
12
12
12
12
12
12
12
12
12
12
12
12
12
12
12
12
12
12
12
12
12
12
12
12
12
12
12
12
12
12
12
12
12
12
12
12
12
12
12
12
12
12
12
12
12
12
12
12
12
12
12
12
12
12
12
12
12
12
12
12
12
12
12
12
12
12
12
12
12
12
12
12
12
12
12
12
12
12
12
12
12
12
12
12
12
12
12
12
12
12
12
12
12
12
12
12
12
12
12
12
12
12
12
12
12
12
12
12
12
12
12
12
12
12
12
12
12
12
12
12
12
12
12
12
12
12
12
12
12
12
12
12
12
12
12
12
12
12
12
12
12
12
12
12
12
12
12
12
12
12
12
12
12
12
12
12
12
12
12
12
12
12
12
12
12
12
12
12
12
12
12
12
12
12
12
12
12
12
12
12
12
12
12
12
12
12
12
12
12
12
12
12
12
12
12
12
12
12
12
12
12
12
12
12
12
12
12
12
12
12
12
12
12
12
12
12
12
12
12
12
12
12
12
12
12
12
12
12
12
12
12
12
12
12
12
12
12
12
12
12
12
12
12
12
12
12
12
12
12
12
12
12
12
12
12
12
12
12
12
12
12
12
12
12
12
12
12
12
12
12
12
12
12
12
12
12
12
12
12
12
12
12
12
12
12
12
12
12
12
12
12
12
12
12
12
12
12
12
12
12
12
12
12
12
12
12
12
12
12
12
12
12
12
12
12
12
12
12
12
12
12
12
12
12
12
12
12
12
12
12
12
12
12
12
12
12
12
12
12
12
12
12
12
12
12
12
12
12
12
12
12
12
12
12
12
12
12
12
12
12
12
12
12
12
12
12
12
12
12
12
12
12
12
12
12
12
12
12
12
12
12
12
12
12
12
12
12
12
12
12
12
12
12
12
12
12
12
12
12
12
12
12
12
12
12
12
12
12
12
12
12
12
12
12
12
12
12
12
12
12
12
12
12
12
12
12
12
12
12
12
12
12
12
12
12
12
12
12
12
12
12
12
12
12
12
12
12
12
12
12
12
12
12
12
12
12
12
12
12
12
12
12
12
12
12
12
12
12
12
12
12
12
12
12
12
12
12
12
12
12
12
12
12
12
12
12
12
12
12
12
12
12
12
12
12
12
12
12
12
12
12
12
12
12
12
12
12
12
12
12
12
12
12
12
12
12
12
12
12
12
12
12
12
12
12
12
12
12
12
12
12
12
12
12
12
12
12
12
12
12
12
12
12
12
12
12
12
12
12
12
12
12
12
12
12
12
12
12
12
12
12
12
12
12
12
12
12
12
12
12
12
12
12
12
12
12
12
12
12
12
12
12
12
12
12
12
12
12
12
12
12
12
12
12
12
12
12
12
12
12
12
12
12
12
12
12
12
12
12
12
12
12
12
12
12
12
12
12
12
12
12
12
12
12
12
12
12
12
12
12
12
12
12
12
12
12
12
12
12
12
12
12
12
12
12
12
12
12
12
12
12
12
12
12
12
12
12
12
12
12
12
12
12
12
12
12
12
12
12
12
12
12
12
12
12
12
12
12
12
12
12
12
12
12
12
12
12
12
12
12
12
12
12
12
12
12
12
12
12
12
12
12
12
12
12
12
12
12
12
12
12
12
12
12
12
12
12
12
12
12
12
12
12
12
12
12
12
12
12
12
12
12
12
12
12
12
12
12
12
12
12
12
12
12
12
12
12
12
12
12
12
12
12
12
12
12
12
12
12
12
12
12
12
12
12
12
12
12
12
12
12
12
12
12
12
12
12
12
12
12
12
12
12
12
12
12
12
12
12
12
12
12
12
12
12
12
12
12
12
12
12
12
12
12
12
12
12
12
12
12
12
12
12
12
12
12
12
12
12
12
12
12
12
12
12
12
12
12
12
12
12
12
12
12
12
12
12
12
12
12
12
12
12
12
12
12
12
12
12
12
12
12
12
12
12
12
12
12
12
12
12
12
12
12
12
12
12
12
12
12
12
12
12
12
12
12
12
12
12
12
12
12
12
12
12
12
12
12
12
12
12
12
12
12
12
12
12
12
12
12
12
12
12
12
12
12
12
12
12
12
12
12
12
12
12
12
12
12
12
12
12
12
12
12
12
12
12
12
12
12
12
12
12
12
12
12
12
12
12
12
12
12
12
12
12
12
12
12
12
12
12
12
12
12
12
12
12
12
12
12
12
12
12
12
12
12
12
12
12
12
12
12
12
12
12
12
12
12
12
12
12
12
12
12
12
12
12
12
12
12
12
12
12
12
12
12
12
12
12
12
12
12
12
12
12
12
12
12
12
12
12
12
12
12
12
12
12
12
12
12
12
12
12
12
12
12
12
12
12
12
12
12
12
12
12
12
12
12
12
12
12
12
12
12
12
12
12
12
12
12
12
12
12
12
12
12
12
12
12
12
12
12
12
12
12
12
12
12
12
12
12
12
12
12
12
12
12
12
12
12
12
12
12
12
12
12
12
12
12
12
12
12
12
12
12
12
12
12
12
12
12
12
12
12
12
12
12
12
12
12
12
12
12
12
12
12
12
12
12
12
12
12
12
12
12
12
12
12
12
12
12
12
12
12
12
12
12
12
12
12
12
12
12
12
12
12
12
12
12
12
12
12
12
12
12
12
12
12
12
12
12
12
12
12
12
12
12
12
12
12
12
12
12
12
12
12
12
12
12
12
12
12
12
12
12
12
12
12
12
12
12
12
12
12
12
12
12
12
12
12
12
12
12
12
12
12
12
12
12
12
12
12
12
12
12
12
12
12
12
12
12
12
12
12
12
12
12
12
12
12
12
12
12
12
12
12
12
12
12
12
12
12
12
12
12
12
12
12
12
12
12
12
12
12
12
12
12
12
12
12
12
12
12
12
12
12
12
12
12
12
12
12
12
12
12
12
12
12
12
12
12
12
12
12
12
12
12
12
12
12
12
12
12
12
12
12
12
12
12
12
12
12
12
12
12
12
12
12
12
12
12
12
12
12
12
12
12
12
12
12
12
12
12
12
12
12
12
12
12
12
12
12
12
12
12
12
12
12
12
12
12
12
12
12
12
12
12
12
12
12
12
12
12
12
12
12
12
12
12
12
12
12
12
12
12
12
12
12
12
12
12
12
12
12
12
12
12
12
12
12
12
12
12
12
12
12
12
12
12
12
12
12
12
12
12
12
12
12
12
12
12
12
12
12
12
12
12
12
12
12
12
12
12
12
12
12
12
12
12
12
12
12
12
12
12
12
12
12
12
12
12
12
12
12
12
12
12
12
12
12
12
12
12
12
12
12
12
12
12
12
12
12
12
12
12
12
12
12
12
12
12
12
12
12
12
12
12
12
12
12
12
12
12
12
12
12
12
12
12
12
12
12
12
12
12
12
12
12
12
12
12
12
12
12
12
12
12
12
12
12
12
12
12
12
12
12
12
12
12
12
12
12
12
12
12
12
12
12
12
12
12
12
12
12
12
12
12
12
12
12
12
12
12
12
12
12
12
12
12
12
12
12
12
12
12
12
12
12
12
12
12
12
12
12
12
12
12
12
12
12
12
12
12
12
12
12
12
12
12
12
12
12
12
12
12
12
12
12
12
12
12
12
12
12
12
12
12
12
12
12
12
12
12
12
12
12
12
12
12
12
12
12
12
12
12
12
12
12
12
12
12
12
12
12
12
12
POINT_DATA 2646
SCALARS stress11 float
LOOKUP_TABLE default
-483.64693808183074
-582.2989179082215
-469.25857247336535
-496.6729066558182
519.1187686473131
458.37032370455563
530.8756422475853
474.4768380988389
-378.9494451135397
-549.3621969372034
-802.6797766759992
-1082.772438172251
-1393.8415626380593
-1696.704150006175
-1924.2308996357024
-2134.017107054591
-2286.287336304784
-2309.8728939462453
-2291.2554973326623
-2123.8643763288856
-1940.2248357012868
-1670.2991321496665
-1387.8062123786658
-1082.6509505398571
-823.9547716118395
-582.3545696996152
-384.96403043717146
-418.84751579351723
-604.2828997708857
-841.7348229475319
-1154.3345529288054
-1481.3828347325325
-1779.0434918310493
-2036.8135694181547
-2263.7473637461662
-2378.7330733975396
-2441.3901271866634
-2392.447251544334
-2239.0317264022306
-2045.8394110659137
-1765.4986900608055
-1444.035771429073
-1142.541942324955
-831.98763585696
-585.3113968023099
-359.7366747101769
-372.2769759640796
-549.4502540975809
-817.6700695001055
-1089.706924545113
-1407.7824245849624
-1680.2907879101112
-1937.9906051531434
-2143.588284386322
-2296.8654464464635
-2301.2096208631992
-2262.8008510367945
-2168.3309486377984
-1917.6815770799294
-1659.6605789549649
-1397.3348135631531
-1106.8574822675437
-805.708579344675
-559.4115415066481
-379.4680206812918
-384.8942180592567
-559.6070440020412
-805.7703506555408
-1125.9448688011616
-1457.553918434307
-1809.9860032144934
-2057.535588370636
-2261.879888869822
-2386.326440507546
-2454.869532281533
-2388.565741142258
-2252.2524789236486
-2032.7498682253063
-1812.0042710769922
-1478.1214662250131
-1174.2297175619751
-860.2528720330447
-560.5333214215934
-377.18033768609166
364.5968948379159
539.5728164762259
791.5862003508955
1115.5959611684084
1398.2439125012606
1706.4532582368702
1961.344350259751
2148.231349522248
2273.101296151057
2321.5433240626007
2253.4494807887822
2179.144615514204
2003.4256442356855
1708.5537063330412
1430.24129675515
1108.1464223824441
799.5598421338946
515.199195722118
395.59718939103186
374.71372754871845
557.4872153159231
834.7381191048771
1139.3501925170422
1475.943295251578
1799.815849300474
2081.190282872878
2254.739240873605
2389.349043412134
2450.060390376486
2411.3846002565697
2287.8962660059333
2074.1029164791107
1783.591975465417
1471.7717872476205
1153.3876300817356
808.4854979966767
538.7237965154927
397.5433318419382
369.47521800134564
582.2232691217214
818.329001939157
1087.1959567144513
1408.4940615640953
1703.0866044634022
1977.2866513952613
2154.7815701719373
2210.232671074569
2327.1084932358935
2270.7018383815885
2122.953752949834
1993.9115307070315
1748.3538296017796
1399.13121191971
1073.2471717018634
770.4974871389568
556.1690752729774
356.4708067011088
379.1773239839822
542.3537393659353
832.1114146485925
1174.2588232588023
1496.3061584737152
1768.5355961062014
2030.4993762746453
2230.4790674708784
2412.600300749764
2427.0098410565406
2396.351521337405
2273.702177837491
2051.8502224460244
1738.2743657436222
1470.0793451555073
1144.6901311967522
856.1873299684376
576.2413478642702
364.0662290453911
-281.601898599416
-82.09119782969356
116.68940130993724
316.5124944448471
-371.56829325295985
-163.96501150541008
42.3383392971009
249.17948199622333
-267.9543486344337
-69.08591517512104
129.14485722922836
328.55065512808505
-300.579741159454
-107.18589535169303
85.27495208196342
278.58727235905826
-503.5756747275591
-981.747859524563
-1784.43053785339
-2710.3130268901587
-3703.9779600370675
-4621.25440405868
-5429.144133696333
-6048.711563555524
-6406.3183669205755
-6549.170822311193
-6406.977901669219
-6033.949399001896
-5428.643667336553
-4621.651510745287
-3693.8328715860844
-2714.9922993332148
-1783.4773245807737
-992.0596359185874
-535.1701424028724
-976.7493346724659
-960.4299272596836
-1259.5036637447774
-1694.8955996632576
-2227.7437955103815
-2790.7054659985006
-3333.4373758994043
-3755.6792475767434
-4015.3839814662933
-4153.512646278366
-4036.2759792972356
-3776.9556197915226
-3311.131293974817
-2807.6629808265716
-2250.6922890394926
-1698.5008915122598
-1265.8663789425045
-943.5258316621184
-976.3904491104186
-1751.205168588087
-1263.3581135962158
-1231.8789508752525
-1262.6483447495848
-1465.0290408488363
-1786.2299828343093
-2152.2469418700784
-2489.326189460233
-2717.520145088434
-2789.343322703615
-2718.539785062894
-2481.159595316276
-2143.575208686292
-1765.5370148513466
-1484.086188070476
-1279.0777127370238
-1245.6178424302489
-1250.428632201627
-1762.446824433282
-2646.168599786237
-1653.9137448016554
-1238.2071603219956
-777.8188232313842
-480.22034648805857
-390.1657907888293
-488.51699806563556
-654.1804185807705
-801.3111384473741
-863.7757158502936
-791.1566170733422
-654.6583284903318
-489.73548224940896
-374.1439734529704
-482.44954554736614
-781.5063821412623
-1248.3673992082477
-1646.1846996676177
-2655.031339854002
-3631.7781247925013
-2175.5384461395442
-1435.3780221156776
-460.2133047506213
392.6097134333104
1049.7463590726256
1343.8135522957891
1368.0514281298965
1334.6518358234316
1299.8120688218623
1316.4903107266873
1386.024081563577
1347.6617043092847
1055.6851323265582
402.56696890853345
-445.2401112150401
-1430.572947634384
-2178.317619238049
-3624.3767854031175
-4533.594983872026
-2710.298053469509
-1721.9476391319185
-326.40264028683305
1065.7950970958918
2455.9071097839624
3427.2303896322846
3842.598600657657
3956.2539355885237
3895.7218114640564
3957.4788438323885
3839.3303712159395
3430.0542125273496
2456.874187041074
1081.1290420424193
-337.7765492834151
-1723.6238630227745
-2718.8931648619473
-4540.671831134707
-5326.989042652771
-3232.692480990663
-2067.9609336964786
-425.6014551129192
1372.5449402164668
3453.860847517848
5551.892821509391
6877.263232594356
7172.0674990825355
7438.495677188039
7156.7584731429815
6885.404600460082
5565.616771694273
3445.544880302623
1402.7731220964342
-422.08515251241624
-2086.6674931477755
-3250.626570895314
-5310.712886929512
-5916.175550805405
-3649.4700327403843
-2381.8242356013507
-577.2879255283624
1465.5581328812987
3921.5830095093697
6904.073696212843
10213.522904708982
11885.850888136774
11223.88816889003
11866.886551532894
10243.596771128476
6923.534361880273
3903.047611625865
1472.9810777641833
-566.9151057843119
-2382.75565824192
-3648.5942486627027
-5901.401987190358
-6277.427457857877
-3925.176561526954
-2613.0738000795245
-711.6868704203516
1439.4615169037133
4033.7471885569394
7224.516392216086
11963.750266792253
17949.693006342277
21770.90214944631
17966.288302581757
11929.229616228491
7249.924390894361
4034.18018638622
1432.6253680307418
-695.2657784866169
-2585.738725054078
-3915.8590022521093
-6277.1509970212355
-6399.950619498268
-4012.445953492075
-2664.4502039086074
-765.7903483100235
1392.8469601646066
4005.9753840696067
7568.444210927933
11313.817588683218
21800.84324479103
24641.271001588553
21786.519794803113
11324.742652475834
7541.257421198301
4003.3900868762285
1400.2440917855129
-776.1983191194013
-2708.0759262926877
-4011.0787746831775
-6397.202937289141
-6273.047420695424
-3919.3588158637285
-2628.330994559452
-711.9584553949535
1431.9213409759104
4040.979805085808
7238.536543883383
11929.120320899412
17940.39533329755
21789.51393215172
17960.383361330256
11901.3395891916
7232.292158976197
4040.0622062329203
1438.6067263428122
-707.3661997225136
-2613.9796245647594
-3934.8413488790393
-6249.8254308681935
-5937.0479867924005
-3655.5143017228693
-2376.3248051069677
-548.8872548881918
1462.079000717029
3895.202457141131
6913.761442448944
10213.159799676389
11894.431661035866
11215.815377727151
11886.274023431353
10211.668942718767
6910.550823658705
3934.0199562460184
1472.7573949331418
-570.8042557155713
-2406.5071173645556
-3630.5593997789547
-5909.233929157257
-5335.2688324879855
-3215.4889124836773
-2087.6589289624244
-413.1836461555213
1389.3995241858065
3464.8180489316583
5565.27033828944
6860.375925395638
7178.088137822226
7446.610587498173
7136.593483463861
6884.428184621967
5564.448646211997
3466.1105761472136
1392.116413476877
-412.25814208667725
-2074.376749722287
-3252.5714738881215
-5321.263623193838
-4534.278405914083
-2706.1751846130937
-1708.2652747835964
-342.11816974915564
1071.5495527591556
2449.8749724980444
3432.7793850637972
3830.836159025319
3936.0453639980406
3899.1109666749835
3953.254364259541
3828.04049054347
3438.36507325992
2460.1837942665443
1069.8442625096068
-331.11595537513494
-1723.7777953040786
-2702.3893512897193
-4552.29977949243
-3612.27503365092
-2178.3868126068264
-1441.2260121665895
-468.4801365993917
407.9583030138165
1028.4966372232884
1326.1206752434373
1372.3493892019615
1319.901552409865
1320.5593841737136
1325.8806337313727
1403.2418682547286
1310.9386798879132
1038.5851741377264
421.0656076585874
-469.9784227977507
-1436.6501740138046
-2176.129391061142
-3621.2089643063955
-2660.2792742326856
-1643.0703525673598
-1242.4414411261678
-759.19205570966
-474.76436540298164
-388.4137598462403
-469.2734739892185
-655.0725717805326
-787.7223142907023
-878.4986810320988
-815.1096314070746
-652.2991672400385
-466.1143120992929
-403.9299416318536
-497.64344450691715
-753.5604107538238
-1249.8100570170209
-1663.6310284249485
-2661.698229817208
-1761.012317692861
-1263.0929105114192
-1221.0235325228423
-1260.3559249211103
-1478.4016498606652
-1797.4005983173847
-2151.1959508834407
-2492.374738561921
-2732.503977993503
-2797.344818059355
-2735.995186031796
-2495.071307222359
-2137.3879880337045
-1797.1753553412855
-1476.9636500431225
-1262.5238024420105
-1239.4016486932524
-1257.531238370575
-1740.4201247505844
-963.5629853233695
-948.8674657382071
-1262.3018474373966
-1719.5161663535982
-2223.690641067922
-2800.443809889257
-3335.9940511686727
-3772.4216978689656
-4031.5822870479897
-4143.62679435499
-4027.595332778059
-3759.804913192056
-3343.414901666343
-2815.068238394335
-2207.4438212071545
-1688.1759249130264
-1294.3634012923576
-922.364510148298
-1001.3781799252611
-516.9610827956349
-984.6162452101707
-1783.0577567052096
-2723.947928154841
-3694.422631898895
-4644.150735812262
-5434.86224824097
-6026.434693121351
-6440.060454821214
-6558.661504472606
-6432.092790802941
-6047.719171253033
-5416.454650855623
-4628.206303007435
-3697.8910636198707
-2718.9260289110243
-1787.4677276180591
-987.4275103739928
-552.5722691210685
513.6587576344609
981.5622501205653
1772.154456462711
2715.817775860429
3703.950649606064
4615.639010569081
5416.06556831114
6047.217723574489
6425.654184406623
6563.728779800236
6411.870511043817
6050.781267443672
5428.42439711839
4628.361561959609
3689.2286820095032
2721.982209773734
1788.4526854082942
999.4540087673813
525.3728714436293
967.824871648103
961.8426326662302
1259.3654068093747
1701.737418603152
2226.9455866627395
2805.725770968944
3331.1041123922914
3763.8492379616946
4023.476092584431
4140.093323893845
4047.6008943766356
3777.014903916046
3326.6560925357044
2801.2149649634957
2254.6343429498374
1701.3652578145266
1262.3509251438081
946.9370537716895
999.0147435199469
1760.0859204679728
1250.526780916378
1236.9618901312351
1276.7880528848618
1474.7544403113425
1770.5696330908686
2156.4067436233163
2490.727280676365
2739.3980049304664
2792.8270191755146
2721.653854271397
2486.1079943012446
2157.76853678748
1773.277706824243
1488.8709600791335
1282.738994780928
1238.6747723966837
1265.853754594922
1763.7914303205907
2659.400032695383
1688.0686271339655
1227.6815438773483
769.3488231617957
488.35773970000446
399.79811723157763
478.7428094856441
669.5458681527525
808.0203695800155
854.5764505695552
794.9154015034437
638.1065373234451
484.14523825235665
374.7390554174781
484.0301106609404
752.9287484660745
1246.771852016449
1648.0399608053267
2648.2178526502103
3611.0540302898735
2162.7185271047056
1414.2950788140297
451.76023471169174
-385.13130274787545
-1047.8540239278227
-1329.1828865036368
-1398.1821568515152
-1322.6059056073427
-1311.3160930555314
-1329.7384717017412
-1380.495797690004
-1332.7860881648958
-1033.3967356141657
-412.69136217981577
464.82309803180397
1438.1748544406146
2185.36125455983
3632.0283876135945
4551.727384759113
2712.240492304787
1711.5824982915074
343.0698776245117
-1053.1094513889402
-2452.8499381691217
-3427.024908432737
-3859.6298167668283
-3959.6874353084713
-3891.220262378454
-3961.9625848215073
-3831.449802616611
-3425.8999117277563
-2462.766991727054
-1092.651604630053
340.9876288380474
1714.8212156295776
2721.7938522696495
4520.633496487513
5331.133942468092
3233.539583498612
2083.454685151577
425.2768004555255
-1386.7203796617687
-3442.919075012207
-5554.335971493274
-6847.952001987025
-7168.4938862565905
-7437.038551328704
-7174.654859894887
-6883.435940220952
-5557.4467398468405
-3469.055890288204
-1390.5775774903595
414.85442725755274
2082.5030772974715
3237.3440761659294
5324.913187487051
5908.559109870344
3645.0850416552275
2392.39795993641
575.0921892300248
-1461.6219977010041
-3904.930275382474
-6908.263674067333
-10231.065469477326
-11876.638210868463
-11220.13457156904
-11875.877505557612
-10238.876406662166
-6920.942362304777
-3896.9216957818717
-1464.5050678690895
573.3573312293738
2394.2575837057084
3651.704732576385
5904.276796123013
6282.477810855955
3920.4320087004453
2618.576446402818
709.8712950553745
-1418.6390489209443
-4025.082082817331
-7232.8467449732125
-11944.115464368835
-17957.282457049936
-21774.750582862645
-17925.69674138911
-11927.683294836432
-7233.670497121289
-4031.811496242881
-1433.2481830548495
699.4472117032856
2608.5140906730667
3933.284413798712
6271.909323826432
6413.515238119289
4032.1529917959124
2671.2810917645693
793.5880731176585
-1421.328798469156
-4013.539048023522
-7544.594850094989
-11310.323693700135
-21816.24081584625
-24680.661457870156
-21804.522343731485
-11306.824994049035
-7526.982419864275
-4005.428439518437
-1406.439951742068
772.5200755251572
2710.827785562724
4024.8889612583444
6391.477513540536
6283.504319017753
3924.96893231757
2611.5007375311106
714.5257269181311
-1425.4838582072407
-4038.2564849480987
-7243.750875651836
-11930.428038096055
-17938.30840759538
-21764.15819037333
-17937.25850738678
-11946.640928642824
-7209.463212818839
-4039.0855133095756
-1451.7755598966032
717.3587530516088
2611.6778893768787
3927.0998502178118
6288.809863657691
5913.60020458512
3662.9741957057267
2387.352064099163
553.2590004242957
-1459.8089911602437
-3901.4736887644976
-6927.932961052284
-10218.340933371335
-11882.443597447127
-11222.97105643712
-11886.588385742158
-10209.723573845811
-6910.2573069464415
-3906.451870909892
-1455.8313307911158
560.5018068440259
2419.559825696051
3649.74013314303
5910.060756164603
5318.799162294716
3237.7363093048334
2096.0705781858414
418.9180530831218
-1396.5606596209109
-3472.900113498792
-5547.969635814428
-6882.7782425601035
-7149.625366713852
-7449.665086579509
-7132.334788276814
-6882.739474706352
-5558.4747159760445
-3475.8791375244036
-1381.7411482986063
402.45732090529054
2081.7039158307016
3232.5263172322884
5306.555007155985
4532.945497058332
2709.2572827432305
1715.8254306465387
338.17219940945506
-1037.2786503899843
-2448.3161220028996
-3430.299726705998
-3821.27681033127
-3945.8138200687245
-3882.142609730363
-3960.323481175117
-3825.633499593474
-3437.874020432122
-2444.862204517238
-1067.6628740718588
347.44794362410903
1704.6412319224328
2707.742872100789
4558.148386766668
3621.254978599027
2164.0469825733453
1441.07159306854
451.86754360049963
-413.3973398115486
-1038.0484412238002
-1326.4171675499529
-1388.276883165352
-1329.6071994127706
-1309.9979892335832
-1317.707569479011
-1415.1390011115
-1336.9159085685387
-1025.4775782255456
-406.6646364592016
451.1561710042879
1442.290169422049
2168.148021894507
3641.576292624697
2663.326693955809
1669.071807872504
1241.7117494549602
764.4534422196448
470.74817456305027
396.5761617217213
479.02325725741684
664.72120369412
804.2000233251601
869.2066041380167
818.9061533510685
650.3661769507453
494.53864120692015
389.2721168361604
490.5508618094027
771.6000534244813
1247.2078587673604
1651.7217844990082
2652.931759579573
1747.7313179019839
1228.9600232150406
1228.0501282792538
1267.0450709778816
1494.1193978190422
1795.0440950822085
2152.9758249772713
2513.931514396332
2719.023119771853
2809.4177772356197
2723.1253698104993
2502.060512454249
2161.9723723754287
1789.5785276801325
1473.7787297535688
1268.4706718055531
1246.9666557358578
1241.216451972723
1748.1471607726999
951.5846335608512
935.9252594001591
1290.7763364724815
1713.2553195282817
2223.2843011282384
2802.193379813805
3329.6382631799206
3772.3835817631334
4035.6064968695864
4157.73001242429
4016.9859578572214
3779.4387086359784
3322.97595243901
2811.9650595556013
2218.3494682949968
1695.5276390993968
1275.0720965294167
958.4206396793015
981.6806292142719
525.6807957813144
1011.8808489628136
1765.8176014274359
2727.834650821984
3706.1299610156566
4631.61917225644
5434.862597523257
6041.230638408102
6428.80986814294
6550.420389927924
6446.484265632927
6041.982724032365
5410.321368358098
4649.580407218542
3689.531479693018
2717.615130634047
1789.7531383112073
997.2134997821413
534.8357893854845
-226.66490955650806
-79.60794623568654
65.67062415927649
212.6036379635334
-326.2018372900784
-110.96041539683938
101.57757817581296
316.69318317994475
-475.8886786457151
-160.89895416982472
150.06100288406014
464.9699559137225
-632.8963056616485
-199.0544421505183
229.59489683061838
664.2159789726138
-821.3339017629623
-270.0278894845396
274.11211172118783
825.5444811470807
-999.0498746838421
-327.2027241811156
335.98450163938105
1008.1595892738551
-1127.959691716358
-361.19981044344604
395.8007835820317
1163.4266583621502
-1255.514581952244
-410.025776585564
424.2366768941283
1269.7333061601967
-1350.8051422331482
-450.4811013136059
437.8332240656018
1337.998568939045
-1360.3888337798417
-446.25043979659677
456.06809930689633
1370.833458447829
-1358.5080538447946
-460.9834932666272
424.4127054717392
1321.5317517574877
-1242.2350847534835
-393.19490554742515
445.13326288945973
1295.3001189362258
-1132.1846075933427
-353.85219813138247
414.64326825737953
1193.7947494611144
-977.5297130737454
-310.4913256485015
347.8892177566886
1015.2217214014381
-810.8569488096982
-254.77356036566198
294.5320676546544
851.5353041123599
-633.9440601300448
-201.41537212952971
225.73429496400058
658.6697634439915
-490.9748906753957
-170.00565130449831
146.76824216730893
467.3633282277733
-356.40779459849
-138.892648242414
75.36261022090912
291.6572865843773
-225.88433512113988
-71.83006995543838
80.75371251441538
235.39549609832466
-256.16000933386385
-99.01344246417284
56.14396184310317
212.8723079226911
-366.0758690368384
-136.10708452388644
90.91727284528315
320.3572268169373
-498.584546757862
-167.1943149343133
160.21519309282303
491.6181918345392
-684.2690139487386
-230.75132244452834
217.0062133707106
670.1172824949026
-875.2332739699632
-290.5280552059412
286.7057937365025
870.875307450071
-1046.1717294808477
-339.0503599792719
359.3704992122948
1066.656086154282
-1193.880801212974
-380.4867841890082
423.06748263631016
1237.093562277034
-1338.062504099682
-445.2453991258517
436.3724473901093
1329.144642743282
-1401.8244371786714
-459.7443115748465
470.4716229541227
1412.5298237530515
-1439.3372975466773
-472.855631724
481.5384105332196
1448.030290748924
-1409.0482673998922
-460.2318222858012
477.0546892276034
1426.5957227582112
-1312.5394481867552
-418.52074296586215
464.7388967750594
1359.6599190803245
-1202.3619781052694
-388.4543194491416
415.52747409045696
1229.842752869241
-1039.0557530405931
-338.0275975149125
354.52755413157865
1056.0983332316391
-847.1901462366804
-271.2424591355957
297.7539065624587
874.1331554022618
-672.8663933174685
-219.27135329600424
228.96743884310126
682.9526678929105
-495.81688526785
-171.44447312806733
148.83386221295223
472.92292711301707
-354.27245038351975
-131.55128525733016
88.01468150969595
309.7107781153172
-205.4760382383829
-56.09369209688157
91.88863631302956
241.9611763501889
-220.12806940614246
-73.34295259916689
71.51840097090462
217.98523424298037
-318.1642513673287
-94.67895670817234
126.28514142893255
350.17618768452667
-482.55436763865873
-159.30265707941726
159.9348704253789
483.2154251113534
-643.0541861164384
-212.96613161079586
211.41432023467496
641.2075447747484
-829.9901279662736
-273.66730203060433
275.2637663753703
831.308809781447
-986.4827413717285
-318.52290780376643
340.7221931098029
1008.8981346134096
-1135.3954964578152
-362.5441438956186
400.36640543397516
1173.730694222264
-1262.1507067997009
-413.5979274129495
423.87235394120216
1272.7357920361683
-1370.7294655079022
-480.16284807026386
397.8158198473975
1286.932654272765
-1352.5139034520835
-439.06158114410937
462.66154306568205
1376.8830499965698
-1333.228641522117
-438.3707699868828
444.83592582214624
1340.1690181773156
-1287.1725951498374
-439.43849533144385
396.64419704768807
1243.5179824093357
-1116.7931897491217
-345.14964032173157
417.0475582340732
1190.151635854505
-962.3680508360267
-290.2262713611126
373.92235568352044
1047.7523730490357
-824.0558219701052
-271.89869962632656
273.13052901625633
825.4741752259433
-659.3929183837026
-228.5445811972022
196.5023405328393
626.8251840043813
-482.37679664231837
-170.91823673807085
136.44059339538217
447.6666311919689
-331.268140103668
-110.92672719806433
106.86778041347861
327.4781262408942
-228.4905645661056
-82.85268876701593
60.88640847057104
206.2001557275653
-228.5377500038594
-77.4162062201649
71.93708384595811
222.99676804617047
-333.9984932523221
-116.17643643915653
99.01452482305467
316.82178509794176
-470.97006959840655
-147.52617203630507
172.24212390370667
496.24814876168966
-655.786802046001
-201.56517237983644
247.52045834623277
702.5517993494868
-853.4517543464899
-270.113640088588
306.44535768032074
890.6182036865503
-1076.453361917287
-368.99174301326275
329.39576632902026
1036.245878616348
-1220.0502210315317
-412.2700635679066
385.38938455842435
1193.1231911014766
-1341.5243180375546
-453.93542616069317
422.50666803121567
1310.1083017513156
-1404.28947615996
-456.5983692333102
479.7532052323222
1428.4970586355776
-1454.4427447859198
-489.6988485548645
462.7913197353482
1427.2162982132286
-1408.762097844854
-463.5614478997886
470.02696550264955
1415.6751559264958
-1325.5034907031804
-431.4336607456207
451.66417370550334
1346.1630364190787
-1196.5173800233752
-389.742298072204
407.2023985981941
1214.5383182391524
-1083.9011647943407
-381.9355138801038
310.8391307350248
1011.9279243163764
-874.3486638627946
-291.7265341784805
283.71295980364084
866.3366443458945
-699.0451235026121
-240.49674360640347
212.28366956487298
670.3912514932454
-508.94122875854373
-169.55042594112456
165.76461338810623
505.07055809162557
-328.205639321357
-103.61227476969361
118.47590060904622
343.35420629009604
-225.16827742755413
-78.44138592109084
66.4130496867001
212.7992365323007
-290.6082796789706
-91.89454705640674
101.93603927269578
300.6748003549874
-573.0780022442341
-188.28810587339103
188.28064117766917
573.0154656115919
-1047.1044831089675
-348.2002747692168
337.31531506963074
1035.7523535620421
-1587.9985676985234
-521.2761141620576
526.3451612386853
1593.23769694753
-2173.007482016459
-716.0697376579046
715.3963390719146
2172.5554487984627
-2712.036211596802
-894.8214200977236
890.4910480622202
2707.2948079630733
-3187.68072062172
-1053.8453525546938
1042.6229221746325
3175.8263879604638
-3550.0719940382987
-1170.6622933130711
1167.7376857586205
3547.631130043417
-3756.8152507860214
-1233.2885410245508
1247.3112793620676
3772.6216661185026
-3841.265061073005
-1262.2500281892717
1272.7149796951562
3853.1136706508696
-3759.680631019175
-1238.5485398229212
1239.4581632297486
3761.9260588865727
-3538.561811024323
-1161.842648357153
1174.373809557408
3552.5442163944244
-3185.794839642942
-1050.1012643799186
1048.7219099737704
3184.8113120589405
-2710.265943799168
-890.7287592291832
897.1288570892066
2716.783693987876
-2167.8100957032293
-715.7835161760449
710.7463034316897
2162.9266745951027
-1590.9747392870486
-522.3265009876341
527.4249486718327
1596.7183589339256
-1044.0086287725717
-342.5244337040931
346.0312036704272
1048.021039687097
-578.2749482709914
-188.1513919197023
194.0056744683534
584.6474694013596
-312.7700104843825
-105.24631914868951
97.01130457594991
304.01198462210596
-572.03063204512
-191.12071748636663
181.6757787913084
562.7736613750458
-557.6295415703207
-182.37602888420224
183.49497909285128
558.8729008547962
-732.7452698927373
-240.34644375927746
240.28307766839862
732.6747165769339
-986.1852611321956
-321.9451829548925
327.21254639327526
991.9919948261231
-1298.4666185248643
-426.3783516790718
426.0237272195518
1297.9750970564783
-1624.649814311415
-528.7863721251488
543.039069276303
1639.169846355915
-1945.3018133882433
-639.9094317723066
637.0971926562488
1942.6524495687336
-2190.9289358109236
-718.4665107242763
722.7073599621654
2196.4882100075483
-2342.3127597738057
-768.0372155569494
772.6605439856648
2348.097781041637
-2426.65077727288
-801.7144813556224
788.1985896322876
2413.162287004292
-2353.948738168925
-770.7041026707739
778.8517643846571
2363.167254447937
-2204.3782783728093
-724.6843134891242
723.2606063019484
2203.453128585592
-1929.3213546611369
-629.7106316033751
642.018410699442
1942.7130167037249
-1638.817510927096
-540.4023465067148
533.8309611007571
1632.287852294743
-1311.3052055686712
-429.30307370238006
433.0283218882978
1315.113246889785
-988.7911072075367
-323.81350341439247
325.90705483034253
991.1746023055166
-737.1175076272339
-242.8978892210871
239.491994721815
733.6916939169168
-547.190431272611
-178.31047421321273
181.2460502050817
550.3016599565744
-566.6399129424244
-180.31290642172098
198.48504030145705
586.3215996902436
-1024.1407969538122
-334.97026248276234
341.43483023904264
1031.4276940859854
-737.0668526720256
-245.4988109190017
233.99766221642494
725.117214743048
-716.7925496250391
-233.77095515094697
238.32613986358047
721.5469378940761
-734.2729880493134
-237.79997332580388
248.14779268205166
745.9063972439617
-853.9248470719904
-278.3192341309041
285.3882935922593
861.8856779653579
-1046.1608046889305
-348.405665891245
334.5916295275092
1031.724696950987
-1257.891755828634
-412.8389895223081
415.4164345301688
1260.9919180292636
-1456.8460169434547
-480.2989752329886
477.4618777129799
1455.4273568820208
-1586.8800556082278
-516.9153588935733
532.8248498737812
1604.7913860455155
-1631.1994075104594
-536.0411198977381
537.6392422635108
1633.4249525256455
-1590.1580107957125
-522.9365241173655
523.5190226249397
1591.5875637698919
-1450.688015440479
-476.3967999331653
478.84089716151357
1453.9735606834292
-1251.3614696543664
-408.09806186147034
418.717361042276
1263.176725115627
-1031.13049701415
-337.957154372707
341.49634857289493
1036.073671784252
-866.3499152287841
-284.30165542662144
285.85545799694955
868.9989641178399
-745.084689207375
-243.6979630868882
246.5826629139483
748.2425496410578
-726.4275288879871
-239.8913550786674
235.20527007244527
720.9997145850211
-724.6208933331072
-233.11232332326472
246.85427836887538
738.9443983286619
-1032.2540409546345
-340.1028572805226
339.22875208593905
1032.1471210382879
-1549.0614438224584
-506.9418319258839
516.6184560861439
1559.9494613818824
-957.8333932962269
-305.4454053044319
332.7229311335832
987.4411660768092
-723.3652302641422
-240.9094765726477
230.44490499049425
712.8935134261847
-453.9684033021331
-151.570145085454
143.43693196587265
445.7361389808357
-278.4525476563722
-89.57650526426733
95.15241428464651
284.89576122164726
-226.8375300448388
-72.56737644784153
78.95358120463789
234.32122851535678
-288.4620084296912
-98.38243200443685
88.28219235874712
278.4573829639703
-382.12607315182686
-122.21934910677373
133.89749099873006
395.0372914914042
-470.36578051000834
-154.17376279085875
157.30959552712739
474.6943306531757
-509.0180669184774
-170.7108268532902
161.86168822832406
500.03921651281416
-464.21280630491674
-152.2103269379586
154.75333338230848
467.1543558258563
-387.30432889051735
-132.6803180463612
117.39705095626414
371.58590221218765
-288.223216496408
-96.73526609502733
91.27766944468021
282.71638007462025
-218.20082285441458
-71.55740466341376
71.90686196275055
218.6223071590066
-280.48645626194775
-91.6983509156853
92.65383450314403
281.65571216493845
-459.55561544559896
-159.36558515578508
133.11773457191885
432.526804195717
-727.7305808681995
-239.53460325673223
237.57131764478981
725.9002628158778
-958.1227359380573
-314.3534153737128
314.4173113293946
958.7988615799695
-1556.9342900328338
-514.527612188831
508.5920102018863
1550.7218425329775
-2132.536122046411
-707.9855158738792
690.4422361403704
2113.9353272654116
-1268.8036922812462
-419.6353122051805
409.48290953040123
1257.765410464257
-840.6211240384728
-282.1872640233487
263.5042826756835
821.1340920571238
-268.65538144111633
-90.52324530854821
82.90979404561222
260.7597588468343
231.188041344285
78.12833194807172
-71.91521542705595
-224.55600117519498
612.8606806863099
201.55993359908462
-200.81183922477067
-611.742637693882
784.7725112047046
261.35367891192436
-249.52958658710122
-772.015840170905
789.6146032698452
249.65018763951957
-277.4029444400221
-818.1818723417819
775.8501666467637
256.93435428105295
-247.98361115157604
-765.8726934697479
752.0938725322485
243.1555521003902
-252.73068933188915
-762.3322354163975
761.6210498064756
245.74504485726357
-257.0118314791471
-773.5669076927006
806.2457774113864
265.59517166763544
-261.4980417378247
-801.6764271743596
787.5708933193237
262.97523771971464
-249.31475164555013
-773.5186001099646
620.068585138768
210.32586690410972
-190.26671907491982
-599.2622390389442
234.13551831804216
74.02506798692048
-83.32144422270358
-243.71315234526992
-255.7755486611277
-78.88760189898312
94.17763644643128
272.5091232191771
-833.4971353188157
-272.1378037426621
277.24697812087834
839.4587647225708
-1268.3227316848934
-415.0807888004929
419.0266858264804
1273.3230979721993
-2124.438961653039
-698.2108374126256
702.9158877339214
2130.150647941977
-2655.7638068739325
-869.6298176962882
885.1407230682671
2672.1635744422674
-1578.735038580373
-517.5345745645463
519.5073851179332
1580.7068678736687
-1006.9799053538591
-334.1743227802217
324.1095916386694
996.8202884495258
-187.47873441502452
-57.46724822372198
69.94877825304866
201.36597287468612
624.1415482815355
208.1344821639359
-198.69860665127635
-613.620348315686
1434.1742766331881
471.830449514091
-469.9656436294317
-1431.919358432293
1998.8772343490273
656.1513912454247
-657.0385825056583
-1999.4085924644023
2235.5440401975065
728.2805478982627
-744.8029389828444
-2252.252712799236
2302.271122265607
753.8123166952282
-758.3273016232997
-2306.4361197371036
2267.3478326369077
745.186391538009
-740.5639276504517
-2262.7736324053258
2303.1484926547855
754.156801873818
-758.6914194449782
-2307.6791553292423
2237.668882863596
736.1933404635638
-730.6297218576074
-2231.338192621246
2001.7299694437534
658.9038477092981
-654.563449067995
-1997.4656540304422
1433.6577389966697
469.6444951426238
-474.18284251354635
-1438.660606013611
629.5265629850328
203.3997265957296
-214.06232720054686
-640.4817472621799
-195.5882064718753
-62.954373905435205
66.37554099410772
198.94239868409932
-1007.1057086959481
-333.0904073845595
326.1101771276444
999.5202704109251
-1584.1825568582863
-519.6987030394375
520.8397601563483
1585.9102659393102
-2667.098403731361
-885.4231060314924
864.6143358964473
2646.540955124423
-3124.072346560657
-1028.4788775146008
1030.3189912904054
3126.6889082342386
-1884.4949980136007
-618.9680297076702
618.311457933858
1884.3398881070316
-1205.502539979294
-392.2477660160512
404.44349595718086
1218.8057063482702
-249.5674115009606
-83.26528230123222
80.00138580799103
247.27847854420543
797.2308256290853
256.9505619183183
-271.2933925073594
-811.5258783623576
2016.7233140077442
665.2171181924641
-656.6143796369433
-2007.3409790322185
3239.7676499076188
1063.2277754247189
-1066.6075938940048
-3242.844463519752
4015.6228440478444
1326.5172176770866
-1302.7107421569526
-3989.9810533281416
4178.045132951811
1371.308899069205
-1370.8034276422113
-4176.524360775948
4335.627492658794
1423.8116507977247
-1422.411378795281
-4334.227141354233
4166.164389021695
1362.0371369086206
-1378.279240373522
-4182.975721241906
4016.038613013923
1318.8888047970831
-1318.8796432930976
-4015.386545902118
3249.5316337421536
1069.4527192413807
-1063.6397360581905
-3242.9515812657773
2005.7408205084503
651.2432483267039
-674.0399038493633
-2028.7927030380815
819.5703864935786
272.1422204785049
-262.69823843054473
-809.205383528024
-247.49548956751823
-83.19118614122272
77.40339692309499
241.2200052291155
-1219.4675148008391
-402.1428905148059
398.01122940238565
1215.321254667826
-1897.3014263743535
-627.1623337296769
614.3347595976666
1884.3236481109634
-3112.9481554357335
-1022.0804743999615
1032.3135525714606
3124.5221332525834
-3470.5940368101
-1144.8520078249276
1139.2729250174016
3464.3403755854815
-2128.685975501314
-700.754689084366
695.3884734101593
2123.6464941054583
-1390.391236614436
-454.97815348394215
461.5959082171321
1398.3380788862705
-338.26753126084805
-112.08343026787043
109.68770575709641
335.9307111557573
853.5767215471715
280.6961252409965
-278.58094321750104
-850.8676770590246
2288.023402262479
754.9517428018153
-743.0884605553001
-2274.565651021898
4026.5665509290993
1320.7179452627897
-1326.0343878027052
-4031.5158358495682
5960.065994521603
1953.384735390544
-1968.7198231816292
-5976.161292605102
6935.154340473935
2280.0335943643004
-2273.25252597034
-6927.573865476996
6531.563711060211
2142.2863796129823
-2142.562954356894
-6530.504398232326
6920.622932147235
2269.5563688147813
-2279.9288866128772
-6930.552421437576
5981.219942953438
1966.3844367619604
-1963.184559430927
-5977.518360178918
4039.1162807941437
1326.765131706372
-1326.2473706565797
-4037.9213459827006
2275.257780028507
747.6694335145876
-745.1265061320737
-2271.5224993294105
858.3348625535145
283.1331555740908
-278.16278147511184
-852.1965179089457
-331.389287780039
-108.06197097525
111.37412476539612
335.73006635997444
-1390.3831622069702
-454.2109123999253
462.91997830662876
1400.0322211757302
-2127.2220108285546
-698.431992277503
698.8377192374319
2128.5387161299586
-3461.03944281023
-1139.6849914360791
1140.769313853234
3462.731576703489
-3681.016238672659
-1211.3205023575574
1214.8072415534407
3685.0213476121426
-2289.6855446156114
-753.7184264212847
748.1343380957842
2284.3737184889615
-1526.57950293459
-501.2223906926811
503.45503995753825
1529.9059528037906
-417.27653372846544
-138.26362665370107
135.5097606536001
414.8263050802052
840.3857429567724
281.1402886491269
-264.04403468221426
-822.0451156776398
2350.230436587706
772.503047959879
-768.4211008772254
-2344.6214548591524
4207.924706418067
1377.976786583662
-1387.754501696676
-4217.234640715644
6983.594585560262
2299.2043203040957
-2283.1514596790075
-6966.35169852525
10485.391607712954
3443.8648183550686
-3452.1246523242444
-10493.445309631526
12735.857462272048
4187.9942628424615
-4192.044430911541
-12739.860073722899
10503.276566484943
3463.6769819986075
-3429.5181432254612
-10466.97037903592
6960.370334506035
2286.5407799798995
-2285.820363325998
-6959.387870950624
4227.279712448828
1391.780395560898
-1379.077841262333
-4213.3959704022855
2350.0362154357135
771.2933369837701
-771.0547605389729
-2349.089986158535
832.5690701138228
272.145764650777
-274.5219369996339
-834.3744660848752
-407.05704958643764
-133.6872349018231
134.87632669880986
409.23510907031596
-1507.763456851244
-490.29603952448815
507.01129975914955
1526.5027244649827
-2281.0978084541857
-745.1086290189996
757.491193253547
2295.1816685879603
-3683.120204861276
-1215.6083037285134
1208.440223175101
3676.5997832212597
-3752.62424127385
-1233.8194317724556
1241.2716584783047
3762.134722545743
-2337.04798088409
-762.7735777329654
777.30898508057
2353.325292132795
-1555.7703744135797
-509.9224019907415
514.5272175390273
1561.1202290169895
-444.9935663677752
-139.78993890620768
160.77659574523568
468.2599757295102
804.4024080801755
254.75492958538234
-281.79074372164905
-831.9415569212288
2330.840810161084
762.0670703351498
-770.1777317877859
-2338.782871220261
4416.766338126734
1456.8482461087406
-1436.8150881230831
-4395.467672357336
6585.733546311036
2160.410621775314
-2160.6130408756435
-6584.7077206633985
12752.60364124924
4190.931230712682
-4203.46344197914
-12766.120183482766
14402.245187560096
4721.451576674357
-4766.467697603628
-14445.38077685237
12743.809390833601
4187.378883813508
-4201.95282626804
-12759.558261417784
6594.846162024885
2167.8153651058674
-2154.741181468591
-6580.157380504534
4398.672527578659
1447.6027748091146
-1437.2833491954952
-4387.041688796133
2329.8750479025766
762.9667974375188
-767.1433498337865
-2333.3441191613674
812.4672441435978
263.9203183930367
-271.104059593752
-819.3378942348063
-455.8281550295651
-151.86040208116174
146.60301471315324
451.091049679555
-1582.8031950872391
-520.664402494207
520.1057494170964
1583.3495013909414
-2337.255342395976
-764.6223793821409
773.7556918179616
2347.960173258558
-3753.8900456652045
-1239.4464109661058
1230.833407368511
3746.2571776574478
-3677.687774380669
-1208.8623047955334
1216.5845262818038
3686.3505865447223
-2284.438714813441
-748.8429834526032
752.7898224052042
2288.949573997408
-1538.265749918297
-510.28150897845626
496.0358380731195
1523.1455210261047
-417.5499658603221
-137.9940832350403
136.83179105073214
417.6297828722745
833.4916398134083
274.701786166057
-270.29920814558864
-828.4235049653798
2354.164056740701
772.7958388961852
-772.1597959231585
-2352.83390635252
4216.918229402974
1382.0665898825973
-1388.5448654983193
-4222.986205227673
6960.143906252459
2285.9700671415776
-2286.945574056357
-6961.25185421668
10481.262860570103
3444.976816723123
-3445.5276273153722
-10480.94634636119
12751.858463910408
4201.9313231809065
-4179.661451640539
-12728.569404568523
10497.51893759612
3457.542935775593
-3436.6808902323246
-10475.909664957784
6936.548276413232
2265.564855253324
-2305.104653403163
-6978.048383659683
4217.3716833572835
1389.7072137659416
-1373.004646374844
-4198.62178795971
2352.8616899158806
771.3306622486562
-773.5971062611789
-2354.054303982295
833.900771073997
268.7630418399349
-282.7433308241889
-847.6207256102934
-412.37541041057557
-132.72744336444885
141.71801486052573
421.68989673256874
-1527.6207092395052
-502.9589517954737
500.45993469655514
1525.1733719334006
-2297.02633746434
-758.3078799378127
746.770684286952
2286.7659848798066
-3660.017548248172
-1195.6337626520544
1226.3699205042794
3693.538910366595
-3486.2509211096913
-1155.4720235075802
1133.6825002972037
3463.9064872451127
-2130.0973440054804
-697.523533500731
703.3225359749049
2136.458041353151
-1386.2996663432568
-452.58042457327247
461.94479524903
1396.2138281781226
-320.8969955611974
-105.00858816504478
106.96270162053406
323.6510622687638
850.9177070390433
279.03350717946887
-279.1409360934049
-850.2422957029194
2268.9697266388685
742.4949275646359
-749.650272468105
-2275.841040953994
4030.7518831156194
1319.3724982216954
-1333.095287019387
-4044.6444123126566
5962.104630202055
1957.8794752191752
-1961.6439823433757
-5966.357657682151
6940.519678251818
2282.3215412776917
-2273.8756787944585
-6930.901395337656
6525.026028681546
2137.0363757470623
-2146.771087310277
-6533.915953366086
6934.0685338974
2277.07740710862
-2278.3613316547126
-6935.040752056986
5962.506926489063
1960.109903268516
-1957.5307070715353
-5960.15737432614
4030.4774137735367
1322.5644647963345
-1325.806152052246
-4032.5451279440895
2297.1288284286857
761.1348142335191
-739.5674245702103
-2273.561790083535
859.7534106802195
286.2426055734977
-273.2967018680647
-845.4809998515993
-335.6111432798207
-113.3481642305851
104.29880607128143
326.1319245202467
-1404.1797434063628
-458.3192575844005
468.4296560995281
1415.2659073136747
-2114.0689741270617
-689.7148795239627
703.5534482309595
2129.7019673744217
-3466.2014922834933
-1142.2336535099894
1140.8733568415046
3465.5856059240177
-3131.6651598829776
-1036.156944282353
1021.7996228821576
3116.6057296916842
-1870.500478412956
-607.8433765694499
626.8934366889298
1890.6299884486943
-1218.410096919164
-398.59665079414845
404.476002689451
1225.1392375417054
-240.4812518376857
-77.66455618850887
81.90711621381342
245.22018340975046
807.9125313162804
262.00082619674504
-271.4506749436259
-816.5985534507781
2019.377290956676
659.7761125918478
-670.0874631050974
-2028.9498869162053
3250.9526518341154
1072.660529524088
-1058.5406893547624
-3235.7804171144962
3997.4815721176565
1306.0317916423082
-1326.7194465454668
-4018.764288045466
4186.117780727334
1381.6086246073246
-1358.0135977854952
-4160.901342025958
4339.220513891429
1423.0494299512357
-1427.3336537377909
-4343.108667296357
4157.278745117597
1364.796235841699
-1363.2566936099902
-4154.8358121989295
4015.6996358847246
1318.916054232046
-1318.641616333276
-4014.960976406932
3248.553570049815
1068.6014199415222
-1064.4446067158133
-3243.798368593678
2020.0141346547753
659.7663131216541
-670.8451549084857
-2030.662112264894
812.7062345845625
269.0225541424006
-262.03200408723205
-804.5856258813292
-242.6219670427963
-82.97357179224491
73.2102034278214
232.84080234263092
-1211.000816365704
-396.8021609643474
400.8455257108435
1216.1521015157923
-1899.8071572976187
-630.1668380238116
610.8382858457044
1880.2336830468848
-3123.171682779677
-1032.9336721990258
1019.8830100977793
3109.57576051075
-2659.0294199697673
-875.9082801155746
875.3183814026415
2658.2037045117468
-1576.2197271492332
-516.479985518381
519.1734545491636
1579.0434176754206
-996.3658262901008
-326.0367527473718
330.36667728982866
1001.7928363829851
-200.01151681132615
-67.34407301060855
62.205860724672675
195.26500332169235
630.8847513794899
216.4086353033781
-188.3694740049541
-600.7556724920869
1429.784858642146
469.2851906660944
-470.41590875573456
-1430.0174974538386
2002.3733395766467
657.6878814268857
-657.3132538776845
-2001.3082149978727
2232.7250420302153
734.7441440401599
-728.5049459757283
-2225.3848934844136
2289.25702102948
747.5859159883112
-757.9507158817723
-2299.434290501289
2270.4791545765474
748.6714477539062
-736.0300135035068
-2256.400153274648
2299.9598749578
752.0324560543522
-759.6809897748753
-2307.428687863052
2230.0084854504094
732.0008162176237
-731.4605724867433
-2228.8520764838904
2005.1963889095932
657.9069510344416
-659.6385509017855
-2006.19186463207
1438.3741649538279
476.418288285844
-464.58035125397146
-1425.3738604206592
624.7524558426812
205.34532044269145
-205.02675267495215
-623.8107588822022
-190.34875498246402
-58.49447584617883
70.76235252339393
203.98193922825158
-1010.1486446219496
-338.47333039017394
318.8441955293529
990.6774760764092
-1574.1387275247835
-515.8021114449948
518.7879518857226
1577.929784720298
-2668.858617686201
-877.5521494848654
882.117888495326
2673.8751583979465
-2116.4354975260794
-694.4974243398756
702.1115281246603
2124.5224981568754
-1271.1754109673202
-421.37491845339537
408.5599574763328
1257.8528539333493
-841.0703205689788
-276.8469931036234
275.20389012247324
839.9303270410746
-274.94837918691337
-95.00432859733701
80.08896755985916
259.4497130457312
238.1220043245703
76.6640890147537
-81.93381234258413
-243.45528013445437
598.408375069499
193.51181171648204
-202.7637547645718
-607.7690229229629
771.6021539717913
252.44850027002394
-254.38956047967076
-773.0010478552431
794.5077007682994
255.33147253561765
-270.66937473230064
-810.0605237400159
763.5645749997348
246.57917898893356
-256.87626220472157
-773.679595255293
767.2614847095683
253.6006208350882
-246.14870296791196
-758.7741691805422
770.4666324136779
254.52830795384943
-247.74006535857916
-763.2204644205049
813.7793463151902
263.2521770214662
-274.0491923233494
-824.9516270328313
758.8455589190125
241.37186661642045
-264.5409813327715
-782.9639730900526
607.9066000804305
202.9738113824278
-192.78917470108718
-596.7406135927886
248.46998273208737
85.02396097779274
-74.79500048886985
-236.83464899566025
-276.93743051448837
-97.19064283976331
78.02920145355165
257.88526686886325
-837.1058844882064
-273.5147275868803
277.87567862216383
841.904621841386
-1268.6791888601147
-418.55884746136144
411.74543312890455
1261.487754077185
-2119.5609539225698
-691.9388974728063
710.3651279532351
2138.654542904347
-1558.7017321866006
-512.5768148638308
514.543934032321
1561.0384805873036
-951.8397105708718
-304.78782830387354
327.47953997179866
975.6664331238717
-723.7120329681784
-237.5600900184363
237.3631782438606
723.3484512586147
-440.4367809277028
-142.85824976861477
147.5373847912997
445.31556357070804
-276.81984577700496
-92.08534089103341
88.11264191940427
272.83528959564865
-225.41711484082043
-71.8296534921974
78.66169972158968
232.69351816922426
-274.00416330620646
-88.14775433391333
94.78987605310977
281.68075430579484
-383.8814995409921
-124.7673857184127
130.5908764284104
390.9780255202204
-460.21572721004486
-147.42317501828074
160.63656848762184
474.51179804559797
-518.0001630773768
-173.99388719908893
164.34747427143157
508.45938351377845
-478.04506221972406
-156.42891624290496
159.87749459408224
481.60151743516326
-383.5644885133952
-127.325235363096
124.67720171716064
381.1489207819104
-269.3911235090345
-81.5963277714327
103.81051528919488
293.6885165749118
-238.98433823511004
-83.5822359379381
68.57570785004646
224.081772999838
-291.2480549933389
-98.14172252779827
90.46873567858711
283.7694498295896
-435.54601175896823
-138.25720013584942
152.37046243529767
450.9842024431564
-728.8344841045327
-240.30619259783998
237.14065180439502
725.8593458114192
-969.8620544532314
-321.19867001939565
311.7134230467491
959.5702860769816
-1560.776872661896
-515.8734465828165
509.4515938349068
1553.593934122473
-1033.0446423795074
-343.6459801495075
332.2665816396475
1021.0463363174349
-739.5760037843138
-251.4769500810653
223.7701587472111
709.7264434173703
-709.2317991126329
-229.7204532008618
238.5223057884723
717.4465135466307
-733.3818709515035
-238.80976520851254
244.7333684042096
739.5750332064927
-861.1532113123685
-279.3530993387103
290.7366417981684
873.9967334903777
-1050.8487004581839
-346.5050204973668
343.40455563366413
1048.0037697721273
-1257.9912495808676
-414.048145391047
413.22957927454263
1258.0399123644456
-1455.321722857654
-474.0499863428995
488.78886496834457
1472.3548884605989
-1601.1764847422019
-531.418704024516
517.2223734939471
1587.2217262461782
-1634.509412009269
-534.6564317038283
543.8337871171534
1644.65659574233
-1602.6767906807363
-531.1792246019468
518.9530257442966
1590.2297406131402
-1459.0881765848026
-479.12718692980707
481.9896818967536
1463.3173946896568
-1246.4039547331631
-404.0235089622438
422.3320353664458
1266.8186242384836
-1051.6509478013031
-348.35910103144124
340.4433846566826
1043.841999415774
-862.8053508619778
-284.6474411380477
281.18527092272416
859.4344071648084
-735.2736983583309
-240.17706601740792
244.11207585735247
739.8939383467659
-721.2709482922219
-235.0526705076918
240.46317988354713
727.3999276934192
-734.2741526663303
-245.7594767208211
230.68896454805508
718.7939322846942
-1017.4234740713146
-332.5409449895378
339.3218977190554
1024.5366176872049
-564.4151302650571
-189.09966001287103
177.92560203187168
552.971682747826
-553.0150668155402
-184.8764241747558
173.61107222363353
541.2010471522808
-729.7062904983759
-231.1161943282932
256.19529361091554
755.9488850366324
-1003.6216780859977
-332.348412707448
323.8673780057579
995.9079129770398
-1297.5361064430326
-427.80252003856003
423.05179855413735
1294.2549144364893
-1633.3439392410219
-536.4420089926571
536.5207326989621
1633.9862520508468
-1947.288757194765
-641.5668106358498
635.587856865488
1941.1860238835216
-2202.55564768333
-725.1883257217705
720.8614433445036
2199.6709512621164
-2353.1285910196602
-773.5010377317667
772.7064791377634
2353.964914314449
-2416.0558362631127
-790.0704721929505
801.3064473550767
2428.251740292646
-2352.1626469241455
-776.2539963936433
765.466332227923
2341.4299643421546
-2191.3898382429034
-715.2564118588343
729.7395762046799
2207.612577645108
-1954.0640341043472
-647.9471373017877
629.3535780869424
1934.8497543511912
-1642.502524775453
-540.5133257675916
537.2344791707583
1639.2937650252134
-1285.507895682007
-419.8807197371498
426.8576695858501
1293.8241721102968
-982.5345475743525
-321.0937509080395
325.51109551405534
987.9499063915573
-756.5831013172865
-253.8563607269898
236.60697028553113
738.6489733220078
-529.2911799342837
-163.03898435807787
194.54652385483496
562.3384155081585
-587.576688288711
-198.47796918265522
181.83087052195333
569.9224683910143
-299.4434540886432
-96.11432608403265
102.60765889286995
306.7068117130548
-570.8115446921438
-180.2723286487162
202.8126609902829
594.9561752974987
-1047.6811997089535
-350.54242405481637
333.4165791552514
1030.5205627530813
-1596.545886611566
-524.7960410453379
527.8511017672718
1599.8857999555767
-2165.1483792997897
-709.8044629618526
720.1755309905857
2175.9861185569316
-2727.1200076006353
-902.2663210779428
890.6585797853768
2715.209642363712
-3188.928474458866
-1050.5602589491755
1050.6548374705017
3189.002452839166
-3534.1286949785426
-1160.6730743190274
1172.113182740286
3546.7090328894556
-3781.057243938558
-1249.2475598733872
1238.583002912812
3770.206185651943
-3850.0092778243124
-1271.07152279187
1263.062509790063
3841.9203852070495
-3772.784422548488
-1239.9499916015193
1249.7259116005152
3784.116878577508
-3550.0796763291582
-1171.8436124520376
1165.24133738596
3543.7725668251514
-3179.1135891461745
-1049.1674457695335
1043.6346196066588
3173.388687632978
-2712.4673346043564
-888.0459203403443
905.3027728917077
2731.116144457832
-2171.2090890887193
-718.4162667822093
709.0068895658478
2162.1634213873185
-1595.043519856874
-526.4610551209189
523.266074675601
1592.4936068565585
-1046.4278881959617
-343.6923456795048
345.87294999253936
1048.6731510378886
-574.4275081148371
-185.4582305836957
195.27153034764342
584.2393882877659
-323.99119872867595
-110.77844495815225
96.76192863739561
308.73340084636584
SCALARS stress22 float
LOOKUP_TABLE default
-484.3920441195369
-582.2831269260496
-469.06594037634204
-495.585066890344
518.6209047324955
458.43240032717586
530.9990374173794
473.86444280669093
-384.97092090547085
-567.1321017425507
-837.0841677971184
-1136.0543098878115
-1466.8672794457525
-1787.5841914284974
-2030.3031206149608
-2251.4777776561677
-2410.939198067412
-2436.813195044175
-2415.8933295514435
-2241.4645542502403
-2046.293470300734
-1761.2012805957347
-1460.649736950174
-1136.0880933254957
-858.2836647890508
-600.025853831321
-390.8322854153812
-413.02223485708237
-586.5856320112944
-807.4031122662127
-1100.9452289771289
-1408.454484693706
-1687.7509543336928
-1930.4135900065303
-2146.0745194628835
-2254.1466463450342
-2314.0663071908057
-2267.650558995083
-2121.3374855071306
-1939.4473735187203
-1674.2843477423303
-1371.5066272919066
-1089.1234593931586
-797.6128550118301
-567.5783066330478
-353.8133949228795
-377.9372201269143
-567.0630674033891
-851.9008846718352
-1143.0643196026795
-1480.5819248608314
-1771.1128391362727
-2044.0349070401862
-2261.0835684239864
-2421.4230011273175
-2428.204186354764
-2387.3445017291233
-2285.84485189151
-2023.6538663525134
-1750.369234027341
-1470.081515174359
-1160.0724919680506
-840.3958766181022
-577.1232916563749
-385.06606318987906
-378.9945325162262
-542.0787217132747
-771.3364447448403
-1072.749267861247
-1384.6420105062425
-1718.8175178728998
-1951.4023849889636
-2144.7951238565147
-2260.5006933286786
-2327.5401147417724
-2264.3134955726564
-2133.0879851263016
-1926.2385569289327
-1721.037011263892
-1405.492585947737
-1121.5045929718763
-826.8513478413224
-542.0643998272717
-370.6895069628954
370.2565462589264
557.1674662660807
826.1494212020189
1168.9719801675528
1470.9892646875232
1797.1782851852477
2067.355480602011
2265.912950342521
2397.585226956755
2448.3209741879255
2377.952487779781
2296.570214472711
2109.4291025791317
1799.3223275374621
1503.0228406451643
1161.4439149741083
833.8415852151811
533.0234601162374
401.5586628988385
369.1248947214335
540.058455016464
800.6881486978382
1086.000240009278
1403.1196447014809
1708.9950704667717
1975.1992946686223
2137.591021506116
2264.565937089734
2323.505156993866
2287.0100534604862
2170.4235651735216
1968.2053678231314
1692.8787862272002
1399.033302942291
1100.0116228121333
774.2464115978219
521.1431437032297
391.7716427143314
375.38929356326116
600.0481785351876
852.6105834175833
1140.6025896039791
1481.3222754788585
1793.932046518661
2083.3553573945537
2272.266058557667
2334.7653839038685
2454.044000950642
2395.254726814106
2240.51363464538
2099.7682109642774
1839.3414681330323
1471.7861017975956
1127.1408894658089
804.4138771481812
574.3687276504934
362.358573095873
373.78016165085137
524.4636066295207
797.7771448623389
1121.2361164893955
1423.3978022746742
1677.9090936686844
1924.6063692234457
2112.7535599265248
2287.594932852313
2299.843123048544
2272.2253810204566
2157.175367211923
1945.921507762745
1648.9425160847604
1396.4901419952512
1089.7553519960493
821.8561052978039
558.6441017594188
358.6544821560383
-282.2959194481373
-82.72719020023942
116.10180591791868
315.96116815134883
-371.54018190689385
-163.9296379685402
42.38264803774655
249.23131360672414
-267.77170983550604
-68.92037324426929
129.3002348645241
328.69270708441036
-299.83501550741494
-106.78263974189758
85.34585552103817
278.3177247252315
-503.8249932602048
-968.4088903591037
-1752.9361068196595
-2657.4222789723426
-3629.7870354428887
-4527.105958338827
-5317.927277002484
-5924.364999094978
-6274.116791717708
-6414.792833542451
-6275.252557946369
-5909.556804617867
-5317.606888974085
-4527.412572978064
-3619.4297412801534
-2662.2481171209365
-1751.9234534408897
-978.8913205433637
-535.1470612231642
-989.8544783480465
-960.4523463733494
-1242.026740629226
-1657.1237112823874
-2168.9695983882993
-2711.799853382632
-3237.4110348820686
-3646.8629689775407
-3898.3184677083045
-4033.7091738544405
-3919.353672105819
-3667.8945327959955
-3215.2413819655776
-2728.9889942947775
-2191.6348368451
-1660.8741777166724
-1248.4324590396136
-943.43511255458
-989.5392327141017
-1782.6866600308567
-1280.8524498455226
-1231.7833147849888
-1242.2889232765883
-1422.6612460520118
-1722.2325872313231
-2069.4163922462612
-2392.2241151705384
-2611.2965276595205
-2680.288606379181
-2612.625340146944
-2383.567841425538
-2060.5986351817846
-1701.8759084362537
-1441.527322953567
-1258.6957841441035
-1245.5059954654425
-1267.9311317913234
-1793.6922299508005
-2698.538718117401
-1691.7069904878736
-1258.8177087306976
-777.7856904007494
-456.8444408271462
-342.1855482403189
-418.34377142973244
-566.3931475747377
-702.2408923190087
-761.1574734598398
-692.6081133782864
-566.9982885308564
-419.5234269183129
-326.1908113602549
-459.110828159377
-781.442839179188
-1268.6048215217888
-1684.091005191207
-2707.4313788861036
-3705.9062408283353
-2234.169771572575
-1477.8045462556183
-483.52019408904016
392.5698761548847
1077.0963994506747
1399.001735707745
1446.868520412594
1428.3232626896352
1398.4074994772673
1410.0412909388542
1464.4707610718906
1402.9609649442136
1083.1026272140443
402.57553756795824
-468.52719477564096
-1472.947452429682
-2237.152288014069
-3698.4215352870524
-4627.855885019526
-2789.0482469592243
-1785.808876035735
-374.1160388868302
1038.6477190610021
2455.8770928122103
3460.5331853497773
3908.9740599654615
4045.204512638971
3992.4635136947036
4046.2195431031287
3905.541947921738
3463.566731773317
2456.8233202807605
1053.964427612722
-385.4976451471448
-1787.6919669304043
-2797.4939449112862
-4635.033426843584
-5438.253324480727
-3328.57589966245
-2150.6479540131986
-495.7651030533016
1317.2911030724645
3420.6756099909544
5551.703408461064
6920.052866408601
7253.391716988757
7533.150113675743
7238.689490372315
6927.968431219459
5565.931694446132
3412.1950712371618
1347.5995834153146
-492.1147101614624
-2169.2533420007676
-3346.5546904522926
-5422.113025265746
-6040.287632171065
-3758.346471572295
-2478.93723882176
-664.9092388600111
1387.0786483958364
3855.4094036836177
6861.1964017264545
10213.465614784509
11941.577611250803
11318.336001792923
11922.749342741445
10243.594458917156
6880.69142584689
3836.7041447935626
1394.2349405940622
-654.3432117095217
-2479.8158666603267
-3757.4118720982224
-6025.374149539508
-6409.5245978832245
-4042.1542213112116
-2718.984112812206
-810.4867522753775
1345.9024857468903
3944.9600850287825
7142.810037929565
11908.158974800259
17950.012391963974
21808.495851917192
17966.138183560222
11873.637785739265
7168.422803983092
3945.309802046977
1339.1437384961173
-794.0827782861888
-2691.794194179587
-4032.77321224194
-6409.157915257849
-6534.740593150258
-4132.112198911607
-2773.5332606006414
-868.3210508711636
1294.0548310745507
3909.2187847681344
7474.3677694592625
11219.372979078442
21763.21129482612
24641.29228725843
21748.962413541973
11230.355787214823
7446.78014393989
3906.875168118626
1301.5191639903933
-878.7496219538152
-2817.041310836561
-4130.772099474445
-6531.848665685393
-6405.067162133753
-4036.3596877381206
-2734.3401614371687
-810.6541470177472
1338.3006503023207
3952.1637404970825
7156.811074396595
11873.444887209684
17940.499159788713
21827.07767252717
17960.37036312092
11845.701153202914
7150.676943894476
3951.2648881990463
1345.0570282936096
-806.1189686506987
-2719.9351590396836
-4051.7871190654114
-6381.814365404658
-6061.109140548855
-3764.4821898266673
-2473.3665338810533
-636.559945968911
1383.5523377731442
3828.85438750498
6870.815565068275
10213.202476393431
11950.005541238002
11310.408811682835
11942.071128885262
10211.606623155065
6867.750393372029
3867.740094780922
1394.2526064105332
-658.5208160933107
-2503.53455181513
-3739.4534653099254
-6033.290656670928
-5446.56834641844
-3311.4257296174765
-2170.3257035259157
-483.3232208862901
1334.180767731741
3431.5462206937373
5565.295527920127
6903.247872706503
7259.884626580402
7540.823937935755
7218.303067870438
6927.343973571435
5564.484491725452
3432.869059146382
1336.8431669343263
-482.3774931114167
-2157.00739893876
-3348.439478414133
-5432.518286515027
-4628.525152202696
-2784.9548917897046
-1772.1908370032907
-389.8308076635003
1044.1849418655038
2449.82521356456
3466.137698976323
3897.185045477003
4024.89382211864
3995.9001709232107
4042.0645758658648
3894.378768980503
3471.8332904800773
2460.208211648278
1042.5919306604192
-378.8653732808307
-1787.6370555269532
-2781.1416046135128
-4646.516389237251
-3686.464456796646
-2237.231534814462
-1483.5848172008991
-491.8439003955573
407.9899605046958
1055.8269593007863
1381.358735570684
1450.928289952688
1413.543914633803
1419.448154721409
1419.538163555786
1481.7284113662317
1366.1963962372392
1065.9009871650487
421.1164714070037
-493.3157533360645
-1479.01994728297
-2234.8852185225114
-3695.3393444200046
-2712.84665671736
-1680.7317943423986
-1262.8000692129135
-759.1409657411277
-451.44855199195445
-340.5924886930734
-399.04513751901686
-567.3253097441047
-688.9605574114248
-776.0624620122835
-716.262279397808
-564.5136740729213
-395.9079288719222
-356.17083101626486
-474.2390306144953
-753.5271624987945
-1270.1417971597984
-1701.2762456852943
-2714.235319613479
-1792.490059018135
-1280.5253304839134
-1221.0271608177572
-1239.942286869511
-1436.012975404039
-1733.4359892047942
-2068.5063487207517
-2395.305207430385
-2626.398446028121
-2688.2323333527893
-2629.8541374448687
-2397.967787941918
-2054.6906433375552
-1733.2602140405215
-1434.5892980908975
-1242.120649767574
-1239.4054929316044
-1274.9954176037572
-1771.791516462341
-976.7071921285242
-948.884147239849
-1244.6604769937694
-1681.9476923700422
-2165.00812096335
-2721.3760547190905
-3240.04731943924
-3663.560874134302
-3914.549474608153
-4023.888035985641
-3910.52033365611
-3650.801899488084
-3247.528397786431
-2736.0297024012543
-2148.492962403223
-1650.4630452655256
-1276.8793727590237
-922.2905519839842
-1014.5091836496722
-517.011291552335
-971.4264466688037
-1751.6515963356942
-2671.4289396014065
-3619.9810945503414
-4550.050607562065
-5323.627145020291
-5902.265131629072
-6307.933962595649
-6424.022437238134
-6300.129489433952
-5923.515467393212
-5305.119378735311
-4534.063082782552
-3623.685591382906
-2666.3491651401855
-1755.956286852248
-974.300243383972
-552.5416616743896
513.7126021943986
968.5292141474783
1740.8749357536435
2663.1064213644713
3629.8428902216256
4521.489881105721
5305.097558945417
5923.32018523477
6293.909044411033
6428.950567889959
6280.338149826974
5926.885900598019
5316.9570310320705
4534.358312988654
3615.263367485255
2669.47513557598
1756.9221751354635
986.5170481465757
525.2854321040213
980.8956843074411
961.7867845781147
1241.9399842675775
1664.189210679382
2168.1726143546402
2727.055837409571
3235.3355931155384
3655.239586343989
3906.595898922533
4020.685926310718
3930.844161046669
3668.3121574148536
3230.836413990706
2722.663674131036
2195.9382531754673
1663.9412276949733
1244.8306387886405
947.0825032312423
1012.2579622790217
1791.400408551097
1268.1289495360106
1236.9982628561556
1256.555781479925
1432.5368661694229
1706.8138568531722
2073.9435452427715
2393.9506523273885
2633.4993552025408
2684.0641434937716
2615.755889603868
2389.0103482026607
2075.284098215401
1709.983313350007
1446.4939814601094
1262.4265623651445
1238.7884252928197
1283.3260394763201
1795.2536070998758
2711.946538478136
1725.9777889940888
1248.0356982443482
769.3645886145532
465.12359153293073
352.04987381771207
408.6846351865679
582.0232077743858
709.3478415161371
753.0393516290933
696.0809466671199
550.8980715237558
414.09858487173915
327.1391289960593
460.7112785708159
753.0304738860577
1267.0176853872836
1686.0503776166588
2700.5098978523165
3685.079718697816
2221.294173512608
1456.7753631025553
474.89469196647406
-384.92790069431067
-1075.1528004277498
-1384.2215252444148
-1476.699972582981
-1415.6152245514095
-1409.9473046083003
-1422.914573321119
-1458.704915177077
-1387.7180841919035
-1060.6283459588885
-412.62806866690516
488.2158167101443
1480.615529352799
2244.078358596191
3706.416104719043
4645.8857386261225
2791.0239085927606
1775.3734610639513
390.8094357419759
-1025.9583585057408
-2452.8371516820043
-3460.1864693909883
-3925.536905746907
-4047.8165814094245
-3987.3248391598463
-4050.1990887168795
-3897.38974433206
-3459.2595019228756
-2462.5375973451883
-1065.4388100989163
388.69321292452514
1778.7676331624389
2800.449561268091
4614.83994182758
5442.377865705639
3329.273037325591
2166.123416127637
495.34812198393047
-1331.613597098738
-3409.670726614073
-5553.613038666546
-6890.854108516127
-7249.471110926941
-7530.195205112919
-7255.471376471221
-6926.219796152785
-5557.38808760792
-3435.8529049120843
-1335.2940792031586
484.9000829681754
2165.08234218508
3333.2746088253334
5436.1619766857475
6032.568003442138
3753.7733850106597
2489.337945604697
662.7416496220976
-1383.4693721923977
-3838.8528370931745
-6865.671748165041
-10231.096922425553
-11932.076011277735
-11309.68480726704
-11931.28283473663
-10238.788740258664
-6878.212946176529
-3830.8690128298476
-1385.900349820964
660.7675544628873
2491.355855804868
3760.5338595751673
6028.333198232576
6414.361740371212
4037.2967546731234
2724.3840902745724
808.4410675242543
-1325.3888505846262
-3936.7994406558573
-7151.9250048957765
-11889.02319120057
-17957.11729687825
-21812.29399733059
-17925.478121086955
-11872.42996594403
-7152.80865582265
-3943.278938258998
-1340.029190884903
797.8039455935359
2714.4386107418686
4050.0996147086844
6403.89702733513
6548.168633051217
4151.687760796398
2780.149360982701
895.804646205157
-1322.8354994077235
-3917.450326729566
-7451.232175543904
-11220.561488034204
-21778.462759703398
-24680.676644725725
-21767.1078534564
-11216.976129631512
-7433.646640009247
-3909.4166591679677
-1308.0196214346215
874.8434693068266
2819.6472290921956
4144.524699311703
6526.132883413695
6415.396714346483
4041.7931552883238
2717.3125836215913
813.1244557183236
-1332.2609944399446
-3949.8956618774682
-7162.933801138774
-11874.916741978377
-17938.299811843783
-21801.662832071073
-17937.27755098231
-11891.181402372196
-7128.555853191763
-3950.81036209967
-1358.5176337379962
815.9024603487924
2717.566692958586
4043.948682319373
6420.750010075048
6037.586791243404
3771.7660044692457
2484.270978225395
640.7700162995607
-1381.4932809006423
-3835.38984390907
-6885.34126323089
-10218.257540652528
-11937.879743698984
-11312.402547400445
-11941.97595374845
-10209.672739287838
-6867.585410645232
-3840.3715954059735
-1377.524439492263
648.0644288202748
2516.4897536514327
3758.574051976204
6034.095184048638
5429.955749345943
3333.5465087164193
2178.6432582419366
488.958082286641
-1341.446721304208
-3439.666361607611
-5547.93726667203
-6925.488031346351
-7230.438923681155
-7543.109627575614
-7213.146808094345
-6925.338901082985
-5558.454108875245
-3442.6171405268833
-1326.5310643771663
472.5103681292385
2164.310646386817
3328.367757597007
5417.7370446641
4627.1139615383
2787.9755317233503
1779.6296237073839
385.87831789441407
-1009.990273129195
-2448.2694805730134
-3463.560427442193
-3887.3501932537183
-4034.056754620746
-3978.1572504891083
-4048.614405796863
-3891.681414956227
-3471.087671193294
-2444.8375621167943
-1040.3971189837903
395.1841834746301
1768.4703256073408
2786.475074137561
4652.3776251072995
3695.354387132451
2222.781862197444
1483.4129176903516
475.16845709085464
-413.400361334905
-1065.2454388085753
-1381.4857855346054
-1466.5796518605202
-1422.7979034632444
-1408.3652782989666
-1410.9279232807457
-1493.403852677904
-1392.0055304728448
-1052.6875750999898
-406.6164447646588
474.51664783945307
1484.665555773303
2226.923737158999
3715.7068342464045
2715.8601539433002
1706.710991203785
1262.072707882151
764.4353779461235
447.4039132054895
348.82389827631414
409.01785025559366
577.2615817580372
705.7210563933477
767.0220162589103
720.4053377415985
562.8693111222237
424.5661212671548
341.58721092529595
467.25702894246206
771.6285984222777
1267.59552304307
1689.431118487846
2705.456734218169
1779.0912423320115
1246.4397735018283
1228.0857584942132
1246.5954597312957
1451.8266449477524
1731.2350083012134
2070.345816745423
2416.9831667188555
2613.1946467980742
2700.5606246730313
2617.273366508074
2405.085075361654
2079.3530155224726
1725.7697287844494
1431.4644023627043
1248.1565779214725
1246.992330858484
1258.6569269190077
1779.5545864147134
964.7438966762275
935.8558264747262
1273.218226896599
1675.687030216679
2164.661084106192
2723.4155482482165
3233.9030988020822
3663.544619205408
3918.9243491645902
4038.1701144147664
3900.3608677759767
3670.6194726545364
3227.12559849862
2733.4124884027988
2159.586135520134
1657.9126430591568
1257.5708727987949
958.4749552486464
994.8231784517411
525.6799039319158
998.7350947130471
1734.42138838768
2675.358148863539
3631.8311620131135
4537.566763646901
5323.653199041262
5917.418363318779
6296.545053721406
6415.702493062243
6314.585752315819
5918.02399526909
5299.1011082250625
4555.44060301315
3615.4761779173277
2665.067526096478
1758.3643829028588
984.1563362665474
534.8506094051991
-230.35026275739074
-80.95288635417819
66.65347755327821
215.92609363421798
-336.91524141281843
-114.59290697798133
105.03622632287443
327.2290618587285
-496.5300806071609
-167.73655927740037
157.04394849203527
485.77122656814754
-664.8972742725164
-209.6998195629567
240.3281022273004
696.3050803244114
-865.273566050455
-284.7754359971732
288.5903467144817
869.2065905481577
-1053.6947646960616
-345.4781732764095
354.11033873446286
1062.659189477563
-1191.721270725131
-382.4935523122549
417.02905722893775
1227.120605153963
-1326.0649380963296
-433.4950133934617
447.9092182479799
1340.494056781754
-1425.7501800525934
-475.53312542662024
462.726633425802
1412.7805192451924
-1436.7126817181706
-471.7684009540826
481.4169591553509
1446.992438113317
-1433.4305306170136
-486.017640799284
449.3215189650655
1396.3285855669528
-1312.9393274281174
-416.83713322505355
468.60452528484166
1365.8331314269453
-1195.9451152309775
-375.14857119880617
435.86451324261725
1257.4835048448294
-1032.176522117108
-328.7594652418047
366.033646652475
1069.745759377256
-854.6482568774372
-269.4048895984888
309.0933733675629
895.2571634352207
-666.0766299404204
-212.18657303787768
236.35545215383172
690.6637310180813
-511.6044485103339
-176.90630148723722
153.6190892904997
487.9461751021445
-366.9941629730165
-142.38154726848006
78.9908881150186
302.38483770750463
-229.39188597537577
-72.96919203549623
81.97506216168404
238.9860591031611
-252.620910147205
-97.75672307424247
55.11431362479925
209.56014285422862
-355.39191800542176
-132.45984043180943
87.52538364380598
309.9406235329807
-477.9071349259466
-160.20586932450533
153.48690253309906
471.2047354001552
-652.1733229905367
-220.02282107062638
206.33894474990666
638.0734710041434
-831.3819098956883
-275.85653518140316
272.15442109294236
827.1407615896314
-991.2227634284645
-320.56652538105845
341.3362709507346
1012.1605342496186
-1129.8633691743016
-358.99712389335036
401.97800000570714
1173.4706624122337
-1267.2514292728156
-421.46257592272013
413.0777544211596
1258.8363919891417
-1326.9789398917928
-434.83363338559866
445.39214000757784
1337.5144454343244
-1362.6819109097123
-447.0370558835566
456.45938380341977
1372.115866872482
-1333.9678229074925
-435.0450233537704
452.28848847653717
1351.9346095882356
-1241.7674343064427
-394.8390002558008
441.2780032604933
1289.1058392934501
-1138.329734574072
-366.93378753680736
394.4866228606552
1166.296061602421
-984.1462362837046
-319.55050944304094
336.52749997843057
1001.6759004467167
-803.6408343934454
-256.7767473710701
283.0983063331805
830.3836065651849
-640.7536247265525
-208.54599167173728
218.28959106374532
650.8896554894745
-475.1337350211106
-164.50296678137966
142.02691105753183
452.38168124947697
-343.59022268117405
-127.93593240180053
84.55227863951586
299.18147903867066
-201.89084504259517
-54.84639509982662
90.79599035670981
238.52430616284255
-223.47788858960848
-74.37669585470576
72.80003908410436
221.5765579341096
-328.7009599332232
-98.12619818467647
129.93945648195222
360.9196405126713
-503.1137588280253
-166.14700627536513
166.8267499601934
503.82625775341876
-675.118137861602
-223.64527345076203
222.13378791324794
673.3110359497368
-873.7321077804081
-288.25445762230083
289.8699905271642
875.0751340300776
-1041.055528077297
-336.71594507433474
358.9506214489229
1063.4954844238237
-1199.1197292497382
-383.7881522634998
421.64317514095455
1237.4815425956622
-1332.7575886035338
-437.1532491389662
447.42281035892665
1343.3326692683622
-1445.5845956848934
-505.14275083038956
422.7744837999344
1361.7691719792783
-1428.8429709170014
-464.5388766573742
488.09072520025074
1453.162447186187
-1408.0751006910577
-463.3349558347836
469.81623283587396
1415.0247456831858
-1357.7831629412249
-462.9808606626466
420.2302211308852
1314.1745192119852
-1180.4983084378764
-366.4276771899313
438.2269397508353
1253.7504635928199
-1016.8277700059116
-308.3086528740823
392.2680219169706
1102.4842462576926
-867.7905652299523
-286.51748460903764
287.659983349964
869.1188202649355
-691.2481301967055
-238.95487759634852
207.55739722587168
659.3343609124422
-503.3511835709214
-178.15153760649264
142.95775544270873
467.9051832575351
-341.8131187595427
-114.29350502602756
110.69064777158201
338.49317688681185
-231.79022956453264
-83.85661630891263
62.17389237321913
209.78657527081668
-224.9063931275159
-76.04308151081204
71.05263322032988
219.85806440748274
-323.5355152375996
-112.80359195545316
95.29577160440385
306.0208235066384
-450.25391548126936
-140.5825451295823
165.40885061584413
475.6412761416286
-623.7835756577551
-190.83002228662372
236.9604732133448
670.7240317296237
-809.6308797821403
-255.4869477134198
291.8377039693296
846.8141824454069
-1021.5589455682784
-350.5035866666585
311.4362281728536
981.8867175150663
-1156.2239947672933
-390.9043780192733
364.2515427581966
1129.5324800014496
-1271.2659704610705
-430.6827414445579
398.68406394310296
1239.2603402230889
-1328.5199959538877
-431.0626518577337
455.00516270659864
1353.5294870585203
-1377.8849995080382
-464.09923902340233
437.3767352104187
1350.8380204960704
-1334.0611325968057
-438.58945199660957
445.19908272475004
1341.1136129479855
-1253.4080210942775
-406.5573667958379
429.28783318027854
1276.6187477633357
-1132.3890541158617
-368.1521112229675
386.19895477965474
1150.9996307864785
-1028.9302594996989
-363.0807909090072
293.55374917946756
958.5452013053
-830.8753007631749
-277.51293012313545
268.60651457868516
821.9468083400279
-667.7612978126854
-230.7438488919288
200.45191975682974
636.9899915996939
-489.04063940793276
-163.2026307247579
158.53412819094956
484.2682313006371
-316.95843406021595
-99.5953590143472
115.26839366555214
332.94158988818526
-221.07986875623465
-76.73945640027523
65.73463610559702
209.75046982988715
-290.7906383667141
-92.0128274448216
101.87878674268723
300.67504673078656
-565.0155906211585
-185.51401062309742
185.77698213234544
565.2413838393986
-1028.1408654283732
-341.8093810901046
331.1296707484871
1017.0073077641428
-1556.1830752827227
-510.5936189815402
515.8733531609178
1561.6223227903247
-2128.412228031084
-701.1611401177943
700.5842522066087
2128.0523067340255
-2655.4689958635718
-875.94080520235
871.6426366623491
2650.753980403766
-3120.8133080843836
-1031.4575280584395
1020.5007513333112
3109.224862895906
-3475.309081936255
-1145.6011040303856
1143.067160377279
3473.2796703446656
-3677.3152885846794
-1206.6225753165781
1221.0962815042585
3693.5727530736476
-3760.5905253514647
-1235.4387406539172
1245.596583750099
3772.1030285116285
-3680.5108705833554
-1212.0797034017742
1213.1874639373273
3682.9537696242332
-3463.739397637546
-1136.7174732480198
1149.7483845725656
3478.215093616396
-3119.1516985036433
-1027.9830509126186
1026.262802047655
3117.797619409859
-2653.6104188598692
-871.7562163937837
878.3828770611435
2660.357181608677
-2123.035741854459
-700.7164732441306
696.0949470438063
2118.577302945778
-1559.2444617450237
-511.66902869939804
516.9909879583865
1565.2130117435008
-1025.0424264948815
-336.18470930308104
339.73507033474743
1029.0876454096287
-570.3275282196701
-185.43686859495938
191.4917798601091
576.9221969544888
-312.76343172974885
-105.25993374735117
96.97682583890855
303.9465127401054
-579.9138540755957
-193.76551140472293
184.27986807189882
570.6194953247905
-557.6611790787429
-182.414844783023
183.4508243445307
558.8217543438077
-722.238233435899
-236.82552060112357
236.8118493836373
722.2156551107764
-963.4634029399604
-314.29347586259246
319.7744465339929
969.4841220546514
-1263.1595029011369
-414.6013016588986
414.26821993663907
1262.690037805587
-1577.2173568774015
-512.8914209790528
527.3779026661068
1591.9723664913327
-1887.5814178287983
-620.5737754330039
618.027262121439
1885.1941649019718
-2125.5316743608564
-696.5885995402932
701.0361492764205
2131.309231536463
-2271.971703886986
-744.5182297956198
749.3312498684973
2277.952812463045
-2354.627240339294
-777.568994384259
764.4366048257798
2341.5336281638592
-2283.6906036343426
-747.2082978468388
755.5455246735364
2293.0907855704427
-2138.8164376728237
-702.7054897621274
701.630951853469
2138.2398720681667
-1871.7180345915258
-610.4711563587189
622.8626314513385
1885.18827018328
-1591.55401253514
-524.6052491944283
518.1440399009734
1585.1326931901276
-1275.7697206083685
-417.3448809199035
421.4018114991486
1279.9228215944022
-966.1615752913058
-316.20918079279363
318.4796272851527
968.7248958088458
-726.6645033620298
-239.42973656579852
235.96165468916297
723.159019395709
-547.0990559048951
-178.21274055354297
181.3559488914907
550.4266922753304
-574.5283769723028
-182.92166365124285
201.16242668777704
594.2910016234964
-1043.0881737545133
-341.337502643466
347.6415099967271
1050.2039751764387
-747.5629676394165
-248.97402276471257
237.55487225577235
735.7052317000926
-716.7143102474511
-233.70071467012167
238.38929998874664
721.5953578911722
-722.0221426859498
-233.6761910431087
244.14258952066302
733.7750654220581
-828.4445467721671
-269.77386336028576
276.99477086402476
836.5648534987122
-1007.6845739744604
-335.4959146268666
321.91128402389586
993.4814634174109
-1208.076688002795
-396.10998179763556
399.0406086985022
1211.5432009603828
-1398.4734802711755
-460.7285942658782
458.2036912608892
1397.3694139942527
-1523.0340689122677
-495.5186249241233
511.7456025313586
1541.2605745811015
-1565.6544947326183
-514.0924680121243
515.9716169834137
1568.1653911881149
-1526.542953249067
-501.7021497860551
502.333692913875
1528.004594117403
-1392.003232639283
-456.6817531250417
459.56790968589485
1395.749760903418
-1201.4476530402899
-391.3139952402562
402.3614326585084
1213.7204415705055
-992.8254499007016
-325.07570184767246
328.9478403106332
998.1197683978826
-840.7538024429232
-275.7012323513627
277.4417045917362
843.5867808200419
-732.8327599372715
-239.59129537642002
242.53678130172193
736.053709320724
-726.3162154592574
-239.78596434369683
235.31213863380253
721.1122218798846
-735.1364332549274
-236.62596365064383
250.3388776462525
749.4305354487151
-1050.988643432036
-346.2803345322609
345.617155559361
1051.094155119732
-1580.501562045887
-517.3850424587727
527.193143600598
1591.53702009283
-980.5146270021796
-312.97420905157924
340.3532770574093
1010.2270668763667
-735.7757814750075
-245.1130620855838
234.4427175130695
725.0810608398169
-453.9415679089725
-151.54797836393118
143.4580135960132
445.75044770538807
-264.38884676620364
-84.84660281613469
90.548988385126
270.96435246244073
-197.97599763795733
-62.86521902680397
69.4785817116499
205.69085104204714
-246.28976218402386
-84.27809444256127
74.29926202073693
236.40764365904033
-329.35514977760613
-104.53200183995068
116.47427190840244
342.5252549313009
-410.78036566637456
-134.1602075919509
137.71927815862
415.5260263476521
-447.2096696551889
-149.7845810893923
141.8999727535993
439.2393771763891
-405.0681877695024
-132.56389421969652
134.874375782907
407.7536411136389
-334.5737156793475
-114.94880268163979
100.1068377867341
319.2966127768159
-246.01863177493215
-82.60215732082725
77.31586440838873
240.6762411557138
-189.3374489583075
-61.82527659460902
62.50218219868839
190.1003295518458
-266.4644301813096
-87.00656107440591
87.99881193600595
267.6607460025698
-459.4889489058405
-159.29084808193147
133.19795541279018
432.6166777573526
-739.8835417740047
-243.58015251904726
241.63352522067726
738.0619413051754
-980.8597944676876
-321.8944487683475
322.078519936651
981.6546886190772
-1588.4303485490382
-525.058774355799
519.040180714801
1582.1198330726475
-2177.095039622858
-722.8776714280248
705.2338209692389
2158.384624771774
-1304.0240434035659
-431.3971966858953
421.1921117361635
1292.9298839904368
-866.0910764131695
-290.66497493721545
272.03403241559863
846.656740643084
-282.68635401688516
-95.25507788173854
87.48401000350714
274.62526173330843
231.19902094453573
78.18263161741197
-71.81839534826577
-224.40774258039892
629.3001867774874
207.07091720961034
-206.25669190101326
-628.1195949576795
817.9568474069238
272.4729862846434
-260.49535913206637
-805.0462897140533
837.0171677656472
265.56221305951476
-293.0087484270334
-865.2797233313322
832.2447641789913
275.9647178184241
-266.35268195718527
-821.6074197776616
811.3259694389999
262.9190342333168
-272.4749368466437
-821.5638852585107
817.8865236490965
264.6289578601718
-275.5302729997784
-829.4610096178949
853.4149876832962
281.40792117267847
-277.0724111869931
-848.6115367226303
820.8541941680014
274.181574633345
-260.19134231097996
-806.4522206746042
636.5747234169394
215.88860253617167
-195.65138259716332
-615.5820883270353
234.1558535732329
74.05508176423609
-83.28008319437504
-243.6617915276438
-269.74014945328236
-83.5106165278703
98.90540746040642
286.57643157057464
-858.928190080449
-280.59355696476996
285.7722772117704
864.9574904255569
-1303.6720771957189
-426.9012412317097
430.75056746415794
1308.5667484886944
-2168.8606495726854
-712.9227920919657
717.9463813956827
2174.8966594152153
-2712.409960914403
-888.5582391601056
903.9552830010653
2728.7023506872356
-1626.0294345561415
-533.299111360684
535.2912151217461
1628.0218994598836
-1045.3432957977057
-346.9847291726619
336.8565863724798
1035.1170925162733
-216.1324736904353
-67.02214324660599
79.51578159444034
230.04233268462121
607.829822158441
202.69074395485222
-193.2625065036118
-597.3113646097481
1434.1545379273593
471.81594308651984
-469.973348332569
-1431.9151461105794
2018.915804138407
662.8876443710178
-663.6234045159072
-2019.302030839026
2275.5183066129684
741.7685645800084
-757.829035885632
-2291.76262104325
2355.8713296428323
771.9594761952758
-775.6698099616915
-2359.227342715487
2325.5985620580614
764.8314269054681
-759.5656650681049
-2320.3887546453625
2356.567716047168
772.1455894839019
-776.1717479210347
-2360.5904339607805
2277.5258403476328
749.6023732107133
-743.7126510832459
-2270.8916896600276
2021.893115464598
665.6779181994498
-661.1873517278582
-2017.4774291068316
1433.6585670057684
469.70213495381176
-474.0700597539544
-1438.4907911662012
613.2186638750136
197.97373434528708
-208.59030176885426
-624.1236882638186
-224.2550792582333
-72.52111855149269
75.9216833692044
227.5847330763936
-1045.601087924093
-345.95973597466946
338.87396930903196
1037.905996646732
-1631.3700740970671
-535.4168674983084
536.6177239250392
1633.166837072
-2723.8030443694443
-904.3764827027917
883.4388952348381
2703.115334711969
-3190.918325798586
-1050.7922017611563
1052.590874986723
3193.5053484085947
-1942.1050007659942
-638.2277172449976
637.422723442316
1941.8051845133305
-1255.1647807657719
-408.8190239444375
420.9865318313241
1268.445826323703
-291.7250463590026
-97.3567621205002
93.99932675994933
289.34635466896
764.0101752504706
245.8245756532997
-260.3114711884409
-778.4513432849199
1996.791007688269
658.5837548002601
-649.9354912191629
-1987.356013039127
3239.739633316174
1063.371817683801
-1066.284307911992
-3242.3297499082983
4041.3268513455987
1335.0615828596056
-1311.3471449445933
-4015.7824357673526
4227.022352863103
1387.7880074512213
-1386.873524805531
-4225.112413754687
4392.783735122532
1443.3429924566299
-1440.5315842609853
-4389.943188143894
4215.625719681382
1378.8957891408354
-1394.057959554717
-4231.3472481984645
4041.606099229306
1327.377412982285
-1327.5028393995017
-4041.117214517668
3249.7971921227872
1069.6639803107828
-1063.4767619855702
-3242.839140545577
1985.6773707345128
644.5091765299439
-667.4357471950352
-2008.8667121641338
786.4395122695714
261.1211743336171
-251.59039996378124
-775.9826834890991
-289.555466436781
-97.21259251609445
91.44033903256059
283.2921013329178
-1269.0669222557917
-418.68689706735313
414.544335517101
1264.9168981229886
-1954.9122657012194
-646.3770758351311
633.5470827557147
1941.9326901156455
-3179.8903043000028
-1044.4440247826278
1054.5547894071788
3191.3293542480096
-3545.1714287884533
-1169.7574849464
1164.0775598753244
3538.8139026407152
-2194.10819917731
-722.6307520959526
717.0815646480769
2188.8851514346898
-1448.7472298052162
-474.48996784724295
480.94027502276003
1456.5247774925083
-390.8909764550626
-129.63507954590023
127.23945923149586
388.56582298502326
806.3719590269029
264.8443959057331
-263.0544743947685
-803.9846651628613
2248.2337837554514
741.6426500380039
-729.8920808173716
-2234.883119730279
4000.738264121115
1312.007168341428
-1317.604360686615
-4005.972572499886
5960.0167550016195
1953.34447834827
-1968.7532493118197
-5976.193273475394
6968.710830688477
2291.3154959548265
-2284.2767456863075
-6960.860330332071
6589.386356439441
2163.2346969656646
-2158.576827885583
-6583.406164918095
6954.30025892891
2280.9402343407273
-2290.871333548799
-6963.783327730373
5981.235279243439
1966.4176848400384
-1963.1341987010092
-5977.4533016346395
4013.3473427779973
1318.1302445773035
-1317.7233832608908
-4012.2605257239193
2235.33698267024
734.2571043372154
-732.0035395082086
-2231.890859765932
811.0031973570585
267.2947347173467
-262.4756981879473
-805.0104074291885
-383.8955414677039
-125.57456815429032
128.87977351062
388.23212075512856
-1448.6603608839214
-473.6355189345777
482.3803058452904
1458.3493681857362
-2192.5749003021047
-720.2309694532305
720.6276413286105
2193.888121366501
-3535.494171771221
-1164.4977498985827
1165.6483915224671
3537.2603732487187
-3760.3959703911096
-1237.8545240573585
1241.1522712986916
3764.2129200026393
-2359.952304519713
-777.1926480457187
771.4860175177455
2354.5284616257995
-1590.2033280208707
-522.4753631297499
524.5990367606282
1593.4231477100402
-476.65541353449225
-158.14489689283073
155.15837049111724
473.9747197907418
784.1241927985102
262.27207452617586
-245.49025037884712
-766.0940928421915
2296.7890490181744
754.5143810864538
-750.9282851293683
-2291.680309213698
4158.647396599874
1361.2704985775054
-1371.8396258633584
-4168.746211057529
6950.077906416729
2287.865478431806
-2272.278284745291
-6933.311773240566
10485.657292935997
3444.0869062393904
-3451.9317237157375
-10493.272075379267
12758.49573582597
4195.575480153784
-4199.55287755467
-12762.431613806635
10503.20698235929
3463.6835630498827
-3429.4377593714744
-10466.818612642586
6926.872644129209
2275.250975240022
-2274.8669385770336
-6926.2310361638665
4178.1596958832815
1375.1760210329667
-1363.115934241563
-4164.914548557252
2296.567177006975
753.3349013607949
-753.4594972245395
-2295.9757303660735
776.3634274955839
253.30883815977722
-255.95523014757782
-778.4350322913378
-466.47633521817625
-153.636539070867
154.41446190979332
468.2281758496538
-1571.470606699586
-511.58216952346265
528.1772957015783
1590.0867641251534
-2351.3208903800696
-768.5580559922382
780.8522589243948
2365.3153725890443
-3762.4185088248923
-1242.062409831211
1234.8699537562206
3755.877152211033
-3833.61700749211
-1260.878049934283
1268.194586565718
3842.9931120872498
-2408.9373872373253
-786.7860551532358
801.1942259091884
2425.081132205203
-1621.316519452259
-531.8504012543708
536.2482016868889
1626.45443540439
-506.628474034369
-160.44785273075104
181.1253549270332
529.5899854339659
745.0033741425723
234.84407084435225
-262.1822393555194
-772.8433543927968
2272.576124066487
742.4108550380915
-751.1876370348036
-2281.184997363016
4360.087393850088
1437.7073315158486
-1418.3749116603285
-4339.493945367634
6527.947765015066
2139.533782036975
-2144.4887988027185
-6531.652643032372
12729.984212474898
4183.419937286526
-4195.8306449931115
-12743.370569188148
14402.262161362916
4721.461039792746
-4766.466467443854
-14445.386449137703
12721.190033921972
4179.789773409255
-4194.482836132869
-12737.069232492708
6537.12157363072
2147.0053579844534
-2138.544286740944
-6527.021952571347
4341.682378549129
1428.2313977675512
-1418.9957263804972
-4331.152884692885
2271.7756341462955
743.40858885739
-748.1173325097188
-2275.770262409933
753.1108282068744
244.02364192344248
-251.50409543793648
-760.278955258429
-517.4570259451866
-172.48727736342698
167.0052889995277
512.4962200922891
-1648.274767219089
-542.5543350614607
541.8337137410417
1648.6626395396888
-2409.145654199645
-788.6151781575754
797.6900690030307
2419.7901693144813
-3834.7698635635898
-1266.422486868687
1257.815587461926
3827.1426017861813
-3757.0198032557964
-1235.3641319032758
1242.955980392173
3765.5441940166056
-2354.7386688552797
-772.344820227474
776.1173530034721
2359.0717782117426
-1601.9659500159323
-531.591093108058
517.1461443863809
1586.6481639314443
-476.84857530519366
-157.8101812824607
156.52897948399186
476.814141061157
777.1829309351742
255.79149382933974
-251.77946618758142
-772.5046485010535
2300.7085699606687
754.8158219382167
-754.631930636242
-2299.8349793814123
4167.617852790281
1365.3282445278019
-1372.6849733293056
-4174.578505015001
6926.630488969386
2274.7326519768685
-2275.877956442535
-6927.908636553213
10481.346116328612
3445.0385896321386
-3445.4855751041323
-10480.920214623213
12774.471552737057
4209.50112155173
-4187.1691777212545
-12751.125208119862
10497.504381704144
3457.527129006572
-3436.6960137011483
-10475.929403353482
6903.055781641975
2254.3287999508902
-2294.047834534198
-6944.733564490452
4168.167199289426
1373.052598228678
-1357.0618598181754
-4150.132600580342
2299.4207481713966
753.3379824692383
-756.1036861538887
-2301.112470167689
777.6560420012102
249.9100145213306
-264.1719971662387
-791.6587023185566
-471.7172806095332
-152.5872045001015
161.37484835553914
480.82850862666965
-1591.2635736614466
-524.2112160697579
521.6338637955487
1588.7430161982775
-2367.271150548011
-781.7659429656342
770.1355128884315
2356.915891280398
-3739.3170195920393
-1222.0983250141144
1252.7859928496182
3772.7879746304825
-3560.7920978162438
-1180.3648826479912
1158.485427994281
3538.361774433404
-2195.568307764828
-719.4180112536997
725.0416378378868
2201.7565762139857
-1444.599738508463
-472.0614155083895
481.3078889604658
1454.397758230567
-373.5859964005649
-122.63682435452938
124.4191270750016
376.17827519215643
803.7061116676778
263.2125869765878
-263.5377841684967
-803.2421206701547
2229.0492390114814
729.0909282471985
-736.5121808480471
-2236.1890350412577
4004.8840424232185
1310.637697884813
-1324.6802022550255
-4019.1039090324193
5962.151446115226
1957.9363333508372
-1961.5805162526667
-5966.2859318535775
6973.967524702661
2293.531097968109
-2284.9376415759325
-6964.205083915032
6582.980973512866
2158.1111339945346
-2162.662935303524
-6586.695690964349
6967.696873795241
2288.431978543289
-2289.3156565390527
-6968.2682791361585
5962.469627216458
1960.0991524057463
-1957.519755131565
-5960.125572762452
4004.72888380941
1313.9322374882177
-1317.2993187587708
-4006.923077507876
2257.266263047233
747.7702979855239
-726.4012615280226
-2233.895043701865
812.5530510963872
270.4333677487448
-257.6912315143272
-798.4850350627676
-388.3226539567113
-130.97629271168262
121.77565513085574
378.68696950841695
-1462.4647812088951
-477.7890581237152
487.80338475015014
1473.4601160446182
-2179.473398112692
-711.5491896057501
725.3253161413595
2195.0479712188244
-3540.7304116804153
-1167.1016545761377
1165.7085910486057
3540.083608329296
-3198.5539318732917
-1058.5139556340873
1044.0169074833393
3183.352435702458
-1928.1424406021833
-627.1085387691855
646.0290833581239
1948.1468875501305
-1268.0752350296825
-415.19237045384943
420.976570552215
1274.706744030118
-282.62876513414085
-91.75716558843851
95.89425666816533
287.263912666589
774.7205064855516
250.8937619123608
-260.4526053313166
-783.5113194584846
1999.3764733225107
653.0909778047353
-663.4443090390414
-2008.988763814792
3250.9801977407187
1072.6909748837352
-1058.510342720896
-3235.74666508846
4023.282518537715
1314.6953037399799
-1335.21575579606
-4044.399678327143
4235.480137720704
1398.4039853755385
-1373.8318533431739
-4209.286865185946
4395.9988577421755
1442.2495430493727
-1445.7618231298402
-4399.113810970448
4206.576468429528
1381.5434401398525
-1379.1042997408658
-4203.232470649295
4041.556715893559
1327.647322472185
-1327.0584474410862
-4040.5046473378316
3248.587584805675
1068.6289744116366
-1064.4155571777374
-3243.7772049019113
2000.041429169476
653.1104335589334
-664.1719278311357
-2010.6735297255218
779.4885295731947
257.9207492256537
-250.995278544724
-771.4345994126052
-284.74694892019033
-97.0474614277482
87.21543876454234
274.90174968354404
-1260.6283818436787
-413.3622073940933
417.3783308658749
1265.75957627967
-1957.3910325383767
-649.3829397549853
630.0202570259571
1937.7846789527684
-3190.0168169839308
-1055.2431963747367
1042.1385147804394
3176.3590573864058
-2715.6593914069235
-894.8240859396756
894.1580409500748
2714.7591835819185
-1623.547338411212
-532.2870889473706
534.9120476674289
1626.306120665744
-1034.7823006976396
-338.8838160522282
343.1003689803183
1040.0900839976966
-228.6684180609882
-76.91066372208297
71.75396776199341
223.91590231098235
614.4352031107992
210.9028325304389
-182.92833058908582
-584.372785737738
1429.753438020125
469.2764292191714
-470.40827295556664
-1429.992900127545
2022.4382654037327
664.4113586451858
-663.9412990864366
-2021.273902863264
2272.6499368352816
748.1552354823798
-741.6337411990389
-2265.0283734872937
2342.7544658482075
765.6322705056518
-775.398216592148
-2352.334772213362
2328.789817548357
768.3823021007702
-754.9587094131857
-2313.9296506289393
2353.418345456943
770.0392080647871
-777.1698245890439
-2360.3750390438363
2269.929792950861
745.4228373579681
-744.5798838259652
-2268.478496910073
2025.351301816292
664.7114592567086
-666.1985241174698
-2026.100182400085
1438.397441267036
476.44369805790484
-464.55952752847224
-1425.350790111348
608.3828287469223
199.89396565128118
-199.5581613825634
-607.4277967074886
-219.0341483289376
-68.06622109655291
80.31305499747396
232.65266357641667
-1048.5018933815882
-351.27328743832186
331.61229451186955
1029.0041309352964
-1621.435382926371
-531.5827196459286
534.5468574394472
1625.2053844812326
-2725.4580926410854
-896.4200759418309
901.0007913601585
2730.481682829093
-2161.0192953068763
-709.3982597645372
716.9206110462546
2169.0182002503425
-1306.539338119328
-433.19559317082167
420.2783119753003
1293.1095862407237
-866.509657965973
-285.3394058365375
283.6773303747177
865.3559952471405
-288.9918829612434
-99.71066753566265
84.72954519465566
273.4356899354607
238.1427016388625
76.68292115814984
-81.92362100817263
-243.45056905411184
614.845962734893
199.03410085104406
-208.1690596845001
-624.0802156236023
804.8131492808461
263.581884784624
-265.35674068517983
-806.0457741562277
841.7642827751115
271.18622722569853
-286.251499613747
-857.0411608964205
819.903485304676
265.516906411387
-275.365280687809
-829.5670070471242
826.7583456598222
273.615663905628
-265.6484143687412
-817.7547685494646
826.8064184831455
273.4623846337199
-266.2439458016306
-819.1277165319771
860.9677869621664
279.0676118154079
-289.6375876888633
-871.919971938245
792.0740159600973
252.5135282771662
-275.50856662914157
-816.0228467835113
624.3383515058085
208.49402306322008
-198.19330264814198
-613.0615625400096
248.52005025092512
85.07908298820257
-74.74696413427591
-236.78988350462168
-290.94744774652645
-101.8581058382988
82.7155596530065
271.9205659911968
-862.5473042987287
-281.9908281634562
286.368468713481
867.3545114933513
-1303.9577258452773
-430.3170937714167
423.5271799881011
1296.7907777302898
-2164.0947157377377
-706.7934395647608
725.2185850618407
2183.18894747179
-1590.2875542975962
-523.1255709026009
525.0530279837549
1592.5829661469907
-974.4673597756773
-312.3428926896304
335.00887252017856
998.2678582780063
-735.9424801766872
-241.64274521917105
241.43696211278439
735.5713640358299
-440.40622792206705
-142.83394046500325
147.5416274983436
445.30822460353374
-262.82011951878667
-87.42664079740644
83.4304480869323
258.8124779444188
-196.6830297410488
-62.223789911717176
69.12959329783916
204.02826178073883
-231.77980680484325
-73.99729442037642
80.85259686317295
239.67905392032117
-331.13210690021515
-107.0820346986875
113.18450378533453
338.50342423375696
-400.8434416241944
-127.52593552973121
141.03409254457802
415.4284406611696
-456.422956449911
-153.36407311540097
143.99423202499747
447.1474869204685
-418.61583066917956
-136.49740425590426
140.28465741034597
422.51362801901996
-330.79297335632145
-109.63743760529906
107.25913333334029
328.6552825886756
-227.1772871389985
-67.44030271563679
89.8839433118701
251.7123909536749
-210.28017726913095
-73.97970132809132
59.05598450638354
195.46323996130377
-277.1661924980581
-93.41281494870782
85.84557604975998
269.7998361759819
-435.5133675825782
-138.22877535549924
152.4033871362917
451.01369487913325
-741.0290107131004
-244.3544915667735
241.2443697489798
738.1150275440887
-992.4581867912784
-328.7136457944289
319.2910812073387
982.2328439271078
-1592.337145872414
-526.3978487676941
519.9776068264619
1585.1485806126148
-1051.9716406259686
-349.9963891506195
338.5094647202641
1039.8705548550934
-750.0389260482043
-254.9537418205291
227.29183943010867
720.2277250532061
-709.2285529207438
-229.71203280612826
238.533470608294
717.4660824555904
-721.1313060037792
-234.73913283459842
240.62637051567435
727.2812305483967
-835.6783588211983
-270.82796743512154
282.2967816311866
848.6087640561163
-1012.4098772890866
-333.63900706730783
330.68043092265725
1009.710500722751
-1208.3143713762984
-397.4566420549527
396.7113744430244
1208.4315998815
-1396.9975144267082
-454.5587437907234
469.4258084278554
1414.1583642186597
-1537.410891506821
-510.0648838933557
496.132324247621
1523.7213637670502
-1568.9340218072757
-512.7008472187445
522.1414231956005
1579.3368608169258
-1538.8821595506743
-509.81109304446727
497.8659971477464
1526.7160438392311
-1400.7397333588451
-459.62091017793864
462.6288186488673
1405.1161680296063
-1196.7156588546932
-387.4188516680151
405.8296825401485
1217.2245737742633
-1013.2449466423132
-335.520558394026
327.7035529357381
1005.5385880814865
-837.33699517278
-276.13211323088035
272.73548912489787
834.0370964272879
-722.9984060605057
-236.05346208950505
240.0833561574109
727.7106298455037
-721.2584483590908
-235.03867991873994
240.48424472566694
727.4263696344569
-744.7670878714416
-249.26369624119252
234.1786946298089
729.2706081357319
-1036.2649962746073
-338.81643068185076
345.6260293214582
1043.4081163157243
-572.3084591869265
-191.73209151811898
180.56133176386356
560.8727212380618
-553.0483390763402
-184.91300255991518
173.56413826160133
541.1442355830222
-719.1026724725962
-227.56013330444694
252.70626720786095
745.4114755578339
-981.062726220116
-324.82696241512895
316.33829981833696
973.3412636276335
-1262.2836554422975
-416.03828386217356
411.3272633366287
1259.0560146253556
-1585.8084314968437
-520.5006796605885
520.853440400213
1586.7243544030935
-1889.6302592549473
-622.2733543021604
616.4985276507214
1883.7308121398091
-2137.1762125426903
-703.3707345575094
699.0832909243181
2134.313927746378
-2282.781238234602
-749.9274398861453
749.4755605878308
2283.9583485499024
-2344.1113783102483
-766.0188453914598
777.4403544580564
2356.494379126467
-2281.7844980731606
-752.6559726176783
742.2660922668874
2271.4660114869475
-2125.899763651192
-693.3601222336292
708.012866078876
2142.2945015756413
-1896.4702675957233
-628.7252003699541
610.1830915361643
1877.296509630978
-1594.9597547366284
-524.5181962251663
521.6730015436187
1592.1930430484936
-1250.0689840987325
-408.00233119912446
415.156371305231
1258.5677012000233
-959.8677907702513
-313.5044006998651
318.0143147553317
965.3730472205207
-746.0836000307463
-250.35438509634696
233.10996976983733
728.1375313296448
-529.2235340045299
-162.98028932022862
194.5981005593203
562.3973861359991
-595.4591407964472
-201.0976681362372
184.46824665647
577.8159539687913
-299.4930452089757
-96.14795986004174
102.58540935441852
306.6953299511224
-562.8763574175537
-177.6160243935883
200.19724097661674
587.0619918685406
-1028.8163507860154
-344.24803466163576
327.12675232067704
1011.6617194823921
-1564.9888463132083
-514.2527285031974
517.3533117156476
1568.3680981248617
-2120.4066688064486
-694.8364798631519
705.3472645301372
2131.3822812531143
-2670.5802168082446
-883.389855965972
871.8327273149043
2658.7190452069044
-3122.102758780122
-1028.258364760317
1028.396194637753
3122.2109292820096
-3459.478199926205
-1135.6672295937315
1147.4420312475413
3472.3970135925338
-3701.699004728347
-1222.8111427724361
1212.0554005336016
3690.743154902011
-3769.1304708523676
-1244.1038043964654
1236.0612121308222
3760.993773734197
-3693.4918781798333
-1213.4727326277643
1223.336802560836
3704.904754702933
-3475.4229036457837
-1146.866276386194
1140.5038522211835
3469.3617247082293
-3112.2085954342037
-1026.8157177837566
1021.3954965500161
3106.598216596991
-2655.909387687687
-869.1742921834812
886.4539337917231
2674.5741485985927
-2126.604017683305
-703.491646038834
694.2287366790697
2117.703518685885
-1563.4495637328364
-515.9114515911788
512.7510662074201
1560.9404520201497
-1027.4730694168247
-337.32766836485825
339.63913576095365
1029.8432317161933
-566.5315299518406
-182.79619426978752
192.6835746616125
576.4131105341949
-323.96499361412134
-110.75857374630868
96.78338095848449
308.75675082276575
SCALARS stress33 float
LOOKUP_TABLE default
-1107.6244408860803
-1336.8692768514156
-1072.7304547269596
-1134.8721011579037
1188.689193494618
1047.9719110131264
1217.2393298822572
1084.2112991213799
-869.1791118308902
-1256.7414756119251
-1833.8005643710494
-2469.6588449664414
-3178.7749128192663
-3868.6922388784587
-4385.651450194418
-4864.387036114931
-5213.141381002963
-5265.87036479637
-5224.892007458955
-4840.909038420767
-4422.922466989607
-3807.1581188477576
-3164.394299156964
-2469.9750825464725
-1883.2993832342327
-1333.7678339108825
-882.7202438525856
-948.1108233816922
-1343.7481166683137
-1844.7184983752668
-2512.7198523022234
-3212.5759674198925
-3847.755664855242
-4400.051207277924
-4892.721969796345
-5138.077962724492
-5275.701506091282
-5169.878755027428
-4835.081022165716
-4421.0268989969045
-3816.47357526049
-3126.3817924521863
-2485.116293946281
-1821.8885285928845
-1299.473698115442
-809.9266678857384
-852.7378054071451
-1256.9741197675467
-1868.4863888830878
-2486.386928963475
-3210.9814216597006
-3830.4480739394203
-4417.755309086293
-4886.895622033626
-5237.951283629984
-5245.854883396998
-5158.3422133196145
-4944.391469398513
-4370.170287132263
-3782.0472106561065
-3186.795547436923
-2526.5727404020727
-1840.9738524369895
-1279.9381778873503
-869.5207256488502
-868.8920923471451
-1237.9293101541698
-1761.0492437295616
-2446.533360876143
-3157.4032246917486
-3920.056127913296
-4450.059568803757
-4893.762907125056
-5156.870526600629
-5307.1574272066355
-5161.846675179899
-4863.1579924970865
-4391.444823589176
-3923.7951200045645
-3206.224704425782
-2559.037276253104
-1889.125205051154
-1243.2836699038744
-849.9479259848595
834.9756774157286
1233.8561828322709
1808.10169801116
2546.696344655007
3188.9632012546062
3891.4584579244256
4472.2679204382
4898.005867920816
5182.609651070088
5293.260426491499
5136.722229771316
4970.020085707307
4570.5292444340885
3896.452804133296
3263.5468432344496
2529.429165944457
1826.483749050647
1177.6452161483467
907.8777081295848
845.7186011560261
1235.2646161876619
1829.048477511853
2477.8075924031436
3200.2786637842655
3897.5197180211544
4504.724057776853
4873.016040092334
5162.850124815479
5298.036394542083
5215.096704181284
4949.53147030063
4488.340362751856
3859.849963767454
3190.683360193856
2510.4716188535094
1767.3353941794485
1191.0460544214584
898.5372711041709
846.7420971621759
1333.881668290589
1870.2365229912102
2480.6835568370298
3212.8585583474487
3883.7614647075534
4509.470470190048
4913.071687763557
5035.866395587102
5306.244122374803
5177.214224420488
4839.621733374894
4547.052953496575
3989.466128382832
3190.541884250939
2448.262645147741
1758.409462891519
1274.1754610985518
816.404019229114
855.7330196872354
1201.492260273546
1822.21602910012
2559.5499123074114
3247.2256886661053
3825.2305634506047
4386.350505441427
4813.007764246315
5215.558069467545
5242.413874115795
5180.406919065863
4918.9334550872445
4436.53339137882
3757.3310369737446
3185.385320700705
2489.1638617031276
1878.788354318589
1277.3200162351131
821.005877122283
-644.9454297497869
-188.0735476091504
267.10723538696766
724.6826050058007
-853.8981590718031
-378.1269263140857
94.62155777961016
568.600030709058
-611.8128932157997
-156.49367755977437
297.3739694392425
753.9386401864467
-686.7845029085875
-244.89261854812503
194.88146848231554
636.5807842500508
-1153.0247838124633
-2231.764515466988
-4050.9102422744036
-6147.502539958805
-8399.231844939291
-10476.69354205206
-12308.576804880053
-13712.675097741187
-14521.721588935703
-14847.126117851585
-14522.990773592144
-13678.804023750126
-12307.12172106281
-10478.370057430118
-8375.692054722458
-6158.76994946599
-4048.601304538548
-2256.0766684412956
-1226.6760380640626
-2251.1794598698616
-2191.4902393892407
-2853.9052162356675
-3823.7092616707087
-5015.440812841058
-6276.132798589766
-7495.802544973791
-8444.207950171083
-9026.560638543218
-9340.826960369945
-9075.805302735418
-8493.737913377583
-7443.72208628431
-6316.563109029084
-5068.457321643829
-3832.4054885543883
-2868.849179558456
-2152.022684700787
-2250.3619900643826
-4047.044952981174
-2903.706179972738
-2815.0786427743733
-2861.5923445671797
-3299.840052127838
-4009.335491683334
-4824.591131865978
-5578.427933499217
-6089.250131979585
-6249.381067875773
-6092.1847282238305
-5559.066225875169
-4803.893018569797
-3961.2719194069505
-3344.296028137207
-2900.229875456542
-2847.2371477670968
-2873.73533372581
-4073.492226306349
-6120.5773493386805
-3816.2002606727183
-2852.7105690315366
-1776.4044876880944
-1070.0390035547316
-836.0527805425227
-1035.758890811354
-1393.1288167871535
-1716.8672500923276
-1854.7134764827788
-1692.3847603797913
-1394.2279390357435
-1038.6529039368033
-798.7913873381913
-1075.4425012022257
-1785.2431012317538
-2875.5457907132804
-3798.7603514939547
-6141.281966473907
-8404.43161745742
-5030.507714357227
-3329.3905386142433
-1077.8746992275119
896.3453173078597
2429.5946148708463
3132.4397313445807
3213.9051810652018
3154.864003945142
3081.2457136027515
3113.298547718674
3254.981846500188
3141.852903816849
2443.3466927818954
919.554657805711
-1042.9402307234704
-3318.1919264160097
-5037.015783522278
-8387.042745277286
-10492.814171917737
-6272.5419298149645
-4008.4323727227747
-798.6804134510458
2402.863810453564
5610.067062266171
7866.836579952389
8853.047050885856
9139.477101560682
9007.422869626433
9142.504403863102
8845.135887630284
7872.972381789237
5612.686644162983
2439.041550066322
-825.4302562661469
-4012.781148891896
-6292.647202309221
-10509.340647835284
-12329.61786242947
-7484.370451331139
-4820.904963262379
-1052.4891313314438
3070.36513492465
7851.760050687939
12681.957470420748
15759.249625526369
16475.499059684575
17106.624504759908
16440.004986267537
15777.619068343192
12715.472589313984
7830.71752839908
3141.6963052786887
-1044.4711847882718
-4864.326676316559
-7526.396835491061
-12292.087952909991
-13693.371617123485
-8450.529606059194
-5554.095379192382
-1418.5161676742136
3257.451683975756
8882.576336994767
15721.28827521205
23334.364474609494
27213.344468470663
25723.00165128708
27169.04026646912
23404.51472740993
15766.609852336347
8839.397324118763
3275.0736924093217
-1394.5536182727665
-5556.26778722927
-8448.219173720106
-13659.188065027818
-14529.470147676766
-9089.038761548698
-6092.93338489905
-1738.1142376624048
3181.4879777915776
9113.241405878216
16406.711584083736
27265.071961503476
41011.240117393434
49830.7922965996
41048.96125175804
27184.436830881983
16466.4810617771
9113.908521195874
3165.7043567020446
-1699.8863347545266
-6029.3562025967985
-9067.429816352203
-14528.629348805174
-14812.875222161412
-9291.109096359462
-6212.455246157944
-1865.8680872768164
3068.361760891974
9038.657033868134
17190.27137587592
25712.889890726656
49813.17364768684
56127.4212824814
49779.9027768597
25738.452458558604
17126.159728061408
9032.986246397719
3086.0293374154717
-1890.4123799670488
-6314.221039200202
-9288.061774540693
-14806.229159934446
-14518.961286243051
-9075.663561385125
-6128.612783752382
-1738.736229673028
3163.857857827097
9130.007924206555
16439.731603790075
27184.21923065558
40988.41218637675
49874.51532538235
41034.997927485034
27119.36443125084
16425.271529249847
9127.832969678566
3179.4172013495117
-1727.9972940534353
-6095.178621791303
-9111.725940426812
-14464.74139059335
-13741.869869962335
-8464.827638611197
-5541.063135817647
-1352.5626343749464
3249.5776721835136
8820.974751304835
15743.582572568208
23333.565867561847
27232.672835720703
25704.740082088858
27214.294199334458
23329.87172419019
15736.273608993739
8911.880670506507
3274.397349860519
-1403.861672224477
-5611.67453324236
-8406.440068053082
-13677.141703002155
-12348.987877417356
-7444.623985655606
-4866.649981286377
-1023.530769970268
3110.1296403184533
7876.405914075673
12714.357925593853
15719.156215973198
16489.392870524898
17125.622833378613
16392.441757764667
15775.36746369116
12712.358194820583
7879.374673299491
3116.437533006072
-1021.2657964937389
-4835.604361975566
-7531.022875353694
-12316.29750255309
-10494.205627635121
-6263.083959542215
-3976.731207344681
-835.4062770828605
2416.2863415144384
5596.367761846632
7879.566699076444
8825.767910147086
9092.500111198053
9015.12600476481
9132.641644535586
8819.16541185975
7892.662228744477
5620.446901500225
2412.5492628831416
-809.8500270545483
-4012.8937598904595
-6254.2698070267215
-10536.225917705335
-8358.949278824031
-5037.300121743232
-3342.998972810805
-1097.2099887356162
932.1910286806524
2379.766763255
3091.1804115846753
3223.408408522606
3120.8477461393923
3130.3014488797635
3134.9696555137634
3295.2265545018017
3055.878789579496
2403.330560155213
962.6908811666071
-1100.6572022661567
-3332.4677864462137
-5031.906542846933
-8379.736727867275
-6153.8108395673335
-3790.787760235369
-2862.267628803849
-1733.1345822699368
-1057.4203906357288
-831.9414689578116
-990.5977763999254
-1395.6987148076296
-1684.981715850532
-1889.905121481046
-1748.9053429942578
-1389.2188142631203
-983.2464211881161
-868.4339765962213
-1110.6002238634974
-1720.1460204394534
-2879.4821464298293
-3838.744353708811
-6157.074847932905
-4070.0114839300513
-2902.969333011657
-2790.0598446391523
-2856.459114216268
-3330.978821851313
-4035.441623672843
-4822.101992851123
-5585.576359560713
-6124.187414204702
-6268.082283239812
-6132.250850446522
-5591.800488142297
-4789.834542701021
-4035.058868428692
-3327.671824631281
-2861.6136750532314
-2832.9771493477747
-2890.1480862344615
-4021.7922061420977
-2220.2487559616566
-2164.5552949793637
-2860.082786824554
-3881.5625045597553
-5006.006062421948
-6298.642709836364
-7501.840212028474
-8483.491721777245
-9064.47671899572
-9317.985234420747
-9055.113471368328
-8453.705294134095
-7519.359960148111
-6332.83791208826
-4967.531515628099
-3808.2042549382895
-2935.3148242533207
-2102.570845473092
-2308.5106372348964
-1184.0805412754416
-2238.5746940150857
-4048.1279905438423
-6179.730012606829
-8376.904484771192
-10531.020820777863
-12321.81472434476
-13660.90271284245
-14600.418032489717
-14868.84529575333
-14582.234503330663
-13710.504203507677
-12278.626773381606
-10493.702254230157
-8385.591551437043
-6168.007896380499
-4058.223451308906
-2245.297609416768
-1267.0754673969932
1176.458347402513
2232.330657567829
4022.715869873762
6160.706360481679
8399.740069571882
10464.028005957603
12278.285316895694
13709.941384810954
14567.668376568705
14880.744329445064
14534.9634594284
13717.847460966557
12306.740490995347
10494.625470153987
8366.083500441164
6175.10433422029
4060.5743555016816
2273.642509702593
1203.6757269278169
2230.1383937336504
2195.2772097811103
2853.770358931273
3840.33795048669
5013.500169802457
6311.938670229167
7490.741464931518
8463.779266368598
9045.805698852986
9310.496683135629
9102.40993725136
8494.627424679697
7480.335527855903
6301.760912552476
5078.097966250032
3839.6034908406436
2860.6622407883406
2159.998491100967
2303.075084526092
4067.733235888183
2874.0926742851734
2827.586157552898
2895.3104105442762
3322.594396289438
3973.306852605194
4834.998092662543
5582.162119362503
6140.8052095249295
6258.406485330313
6100.079921938479
5571.409016299993
4837.615215916187
3980.0267902836204
3355.6400371976197
2908.831771377474
2831.6744282469153
2909.6621080860496
4076.9859802871943
6151.856797289103
3896.4659050665796
2827.7893913537264
1757.1975757554173
1089.6645452082157
858.8235374726355
1013.2028433866799
1430.0219532549381
1732.827907975763
1833.9693016521633
1701.9651845432818
1356.5245449058712
1026.1548913232982
800.6114931292832
1079.1236890219152
1719.0218938663602
2872.113717980683
3803.293432544917
6125.401371859014
8356.271813295782
5000.82611284405
3280.504084009677
1058.4236249737442
-878.4163618646562
-2424.999324645847
-3097.616543725133
-3283.6132231615484
-3126.3523812666535
-3107.7780462764204
-3143.570707708597
-3241.394153330475
-3106.243702247739
-2391.026837076992
-942.8520936518908
1088.6596183627844
3336.175070863217
5053.690813053399
8405.409247551113
10534.91629711911
6277.5937307067215
3984.5724502913654
837.938500713557
-2373.640646997839
-5602.975020624697
-7865.688663341105
-8892.595811322331
-9146.047266144305
-8995.341611415148
-9152.294552665204
-8826.566697802395
-7862.901542834938
-5626.173829700798
-2465.703576270491
833.2064393237233
3992.2917501032352
6299.685914810747
10462.34149076417
12339.576619379222
7486.934205878526
4856.935672163963
1051.9453746266663
-3103.55310889706
-7825.221004936844
-12687.891633875668
-15690.511382211
-16465.839316628873
-17101.768222179264
-16479.325817465782
-15773.599837575108
-12695.838398590684
-7886.114920634776
-3112.975417844951
1027.8573005329818
4854.807107420638
7495.58598122187
12324.968827497214
13675.685780171305
8440.480035416782
5578.904005166143
1413.7204659581184
-3248.4411424435675
-8843.690699335188
-15731.28938684985
-23375.005030974746
-27192.684989236295
-25703.17808373645
-27190.754351109266
-23392.798569928855
-15760.754095211625
-8825.226759897545
-3255.2632684335113
1409.6695401575416
5583.236151142046
8456.113641865551
13665.68151673302
14541.170575644821
9078.11572091654
6105.973960604519
1733.80715412274
-3133.0367641709745
-9093.065301291645
-16426.86073890701
-27221.245733182877
-41031.8653575778
-49843.97297174111
-40958.243144806474
-27182.43884195201
-16428.739040333778
-9108.10324325785
-3167.2408689521253
1709.2253235075623
6082.532693166286
9108.19181707874
14516.476165201515
14844.671128090471
9337.269462931901
6228.512546245009
1930.7439100965858
-3134.881083615124
-9056.773546714336
-17135.243918243796
-25704.703520912677
-49853.25999471918
-56258.85915782675
-49826.37211596966
-25696.15142250061
-17093.754685325548
-9038.264045147225
-3100.56482402049
1881.7199812792242
6320.63316542469
9320.373052386567
14793.144683463499
14543.446120653301
9088.898159798235
6089.365542862564
1744.6863190755248
-3148.8864607810974
-9123.879559285939
-16452.41630749777
-27188.535224713385
-40987.91252526268
-49819.38002890907
-40985.4586662706
-27226.49346477166
-16372.664849489927
-9125.516159050167
-3210.3569625392556
1751.1343414150178
6089.928007731214
9093.758167618886
14555.918067576364
13687.4064039886
8482.17804454267
5567.015266627073
1362.8371380120516
-3244.3110724277794
-8835.754368208349
-15777.351354960352
-23344.72123341635
-27206.277109388262
-25709.60969274491
-27215.797032957897
-23324.744419841096
-15735.750989407301
-8847.610835298896
-3234.918761955574
1379.773300986737
5642.148373488337
8451.351653615013
13679.175589406863
12310.641383849084
7496.567987609655
4886.428264692426
1037.0087696947157
-3126.533885318786
-7895.142783883959
-12673.775399651378
-15771.275542464107
-16421.3755474668
-17131.70972199738
-16381.078995967284
-15771.275407079607
-12698.172560535371
-7902.037213465199
-3092.1809102166444
998.5353563521057
4852.927221747115
7484.395297817886
12282.084390385076
10491.128680344671
6270.446098495275
3994.486881583929
826.5011224895716
-2336.3989062123
-5592.565329905599
-7873.438670601696
-8802.906063079834
-9114.286262046546
-8974.261803517118
-9148.028907127678
-8812.98848304525
-7890.991071373224
-5584.539896149188
-2407.319695627317
848.0528434589505
3968.388693815097
6266.828522476368
10550.077597206458
8379.989755373448
5003.802926581353
3342.9109991677105
1058.4862600192428
-944.5888036303222
-2401.728185221553
-3091.5044072158635
-3260.0670703519136
-3142.818801211193
-3104.7253687269986
-3115.0501612871885
-3322.7024285420775
-3116.0834599081427
-2372.457397788763
-928.7705386132002
1056.8773704636842
3345.7644552877173
5013.460929633118
8427.361298011616
6161.050580948591
3851.5965515188873
2860.788913972676
1745.6970619075
1048.1868119984865
851.2185883186758
1013.8272794689983
1418.8037912193686
1724.2008211538196
1868.6520892754197
1758.324135588482
1385.2330280896276
1050.0498862788081
834.3922902084887
1094.4418569672853
1762.457209320739
2873.621037846431
3811.213788619265
6136.671655263752
4038.9524996988475
2823.6260153204203
2806.682797513902
2872.1696251258254
3367.9550668634474
4030.395962383598
4826.381579790264
5636.11808354035
6093.316923059523
6296.8463157285005
6102.852958343923
5608.350785344839
4847.387791503221
4017.6563097545877
3320.438679951243
2875.7530144155025
2850.7483714940026
2852.0876384056173
4039.9872032157145
2192.499338131398
2134.3197518102825
2926.855929777026
3867.0356947109103
5005.320899300277
6303.353542692959
7487.5571418162435
8483.426352828741
9074.695649787784
9351.306233616546
9031.372404849157
8499.95868596062
7471.734484340996
6326.674622967839
4993.425975393504
3825.5849682753906
2890.2565716789104
2187.053762664087
2262.6119659817778
1204.4414734095335
2302.3765817396343
4007.996124047786
6189.07180808112
8404.612622674555
10501.993028640747
12321.905096879229
13696.344753190875
14573.824861459434
14849.503107665107
14615.932342119515
13697.693570265546
12264.720995541662
10543.649101082236
8366.436557750218
6165.020186013542
4063.8379986174405
2268.3115663290955
1225.7819781629369
-520.0716248750687
-183.04820058494806
149.82348312437534
486.55218981951475
-746.136279348284
-253.94073888286948
231.99823424965143
723.8913651779294
-1086.901945643127
-367.52601608633995
342.4347416423261
1061.6347118616104
-1442.5458381325006
-452.91244189068675
524.6157708801329
1516.07111646235
-1872.2841870449483
-615.3613660261035
624.8257798925042
1882.0170088522136
-2276.84676521644
-745.3596481233835
765.8768475241959
2298.1255349628627
-2569.277088176459
-821.8982633687556
902.6336825080216
2652.0154716074467
-2860.3291008919477
-933.4851173236966
967.0911804325879
2893.9508908987045
-3078.785583999008
-1026.6604771763086
997.3840612657368
3049.1299906484783
-3099.771737333387
-1016.3597488179803
1039.4131229482591
3124.284962978214
-3096.8643391542137
-1051.2493954524398
965.9907230064273
3010.6526151783764
-2829.519998688251
-894.3849189430475
1015.6904135867953
2953.463420957327
-2579.0671719163656
-804.7006945461035
946.6703226193786
2722.960653588176
-2226.6681046895683
-706.364300031215
793.6714220792055
2314.6736447662115
-1847.620591647923
-579.6187003925443
672.5222456529737
1942.6635066382587
-1445.4393223673105
-458.72747560590506
515.4327101707458
1503.1028657518327
-1122.0308512337506
-388.8103777319193
334.6805552430451
1067.040503937751
-816.5222636945546
-318.8829673565924
171.18429973721504
665.9893694333732
-517.7533449009061
-164.39409658312798
185.55215790495276
540.3036442510784
-580.1415230482817
-224.98379051685333
125.53241633623838
479.7253953740001
-814.3110913150012
-304.08057551831007
199.29329898953438
708.3189314939082
-1091.5922993645072
-365.9645343758166
350.30163199827075
1075.9520864598453
-1488.0232353061438
-502.1574574895203
470.18191442266107
1455.0902580730617
-1895.5060691200197
-628.8224871903658
620.3250394053757
1885.7510464377701
-2258.524179019034
-729.8029468208551
778.4561512097716
2307.5702508576214
-2573.655366173014
-816.6770926360041
917.142057646066
2675.5734259337187
-2887.8895088080317
-960.3424812797457
940.8754617851228
2868.3558816295117
-3023.0965450573713
-990.0465576220304
1015.1337577756494
3048.13801128231
-3105.121787842363
-1018.1511012986302
1040.4186345953494
3127.4321682881564
-3039.65571144782
-990.7606140375137
1031.028104621917
3081.621125617996
-2828.509427083656
-898.314257312566
1006.596976576373
2938.8964463938028
-2593.3467288259417
-835.1793670468032
899.6548615451902
2658.7928563579917
-2242.1268972000107
-727.534260882996
767.1458423715085
2283.024213644676
-1830.7964036427438
-584.3230890510604
645.8144960124046
1893.2725785700604
-1461.3754794616252
-475.3775898311287
498.07001282367855
1484.9761022580788
-1085.1430316558108
-376.0124535160139
323.54061037581414
1032.009824610781
-786.8447674070485
-293.6053018043749
192.28211173880845
683.1355324410833
-461.75304865429644
-124.87201270344667
208.7816439733142
547.281428215676
-504.0737365599489
-167.80322173365857
164.04132418567315
499.5898377142148
-727.2818496050313
-215.7477639755234
289.9310896284878
802.4310499606654
-1102.2940698270686
-363.7475619809702
365.4210751969367
1104.0280939252116
-1466.6626466922462
-485.60138358548284
482.1213029678911
1462.487610413693
-1892.2330350680277
-623.6765105137601
627.6027139881626
1895.5114645836875
-2247.5292623685673
-725.0713627375662
776.9959633294493
2299.962401670404
-2586.6046085562557
-825.0114349480718
913.3079042527825
2676.0730298440903
-2875.9742296431214
-942.0071200728416
966.0505359172821
2900.7463092114776
-3125.365432072431
-1096.005903184414
903.9234196133912
2929.905205881223
-3081.540904292837
-999.6779523678124
1054.7254997398704
3138.3875449020416
-3037.7151004392654
-998.3187099434435
1013.8348821271211
3054.36688493751
-2934.024812458083
-1001.8532442934811
903.0693634152412
2833.252795608714
-2543.246104616672
-784.7379798796028
951.6078453306109
2713.495905654505
-2191.073628280312
-658.8867163769901
854.6020910404623
2390.7331196665764
-1878.6283781677485
-619.838318862021
622.3013446889818
1881.511512696743
-1504.8732002712786
-521.9815230406821
447.3412761539221
1429.009265743196
-1102.2161815576255
-391.14412700384855
310.3403679654002
1020.8303983137012
-757.4549529775977
-253.10056620836258
245.35050692409277
750.3484659455717
-523.5592746548355
-189.9453121908009
139.2501524016261
472.0755639076233
-515.7624626979232
-174.73033731803298
162.17726595699787
503.0343761369586
-737.9549894668162
-256.1118247397244
219.66342966258526
701.5694839321077
-1027.4680146686733
-320.49619302898645
377.8828635774553
1086.1633411571383
-1421.5649066194892
-434.0047670304775
541.5105549059808
1530.9669600129128
-1845.1368582062423
-581.669541940093
665.8799451887608
1931.2847736254334
-2329.142654452473
-799.4813696295023
708.8799491710961
2237.1490242369473
-2636.03153982386
-891.8431325294077
828.5324492864311
2572.6079337634146
-2900.7952954806387
-984.9585007466376
904.5858869589865
2820.307447887957
-3030.000047903508
-983.9167775064707
1035.4669614359736
3083.964012194425
-3140.702319737524
-1058.1346788220108
995.6316622979939
3077.4290848635137
-3039.7203001379967
-998.970066960901
1014.4691695012152
3056.257180247456
-2856.135297331959
-925.9252328798175
978.5565683878958
2909.8773700222373
-2580.4205940440297
-838.6764144487679
879.9748654067516
2623.020305018872
-2345.2698231823742
-828.1102963164449
667.5037516020238
2182.701813120395
-1894.6557582840323
-632.7998714931309
612.1611577682197
1873.9874874539673
-1522.6555174402893
-525.2700779512525
458.55860529094934
1454.8804457634687
-1116.7494900003076
-372.3003119453788
362.6244723573327
1106.8984316177666
-727.5190743729472
-229.81912507116795
262.01416711881757
760.3420636281371
-507.0937132164836
-176.42629175633192
149.91606552898884
479.8166639134288
-664.9787669442594
-210.0682821534574
233.45536721497774
688.397023063153
-1301.640857797116
-427.1966234408319
428.1161538846791
1302.4557005017996
-2375.475640486926
-789.7308422997594
764.7640822604299
2349.414440687746
-3599.2254123538733
-1180.8130155727267
1192.997250624001
3611.811787124723
-4924.038911707699
-1621.8415834717453
1620.8305983953178
4923.532193485647
-6144.028707310557
-2026.396294798702
2016.6901944726706
6133.39170492813
-7221.908817533404
-2386.8309834077954
2360.9189945049584
7194.518010791391
-8042.458529058844
-2650.9246280640364
2644.7684927918017
8037.469143372029
-8509.57612387836
-2791.903004899621
2825.4502878002822
8547.28673266247
-8702.063689954579
-2858.2932959385216
2882.4961339645088
8729.45092292875
-8516.162414047867
-2804.246281389147
2806.8927751891315
8521.937285874039
-8016.032181121409
-2630.69238608703
2659.9270028211176
8048.584927611053
-7217.355147972703
-2378.056262526661
2375.050948332995
7215.249307364225
-6140.343981765211
-2016.9597042016685
2032.3987059369683
6156.077863454819
-4911.926832590252
-1621.0440214686096
1610.2859627828002
4901.5757079944015
-3606.4387548975646
-1183.473076298833
1195.367384660989
3619.8517514579
-2368.24048807472
-776.5335241407156
785.0086929127574
2377.908578544855
-1314.0586232542992
-427.216295696795
441.0910581238568
1329.196203097701
-716.6364558115602
-241.22166280448437
221.93251780048013
696.1027151793242
-1318.0796879343688
-440.459619037807
418.2374684140086
1296.2877476103604
-1271.3621371164918
-415.4729976579547
418.548504345119
1274.7346684224904
-1658.722267434001
-543.7217875160277
543.8015221469104
1658.7742811255157
-2222.314823165536
-724.7324220463634
737.6365323327482
2236.4861344359815
-2920.0877150706947
-958.3229864500463
957.4734609723091
2918.8916805647314
-3649.271807361394
-1186.3903344608843
1220.3599972128868
3683.888686787337
-4369.43575932458
-1436.4190223999321
1430.279247764498
4363.673821475357
-4920.432599671185
-1612.3131298534572
1622.6931634396315
4933.897562429309
-5259.488909024745
-1723.2891595736146
1734.4551265202463
5273.357874318957
-5451.325107187033
-1800.0152381137013
1769.4554298892617
5420.840098310262
-5286.970718637109
-1729.6702004782856
1748.8903304487467
5308.670483060181
-4951.701161496341
-1626.7013649716973
1624.1062200888991
4950.27769189328
-4332.135986294597
-1412.613232769072
1441.7497816383839
4363.792567305267
-3682.942880664021
-1213.8424046300352
1198.7473125718534
3667.9369483850896
-2949.630782995373
-964.8600666373968
973.9908024296165
2958.9609203003347
-2228.5771319642663
-729.2069335505366
734.5750193372369
2234.628675237298
-1669.041853826493
-549.7777695506811
541.8778889924288
1661.0549151301384
-1247.0742246694863
-406.1290166825056
413.0444362834096
1254.3658868446946
-1305.489641532302
-415.1958208568394
457.54502549394965
1351.345072351396
-2366.232981555164
-773.7937170118093
788.838065892458
2383.1925055012107
-1693.3100335858762
-563.9039645642042
537.3697063140571
1665.7505512312055
-1636.8191382810473
-533.3544298261404
544.6163442954421
1648.5451499260962
-1662.415577314794
-537.6811759471893
562.4879943244159
1690.2394238747656
-1921.284499116242
-625.6427507996559
642.2296787016094
1939.9448012821376
-2345.735611822456
-780.9882595054805
749.2699101194739
2312.568188574165
-2816.4171494059265
-923.4828840643167
930.1924306228757
2824.3613970689476
-3261.06608267501
-1074.4360315613449
1068.2773537188768
3258.213200543076
-3551.4731173329055
-1155.5130843780935
1193.1509598083794
3593.76826486364
-3650.322113893926
-1198.4985796362162
1203.1251529157162
3656.415129393339
-3559.428406752646
-1169.6371841207147
1171.6126424483955
3563.3758931830525
-3246.4710782542825
-1065.17451146245
1071.5856263823807
3254.876789391041
-2800.919611789286
-912.3766950443387
937.7342712543905
2829.0921866707504
-2310.7618512660265
-756.6184179708362
765.4941666088998
2322.958915874362
-1950.2549454383552
-639.5559626743197
643.3622992746532
1956.618323199451
-1687.9373005069792
-551.7446120604873
558.5271605961025
1695.3546119071543
-1659.3686423003674
-547.6737784557045
537.3319560997188
1647.3098792545497
-1664.4563506171107
-535.1788681894541
567.1686344221234
1697.8041619807482
-2385.221211463213
-785.6628324277699
783.9758572429419
2385.3116722144186
-3582.101454075426
-1171.9464769922197
1194.9111429415643
3607.8894443921745
-2209.1104063019156
-703.9290652945638
768.0816035307944
2278.701657541096
-1666.0435442775488
-554.925071567297
530.2573731355369
1641.3222400322556
-1036.0701925195754
-345.75823514163494
327.3224549628794
1017.4070879630744
-619.3248187862337
-198.68840688094497
212.3036892004311
634.9707931987941
-484.5937442742288
-154.31640934199095
169.5163338109851
502.3565863035619
-610.4623519852757
-208.57607225328684
185.30212089046836
587.4068318158388
-811.3581517264247
-258.0820051319897
286.30743128433824
842.4852615855634
-1005.5875275842845
-328.9484439454973
336.63215236738324
1016.0336471386254
-1090.9524345509708
-365.8003680743277
345.8999144360423
1070.753468196839
-990.6860548444092
-324.05196441337466
330.7797529362142
998.3536563441157
-823.4796125553548
-282.5606996640563
247.71399004757404
787.6448050513864
-609.9036457501352
-204.65437817946076
192.45340295135975
597.5882593132555
-464.5013271421194
-151.94817125424743
153.17221338674426
465.9016865938902
-624.2938247136772
-203.89155854657292
206.14549976959825
627.0469851903617
-1049.277064949274
-364.0436659641564
303.207049254328
986.6337789669633
-1675.6260105967522
-551.3517621047795
547.0451444387436
1671.6181788109243
-2210.166448056698
-724.9323574416339
725.3089769147336
2211.9681539721787
-3600.5397654883564
-1189.7850119136274
1175.979110620916
3586.088617645204
-4934.018465332687
-1637.9410662911832
1597.1854680739343
4890.78016295284
-2933.02334760502
-969.9004782810807
946.428742878139
2907.4997829310596
-1949.506364453584
-654.360298845917
611.0736011564732
1904.343140386045
-629.2598185315728
-211.92754421383142
194.46332101523876
611.1261229813099
527.6454372815788
178.51542888209224
-163.546104375273
-511.69870438054204
1418.1262091770768
466.4150354899466
-464.47310773283243
-1415.3121095970273
1829.3961014524102
609.4683147482574
-581.2181824408472
-1798.964045945555
1855.665327783674
587.1175431981683
-651.3221375085413
-1921.7482163570821
1834.9057645387948
607.879966866225
-586.5541830211878
-1811.1952816061676
1784.106649555266
577.2804939188063
-599.175620187074
-1807.6003601923585
1802.2250209599733
582.0153034962714
-607.6365473717451
-1829.4516759626567
1893.9734735451639
624.1992855779827
-613.9843467660248
-1882.6616381332278
1836.2267268300056
613.3999783694744
-580.7025655321777
-1802.5639411509037
1434.9076159447432
486.88595217466354
-439.76681754365563
-1386.0370788574219
534.464344304055
168.85939459130168
-190.25744346156716
-556.5022964961827
-599.2696515768766
-184.88676810264587
220.5945194400847
638.334205403924
-1932.9009021297097
-630.9249934405088
643.1103753186762
1947.0459424108267
-2931.914370622486
-959.2737725973129
968.725359287113
2943.8218168877065
-4914.975188747048
-1614.9662589654326
1626.4455176964402
4928.805466178805
-6145.395400647074
-2012.055769726634
2048.054625183344
6183.481190137565
-3652.696191173047
-1197.0797317251563
1202.1511480882764
3657.7808420173824
-2343.879925057292
-777.7042061835527
754.5593707635999
2320.5029218271375
-459.65980380028486
-141.40315298363566
170.85112971439958
492.42394069209695
1405.8035216964781
468.69210616126657
-446.9811321608722
-1381.587515939027
3274.069770101458
1076.8037486597896
-1072.4711516015232
-3268.8273430243134
4586.070962958038
1505.242085531354
-1506.6324541270733
-4586.643653187901
5148.505029313266
1676.8291431590915
-1715.1037285402417
-5187.251727443188
5317.216973461211
1741.1230171136558
-1750.24018612504
-5325.5206835232675
5241.317655000836
1722.925809122622
-1710.5329560562968
-5229.048506047577
5319.233045335859
1741.6825069487095
-1751.5661996230483
-5329.114939305931
5153.299829028547
1695.2346755675972
-1681.987354658544
-5138.291848216206
4592.387079752982
1511.4331117793918
-1500.970310613513
-4582.0866461619735
3273.142514489591
1071.894293460995
-1082.207271952182
-3284.5389415472746
1418.7168888822198
457.94378884509206
-482.5782307907939
-1444.0374362319708
-478.7388063520193
-154.27023873850703
162.51209925860167
486.822272606194
-2344.4956417903304
-775.3737419471145
759.163216099143
2326.854482706636
-3665.4604866094887
-1202.2164029367268
1205.1583797335625
3669.7897058427334
-6171.8355099111795
-2048.903362248093
2000.1633005291224
6123.680068235844
-7229.332516267896
-2379.628249503672
2384.1795680448413
7235.703477237374
-4361.840516798198
-1432.2983363233507
1431.3092964030802
4362.043013151735
-2810.205657955259
-914.3824303373694
942.7775754891336
2841.173114925623
-617.9659007824957
-206.0997343994677
198.6878041252494
612.8273264355958
1780.76146228984
573.0243386887014
-606.5909044891596
-1814.2237184867263
4581.350662648678
1511.0002915486693
-1490.025675740093
-4558.526616722345
7395.749083951116
2426.20375167951
-2434.260257471353
-7403.116024121642
9197.078685220331
3037.7374563515186
-2981.805020276457
-9136.874409858137
9593.443623878062
3148.401102282107
-3145.838366549462
-9588.520386558026
9966.821377072483
3272.8136897049844
-3268.1300766393542
-9962.1270917207
9566.02203931287
3127.1723050028086
-3162.7392732165754
-9602.877153690904
9197.50353705883
3019.4616817198694
-3019.9428680576384
-9196.503425486386
7419.558770254254
2441.3022020198405
-2427.192505028099
-7403.644840564579
4554.520923573524
1477.5680744871497
-1531.1706662848592
-4608.755924664438
1833.4387892223895
608.7895800508559
-586.4629928655922
-1808.9780384264886
-613.2201533224434
-205.93924204446375
192.70407980680466
598.8515246100724
-2842.637429110706
-937.3362943772227
927.8804680872709
2833.1537853423506
-4391.913443842903
-1451.6067075543106
1421.843007300049
4361.7941161468625
-7203.69944678247
-2364.931399215013
2388.6702458932996
7230.549898546189
-8031.284412816167
-2649.003786496818
2636.1011269912124
8016.803876016289
-4927.888802185655
-1622.002032738179
1609.660468481481
4916.318789742887
-3242.099118527025
-1060.8432228118181
1076.4167313314974
3260.7706443034112
-832.1549194045365
-275.7207957096398
270.42002734169364
827.0124732777476
1894.2692758738995
622.4253893531859
-617.6558441631496
-1888.1162196323276
5177.904501270503
1707.9381296113133
-1680.2280161865056
-5146.480500608683
9162.069461647421
3003.7949505075812
-3016.449234906584
-9173.85254234448
13608.172882441431
4458.401427030563
-4493.829103469849
-13645.404539588839
15869.367984861135
5215.518886756152
-5200.55407967791
-15852.520862169564
14962.937844324857
4909.958407625556
-4899.378821853548
-14949.295367024839
15835.44723618403
5191.1021456718445
-5216.065675407648
-15859.36903623119
13657.586588207632
4488.857449185103
-4480.703439280391
-13648.263231359422
9191.294910170138
3017.8764141201973
-3016.929401449859
-9188.738853022456
5148.140622109175
1690.9105090983212
-1685.084203697741
-5139.535339072347
1905.5859131682664
628.2421765495092
-616.6124680452049
-1891.2331898417324
-816.283188348636
-266.47124157473445
274.2753484919667
826.4997522700578
-3242.055295523256
-1059.0509274732322
1079.513814881444
3264.706184376031
-4924.240474976599
-1616.3922063037753
1617.887107314542
4927.906400665641
-8009.202141592279
-2637.1207051295787
2639.483932396397
8012.962487665936
-8518.180251263082
-2802.772165771574
2810.8848173618317
8527.492538217455
-5300.6581537202
-1744.628375735134
1731.7448092103004
5288.417588226497
-3559.3914882279932
-1168.5708739832044
1173.963643822819
3567.3404616713524
-1020.1555101275444
-338.1418726891279
331.65255612134933
1014.3763793334365
1854.4692301414907
620.46163405478
-580.7030878216028
-1811.7962435260415
5304.430969431996
1742.655069552362
-1733.1882531493902
-5291.397188618779
9547.819600783288
3124.780049175024
-3148.2958182543516
-9570.247663497925
15903.986722897738
5233.726774033159
-5198.208427943289
-15865.710838045925
23941.62863849476
7859.748995870352
-7882.095481198281
-23963.434740051627
29134.472451049834
9576.288751330227
-9589.849681768566
-29147.95516033098
23982.590507000685
7905.412139561027
-7829.726571187377
-23901.882140420377
15849.807377329096
5204.291563464329
-5204.224721480161
-15849.121595801786
9593.361967574805
3157.2752393335104
-3127.859109474346
-9561.171325542033
5303.81320668757
1739.8465886637568
-1739.1154514588416
-5301.395702313632
1836.3278598561883
599.5228452533484
-605.167102759704
-1840.6385328248143
-996.4180993940681
-327.5894491523504
330.01842482574284
1001.1277964934707
-3515.630448209122
-1143.1750024333596
1182.230946695432
3559.404697999358
-5280.714885408059
-1724.5808868799359
1753.5774240326136
5313.66896253638
-8522.963933501393
-2812.710129758343
2796.048694025725
8507.81795755215
-8683.740247540176
-2854.724880348891
2872.246615167707
8706.072757042944
-5410.2263768948615
-1765.431068751961
1799.5215144827962
5448.378072760999
-3627.298628654331
-1188.8226092606783
1199.700907021761
3639.905242227018
-1085.7218642793596
-341.9667840525508
390.94597137346864
1140.0361723899841
1767.9216329418123
558.0620574578643
-621.1975234411657
-1832.2270026430488
5253.257640879601
1716.214312184602
-1735.559065029025
-5272.230216398835
10023.77573793754
3305.0606568045914
-3258.942606061697
-9974.703855689615
14954.728155724704
4903.5758971348405
-4904.023685991764
-14952.309470493346
29120.905343346298
9565.567304190248
-9598.921443525702
-29156.570728994906
32773.88153896481
10725.958471070975
-10870.847520377487
-32914.27166299522
29100.44282148406
9557.225193133578
-9595.566000126302
-29141.563409212977
14976.101373394951
4921.017098609358
-4890.095299102366
-14941.38456690684
9981.102662114426
3283.2481803894043
-3260.0584667921066
-9954.854379715398
5251.2087174504995
1718.3567915931344
-1728.5855710618198
-5259.808822816238
1786.9690411761403
579.5023367293179
-596.3710961565375
-1803.090288469568
-1111.175610570237
-370.22851357609034
357.862277392298
1100.025901183486
-3690.394054982811
-1213.946960285306
1212.6114253569394
3691.6517310217023
-5410.815402163193
-1769.8113067466766
1791.2083301357925
5435.88408168219
-8686.550035631284
-2867.75972273387
2847.9153522327542
8668.993939811364
-8510.246906276792
-2796.9553660415113
2815.036986809224
8530.52413553372
-5288.540096942335
-1733.296631384641
1742.6491211280227
5299.2039705738425
-3586.7394286692142
-1189.7872795797884
1156.5828295201063
3551.484573546797
-1020.789528042078
-337.50609078258276
334.74651343375444
1020.9303498603404
1838.3707564882934
605.460386428982
-595.2535070329905
-1826.6027603633702
5313.505594093353
1743.2505581453443
-1741.9855418652296
-5310.630198948085
9569.034955952317
3134.4849872253835
-3150.0753488093615
-9583.691900119185
15849.353852674365
5203.081028394401
-5206.681265693158
-15853.239863615483
23931.085010822862
7861.626116152853
-7867.266034029424
-23934.700605209917
29172.00883827731
9608.925692429766
-9560.921028641984
-29121.656766556203
23968.966363549232
7890.909975031391
-7846.64750523679
-23922.960134651512
15794.242726994678
5155.402107672766
-5249.132472617552
-15892.530439151451
9570.130774421617
3152.2551959138364
-3113.9271245691925
-9527.027492312714
5310.508311193436
1739.921121718362
-1745.189095057547
-5313.256974136457
1839.2825736608356
591.5509529411793
-624.3556051962078
-1871.4900211393833
-1008.7195876780897
-325.2589227426797
346.0678969807923
1030.2855262123048
-3561.9136512409896
-1172.6983154304326
1166.9587723892182
3556.30778952688
-5317.87632019259
-1755.3929227255285
1728.560217320919
5294.023702351376
-8468.96111067012
-2766.030147701502
2837.944081440568
8547.382910650223
-8067.673771850765
-2673.6952192373574
2623.088273063302
8015.770001336932
-4931.33006164059
-1614.5896601229906
1628.0834318809211
4946.139133114368
-3232.4028022885323
-1055.1849586814642
1077.2405067011714
3255.756484244019
-791.858808144927
-259.3581013381481
263.99290247261524
798.3503206707537
1888.2390699498355
618.6355068385601
-618.9329965151846
-1886.7015427164733
5133.390622831881
1678.792251214385
-1695.6320846825838
-5149.570926401764
9171.584133643657
3000.454878348857
-3033.1035362817347
-9204.662988889962
13613.06316139549
4469.115944962949
-4476.995872933418
-13622.083167798817
15881.345428576693
5220.45759794116
-5202.2785194236785
-15860.435679720715
14948.141901936382
4898.07417954132
-4908.90498576127
-14957.025269983336
15866.814161323011
5208.636079335585
-5212.434677414596
-15869.872765323147
13613.821801824495
4474.155053908005
-4467.548670331016
-13607.743452295661
9171.141326574609
3008.1068100314587
-3015.8464778419584
-9176.131475087255
5199.311064273119
1722.3886614684016
-1672.116319898516
-5144.372359439731
1908.7837063781917
635.437427515164
-605.2789495829493
-1875.524054383859
-826.2996026035398
-278.9033115748316
257.73923081718385
804.1302620526403
-3274.26770398207
-1068.6762270648032
1092.3041291292757
3300.1704904381186
-4893.807905696332
-1596.2695934269577
1628.6955431178212
4930.419703725725
-8021.021315691993
-2642.890882352367
2639.8383493721485
8019.692370681092
-7247.121272098273
-2397.625946801156
2364.210526768118
7212.0625481233
-4329.515958894044
-1406.6298123076558
1451.0974719524384
4376.513610620052
-2840.1680020429194
-929.0826237909496
942.9459696002305
2856.0224888809025
-596.797257065773
-193.08800137415528
203.08044870570302
607.9443182721734
1806.01761765033
585.0446788929403
-606.816594813019
-1825.9943980164826
4586.853030886501
1497.8153093270957
-1521.7532888650894
-4609.067411821336
7422.631339624524
2448.6076504327357
-2415.4302558004856
-7386.994205329567
9154.28105917573
2989.696717005223
-3037.8356140963733
-9203.80299090594
9612.213111722842
3172.4813907817006
-3115.8427757434547
-9551.780585482717
9975.170979281887
3270.898319181055
-3279.8642789125443
-9983.201706241816
9544.819151964039
3133.1646745614707
-3128.1310863159597
-9537.683724384755
9196.853366252035
3019.7922513224185
-3018.992357267067
-9194.978199668229
7416.989906579256
2439.1228295899928
-2429.170194135979
-7405.640276258811
4588.301173964515
1497.7801424507052
-1523.507089542225
-4613.027143068612
1817.1415272913873
601.3302650973201
-584.9760504439473
-1798.149136800319
-601.7166980542243
-205.43677624687552
182.77534505166113
579.0272542852908
-2822.840341506526
-924.8718079216778
934.5033759325743
2835.0705196280032
-4397.823373850435
-1458.6424370743334
1413.6761080361903
4352.286739045754
-7227.297167764977
-2390.0797782298177
2359.7442787010223
7195.663497965783
-6152.844611294568
-2026.5760276652873
2025.2496163733304
6150.97891915217
-3646.9794696494937
-1194.7799322530627
1201.2249617017806
3653.737149603665
-2319.302081707865
-758.8627766780555
769.0847142376006
2332.073480475694
-488.94929848238826
-164.4668934457004
152.7753327526152
478.17909364402294
1421.5859782993793
488.1112173050642
-422.7132638543844
-1351.3347587659955
3264.085612822324
1071.0124830566347
-1073.4802510589361
-3264.4716730304062
4594.02675075829
1508.638166088611
-1507.4361437112093
-4591.209777325392
5142.0748185086995
1692.0384462941438
-1676.9427763726562
-5124.400110753253
5286.866615917534
1726.4604541715235
-1749.6610115040094
-5309.6283548455685
5248.438407432288
1730.9008245375007
-1700.0951988622546
-5214.289843669161
5311.843596892431
1736.8703483864665
-1753.6450809221715
-5328.200614258647
5135.703895434737
1685.659850930795
-1683.804532026872
-5132.4331576526165
4600.687196159735
1509.2376185916364
-1512.7690376006067
-4602.497815201059
3284.146723261103
1087.6597719546407
-1059.8835208732635
-3253.655082512647
1407.4554704148322
462.4152427148074
-461.5112544260919
-1405.1071476005018
-466.5102262701839
-143.91571195237339
172.63366314396262
498.4272013697773
-2351.4286570120603
-787.862131068483
742.1971360975876
2306.1440137065947
-3642.1444625081494
-1193.215119438246
1200.2717224434018
3651.074356827885
-6175.752006137744
-2030.3458743169904
2041.2034359443933
6187.633755597286
-4896.458032481372
-1606.496846973896
1624.3534119203687
4915.447430502623
-2938.7059685476124
-974.0860921107233
944.1602542512119
2907.593100145459
-1950.535520747304
-641.9034230932593
638.3239831142128
1948.1428036242723
-644.0261630341411
-222.49635460227728
187.7254428192973
607.9078448079526
543.7891040071845
175.01584865897894
-187.04326849803329
-555.9605993777514
1384.2732738293707
447.6246334128082
-468.8992181122303
-1405.8004415929317
1798.6293601877987
588.5786867812276
-592.7353487834334
-1801.5255907699466
1866.763689480722
600.2598342131823
-635.5461888443679
-1902.5500944145024
1806.538339689374
583.883716661483
-607.2345050275326
-1829.452716857195
1819.9548997879028
601.952079275623
-583.650680758059
-1799.2276936396956
1822.7547670137137
602.5217120237648
-585.8608417715877
-1805.0198466535658
1911.5423970483243
618.6174426171929
-643.4854989033192
-1937.3016355689615
1768.9486103244126
562.7859405577183
-616.4222413916141
-1824.807256013155
1406.44919619523
469.70599937066436
-445.6426205467433
-1380.107150932774
567.9055887311697
194.54066715948284
-170.35587660968304
-540.4444984793663
-648.6224577315152
-227.56134152971208
182.97450859565288
604.3049987806007
-1941.4022969314829
-634.1992201050743
644.5217583216727
1952.7329920595512
-2932.7668172521517
-967.4195770053193
951.6931270835921
2916.151277633384
-4903.717874060385
-1600.5020706113428
1643.6135538052768
4948.3848245646805
-3604.811329588294
-1185.2496454417706
1189.9660781472921
3610.4072288386524
-2195.1115169636905
-702.5168099068105
755.5918352007866
2250.8443976454437
-1666.5803342573345
-546.8775623701513
546.6289745084941
1665.9394424371421
-1004.6643935739994
-325.58304031938314
336.7681976556778
1016.324234995991
-615.6772235259414
-204.74227575212717
195.61170759797096
606.508111577481
-481.28347692266107
-152.62327918037772
168.78954684734344
498.48479172587395
-576.552789375186
-184.589784482494
200.5410150308162
594.9268027115613
-815.8320447225124
-264.2766130901873
278.45201630704105
832.9580724071711
-981.731838170439
-313.00318944454193
344.60893458127975
1015.8601618483663
-1112.4633252788335
-373.7214603666216
351.7052044980228
1090.6689151450992
-1023.3818801213056
-334.103307666257
342.7123203240335
1032.2407124973834
-815.1014223359525
-270.28784592822194
264.59298688173294
809.9642449896783
-565.7937721740454
-169.29098992794752
221.5936071947217
622.9728510826826
-513.1069434825331
-180.11339949443936
145.3013193514198
478.53199214302003
-649.1575238443911
-218.73739657364786
201.20701698586345
632.1018742416054
-993.344847979024
-314.8867579838261
348.04405129048973
1029.5937808267772
-1678.5317466938868
-553.280035385862
546.1170306913555
1671.809061812237
-2237.1369912782684
-740.7593922577798
718.8678165134043
2213.369187682867
-3609.6403379002586
-1192.943998515606
1178.0440325150266
3592.946521302685
-2387.054177325219
-794.0572758875787
767.4708185642958
2359.009889382869
-1699.0924035981297
-577.8268227763474
513.4721706397831
1629.732219900936
-1619.4403117001057
-524.1304184012115
544.8759524822235
1638.8171000517905
-1660.5906193628907
-540.3227899447083
554.2202265448868
1675.114246238023
-1938.075192462653
-627.9626671932638
654.8080235682428
1968.337331354618
-2356.7212732732296
-776.6033234260976
769.794806946069
2350.516728334129
-2816.744268523529
-926.5094647072256
924.7644057497382
2817.002056710422
-3257.557816542685
-1059.9386464934796
1094.5844906847924
3297.5629181936383
-3584.8017042316496
-1189.33785774
1156.771063439548
3552.7934986427426
-3658.1234996337444
-1195.3917918615043
1217.398599743843
3682.3838477656245
-3588.248977165669
-1188.7478452492505
1160.8206692896783
3559.805536918342
-3266.3058635089546
-1071.7674873583019
1078.7105000186712
3276.431909335777
-2789.6568028051406
-903.0789075940847
946.0262525565922
2837.5056200809777
-2358.7036952087656
-781.0222559720278
762.8322150316089
2340.782981360331
-1941.9778778851032
-640.3533457610756
632.4911838630214
1934.3211351707578
-1665.0095999706537
-543.4446198884398
552.8953197132796
1676.0541793312877
-1647.569918899797
-536.6073560649529
549.3725389158353
1662.012223130092
-1686.8773604123853
-564.6214691041969
529.4752959623002
1650.768092751503
-2350.483233517036
-768.0329821342602
784.0149377356283
2367.2258237064816
-1300.1352536901832
-435.56216913834214
409.6772187054157
1273.6346899420023
-1260.7462543733418
-421.5176285840571
395.1885846480727
1233.131739307195
-1651.43248359859
-522.1125184372067
580.9054885171354
1712.945924501866
-2263.3497295603156
-749.2980959117413
729.5774635784328
2245.4151142314076
-2917.8919356167316
-961.5525298751891
950.6924114488065
2910.4728509373963
-3669.449313290417
-1204.2555247284472
1205.0360685698688
3671.5549874678254
-4374.106107331812
-1440.26894579269
1426.8370606601238
4360.388094320893
-4947.7741717249155
-1628.212187498808
1618.1717471182346
4941.09265816398
-5284.7242908310145
-1735.891160512343
1734.8305735588074
5287.47060764581
-5426.850095650181
-1773.1115359291434
1799.771948626265
5455.751369863749
-5282.425205647945
-1742.2733107861131
1718.0046468768269
5258.319391211495
-4921.452456213534
-1604.8305970523506
1639.0213794671
4959.724816314876
-4390.126843225211
-1455.3649250864983
1412.0762857310474
4345.367207746953
-3690.794336047955
-1213.6204732684419
1206.9336458379403
3684.3087317515165
-2889.4445739556104
-942.8699810700491
959.5812768908218
2909.289902964607
-2213.973692378029
-722.933173022233
733.4534602183849
2226.8137611541897
-1714.4199229464866
-575.3519873335026
535.1089822067879
1672.572112292517
-1205.2250739978626
-370.40547537151724
444.20170338172466
1282.6515062144026
-1354.2273878236301
-457.50012815976515
418.7168097347021
1313.0835493761115
-685.470222260803
-219.86880210042
235.01666574180126
702.4225066266954
-1296.5566600449383
-408.8099063001573
461.57930566743016
1353.0894835703075
-2377.1289996169508
-795.40805105865
755.5356650240719
2337.1905988529325
-3619.4324796795845
-1189.1523257046938
1196.5296309962869
3627.4806218482554
-4905.723910085857
-1607.3030868135393
1631.8603232577443
4931.383750591427
-6179.79367409274
-2044.0147337280214
2017.1511628553271
6152.2337712831795
-7224.8127533867955
-2379.211983812973
2379.5548273753375
7225.082342162728
-8005.35032068193
-2627.592515571043
2655.1226063203067
8035.578634608537
-8566.30652380921
-2829.5344439614564
2804.4377065654844
8540.742585424334
-8722.170631725341
-2878.7134447116405
2860.0128582939506
8703.254710685462
-8547.186812581494
-2807.76603051275
2830.7465380523354
8573.784673368558
-8042.579551709816
-2653.755062274635
2638.9037526398897
8028.427363121882
-7201.706723781303
-2375.803616736084
2363.280774269253
7188.753377340734
-6145.5586265176535
-2010.856723047793
2051.234028804116
6189.170888097957
-4920.238368938677
-1627.5248144129291
1605.903562484309
4899.463030258194
-3615.9446223424748
-1193.087442047894
1185.7283643102273
3610.08644089289
-2374.0543595207855
-779.3062095306814
784.7003461434506
2379.5752102728
-1305.0931547344662
-420.92802626779303
444.00617380812764
1328.1833141865209
-742.694096329622
-254.02979942341335
221.4029664248228
707.1682468890212
SCALARS stress23 float
LOOKUP_TABLE default
-39.359086602926254
-39.627480258233845
39.11846276880533
39.22289831843227
-38.396420922130346
-38.33742698095739
39.69812623782491
39.81362800486386
-53.2412273529917
-126.55503509193659
-227.39462407678366
-342.65702327154577
-460.03645403683186
-567.6448558680713
-658.453863883391
-725.597292301245
-768.6391850514337
-781.7941395193338
-769.1617207685485
-726.8397344574332
-658.3368659578264
-567.6278062453493
-459.82956694439054
-343.370861296542
-227.3234300231561
-126.66454231459647
-53.54446594696492
1.450928526930511
8.638090232387185
10.018831658177078
12.16519325133413
11.833498802036047
9.914372391067445
7.890965734608471
5.571117472369224
3.0613541789352894
-0.43518483079969883
-2.0952742099761963
-5.222756582312286
-7.817407283000648
-10.195043945685029
-10.878462423803285
-10.03763386560604
-10.63728339096997
-8.338831326109357
-1.9849880278343335
53.64158998156199
126.57805332809221
226.9519359456608
342.0538918194361
458.2565793758258
566.5201227134094
657.7757161958143
725.8323525576852
767.8124953969382
781.0613367967308
767.2902995641343
726.4636633018963
657.2597881518304
566.4954955810681
460.13375485595316
342.6939332103357
226.46356037445366
125.79088328778744
52.74104079976678
-1.9313384545966983
-7.655873735435307
-10.480752110481262
-10.30248849466443
-11.201857196167111
-10.469093920663
-7.884842066094279
-5.797419467009604
-1.4809204554185271
1.6279483335092664
3.4715873412787914
6.8814506735652685
8.437292747199535
10.57840882986784
11.2117192260921
10.916803201660514
10.453800486400723
9.16037174500525
1.8950330950319767
-52.68747967667878
-126.33416233584285
-227.01899680122733
-343.9098403044045
-460.19595113769174
-567.9764988329262
-658.8524175323546
-725.5541975013912
-767.5330343097448
-781.3094717646018
-769.0404680166394
-726.0821410603821
-658.5581019334495
-568.3175479983911
-460.77087176404893
-343.28170517925173
-228.37168947514147
-127.80607118364424
-54.08319509308785
1.7537965383380651
9.319291475228965
11.10902600735426
11.78976121172309
10.818587567657232
9.140340090729296
7.311551040969789
4.414157220162451
2.934359408915043
0.019346576184034348
-2.8212507464922965
-5.1774787795729935
-8.10680450964719
-10.321684470865875
-10.64811198785901
-10.633700081380084
-11.106987836654298
-9.313670319505036
-1.9752198986825533
54.05135296762455
126.34364686347544
227.51540511474013
344.6417075935751
458.99386161216535
568.1880267376546
658.7480579619296
726.1644766940735
767.7971139950678
780.9631227245554
767.8958662669174
726.9774196217768
657.8059007097036
566.0606269361451
459.65594765823334
343.2746481411159
228.3520547579974
126.41323027294129
53.2167532434687
-2.5508248452097178
-8.948234563693404
-10.75093824416399
-11.751902742311358
-11.310578397475183
-9.784958112984896
-7.245806303806603
-5.158346525393426
-1.1561499638482928
0.6531291753053665
3.846519047394395
6.794124535284936
8.280937395989895
11.18062592856586
11.189497606828809
11.382657928392291
11.894127858802676
9.383345495909452
2.845366235822439
-39.14506417140365
-38.9444833882153
-38.75295122154057
-38.57064387574792
-39.34475379716605
-39.07623761985451
-38.81835049390793
-38.57181059755385
39.20549375897099
39.30726316702203
39.42223892107722
39.55169576249318
39.31298678461462
39.41724543552846
39.53433930501342
39.66571228764951
16.197303840890527
48.10781556740403
53.41512802056968
60.72512052021921
56.74810570664704
50.2452497323975
41.07274747081101
28.276043202728033
14.288184940814972
-0.4842536635696888
-14.369255265221
-27.690709939226508
-40.410640991292894
-50.94573560543358
-57.134815115481615
-59.84094984829426
-53.35784831084311
-48.345875434577465
-16.463791244663298
-22.70556660555303
25.13490824587643
11.49809212051332
22.699547671712935
22.313838095404208
21.821643196977675
17.45048471353948
12.884914270602167
6.33403230831027
0.4861508524045348
-6.714021505787969
-13.750031236559153
-18.003552672453225
-21.55033832695335
-22.53022429253906
-22.918650035746396
-11.554779174737632
-25.278147132135928
22.94686527363956
-53.199866849929094
35.28378730639815
3.4426163071766496
24.199967809952796
22.85004958510399
24.958416137844324
21.16438007261604
15.836124357767403
8.454258438199759
-0.02826101239770651
-8.465699099935591
-15.476367564871907
-22.011393427848816
-24.48403536900878
-23.269145109690726
-24.149368664249778
-3.6040886780247092
-35.30417447350919
52.85260299872607
-90.245051831007
40.34071077313274
-15.125946301035583
13.30682381708175
12.606244153343141
20.25245742686093
19.546701340936124
15.828744093887508
7.874914727173746
-0.17797134071588516
-8.236277725547552
-15.417559145018458
-19.473295009694993
-20.34999006986618
-12.473364085890353
-12.701384312473238
14.868486596271396
-39.60858198441565
89.38209097180516
-123.68713162094355
48.10677387844771
-30.07917085569352
2.3359868433326483
-2.700680130161345
14.772050299681723
20.435809895396233
17.41303973644972
10.557877715677023
0.23722766991704702
-10.053818384185433
-17.74985950626433
-19.92725553456694
-14.7949681840837
2.411867485381663
-2.2719005402177572
29.919934030622244
-48.51406503468752
123.41142155230045
-152.17771950922906
56.81685592699796
-43.56623365730047
-5.9586782194674015
-20.315060609951615
-6.644820368848741
19.497876074165106
23.315392245538533
14.672403079457581
0.23105795588344336
-15.208999906666577
-23.49324483051896
-18.953462328761816
5.717118250206113
20.594112454913557
5.794566853903234
43.66686592902988
-56.171152390539646
152.68428803887218
-176.2553999563679
63.6621273085475
-53.07161369919777
-12.848705600015819
-31.53967690654099
-33.25258698128164
-20.190697882324457
45.115403827279806
19.349938854575157
0.3066135598346591
-19.570240441709757
-44.07488202676177
19.38864870648831
33.378150906413794
30.903016231954098
13.025300307199359
53.619510917924345
-63.28602579142898
175.69855657964945
-192.93659942224622
69.78443485219032
-59.970045876689255
-16.37485745921731
-40.198250270448625
-37.090438928455114
-72.73169028386474
-45.180338418111205
115.1194217177108
-0.6040808409452438
-115.96076376922429
45.13683389406651
73.42654417362064
36.66396084614098
40.93178182095289
15.755036146380007
59.491682262159884
-70.04642934910953
192.08304081577808
-202.99400779418647
73.45186665002257
-62.65881051775068
-18.524838980287313
-41.68572413921356
-57.049322521314025
-29.044508294202387
-190.0951661290601
-59.36500499304384
-0.06712994910776615
59.6229434190318
189.97158973757178
29.152881641872227
56.6304291440174
42.01332227187231
18.650622094981372
63.89090826129541
-73.71910904720426
202.51300094323233
-206.79274454712868
76.2711975928396
-65.58675336558372
-14.523861589841545
-58.3077524099499
-5.5083413030952215
-206.78175743669271
317.6715253526345
-1169.0586090581492
0.21394935250282288
1168.7023998359218
-318.05769481603056
206.44164923392236
5.0556781576015055
57.93570086732507
14.97733848867938
66.43764617340639
-75.09504668600857
205.98276344127953
-202.30838518124074
74.02287383191288
-63.445480942726135
-18.569239309057593
-41.89042536076158
-56.906266052275896
-29.122568046674132
-190.55962080322206
-59.34949975647032
0.03541707247495651
59.28099297359586
190.39264411572367
28.550508202053607
56.6821584017016
42.14253863552585
18.49082533782348
63.29992340737954
-73.88706517219543
202.48351691290736
-192.46359257400036
69.4277066392824
-59.30196487531066
-16.3681185496971
-40.620619889348745
-36.68667209241539
-73.24736624583602
-45.46141651831567
115.8785544866696
-0.13197755813598633
-114.78286004252732
45.19594976119697
73.09002953814343
36.85515031265095
41.24825580837205
15.54427872877568
60.187476786319166
-69.84854332078248
192.7920578266494
-176.22847963310778
63.78406478650868
-52.88127748481929
-12.228193842805922
-31.68791806139052
-33.63010559324175
-19.924305667169392
44.86956899613142
19.37244732119143
0.5728529831394553
-19.19648632965982
-44.37499626260251
19.651807751506567
33.50196132203564
31.14666536124423
12.336195051204413
53.03831930551678
-64.20808566454798
175.60105746844783
-152.47492930293083
57.244760553352535
-43.34914596006274
-6.299581735394895
-21.193743652664125
-6.069486145861447
19.3125455128029
23.639333551749587
14.553124465979636
0.2693685917183757
-14.490289104171097
-23.849835969042033
-19.68263121228665
6.069248797837645
20.29640011070296
6.693867180496454
43.9015879817307
-56.18018238712102
152.35032018856145
-122.32713587209582
48.364230691455305
-30.452080646529794
3.0238068578764796
-1.5340427504852414
14.758092015050352
19.656618516892195
17.812493601813912
10.510541346855462
0.0967866200953722
-10.554867120459676
-17.536010716110468
-19.88342707650736
-14.859432219062
1.6413864619098604
-3.63160412479192
30.699184422381222
-48.50763189070858
123.27151194238104
-89.55652729421854
40.173843152821064
-15.253101502545178
12.31360544450581
12.242115988396108
20.086239620111883
20.043839076533914
15.055705014616251
8.11968273902312
0.15225810697302222
-8.7452049581334
-16.042736095841974
-19.363443687092513
-20.49799167457968
-12.442296041175723
-12.858164803124964
16.01215767604299
-39.85993300098926
90.17794945719652
-52.959249024279416
35.331954119727015
3.3492178609594703
23.466697447933257
22.366066614165902
24.99431166332215
21.808114839717746
15.326119875535369
8.656385234557092
-0.7575036785565317
-7.74470955459401
-16.019668323919177
-21.546168563887477
-25.546109559945762
-22.80778040527366
-23.881368078989908
-3.4591023090761155
-35.384438811801374
53.00723134749569
-22.485715003684163
25.485759531147778
11.627888762392104
23.449513908475637
22.41675395425409
22.147841916419566
17.519903044216335
13.270135160069913
7.123621268197894
0.044057379476726055
-6.47371343895793
-13.123903097584844
-18.446208429988474
-22.068993617780507
-22.40028448891826
-23.20938881719485
-12.199177571106702
-25.212678400217555
23.017535512219183
16.56591158825904
48.20332960039377
53.66456490941346
59.66829753573984
57.88597172405571
50.5349540123716
40.22744991257787
28.48018821515143
14.177380308508873
-0.4855135544203222
-14.364721191581339
-27.723168095573783
-40.443257484119385
-50.475383488228545
-57.091363296378404
-60.167480449192226
-53.72184604173526
-47.44997642014641
-16.80866888957098
17.80754297785461
47.64896290935576
53.30813551880419
59.700130401179194
57.43086497671902
50.57027707528323
40.41294000856578
27.90549034718424
14.021629548631608
-0.19154237024486065
-14.570707018487155
-28.03191808797419
-40.412115663290024
-50.309606288559735
-56.960001869127154
-60.28386687859893
-53.06258124206215
-48.080847098492086
-16.274991486221552
-22.307955123484135
24.817519573494792
11.65494511835277
22.811460707336664
21.6242845216766
21.936001928523183
18.35033943504095
13.096758277155459
6.692738080397248
0.096194539219141
-6.770172324962914
-12.78166522551328
-18.66104459669441
-21.548752202652395
-22.16916262730956
-22.617721947841346
-11.198643085546792
-25.112116945907474
22.334636881947517
-53.07682317495346
35.024550845846534
3.314684558659792
23.309634826146066
22.453571930527687
25.36831564642489
21.63221274781972
15.769331728108227
8.843278798274696
-0.05528981797397137
-7.933089311234653
-16.28319123480469
-21.76831816881895
-25.300796740688384
-22.20879737380892
-23.688122460618615
-3.0951998410746455
-35.228357911109924
54.331520246341825
-90.09860985912383
40.19481556210667
-15.467440555803478
12.550342727452517
11.677203373983502
20.127153692767024
19.6849316470325
15.170663279481232
8.6325443116948
0.637667459435761
-8.293010216206312
-15.528086508624256
-18.759972693398595
-20.157224487513304
-12.00878660660237
-12.888973048888147
16.127462476491928
-40.125949206762016
89.21884925942868
-123.56268521398306
48.92266228608787
-30.363256660290062
2.601884030736983
-1.79487385135144
14.350249025039375
20.474625209346414
17.418472659774125
10.281886711716652
-0.10518866777420044
-10.59126060269773
-18.531986172311008
-20.564866083674133
-14.599677355028689
2.3295071879401803
-2.3668759167194366
30.71196015086025
-48.383944327011704
123.71250290516764
-152.7254305118695
56.22527677100152
-43.682748704217374
-6.295780673623085
-20.74484182242304
-5.537538215517998
19.33849377464503
23.628575189970434
15.11516067944467
-0.28641644585877657
-14.746029340662062
-23.579775540158153
-19.03330510854721
6.423448228277266
19.8740394692868
6.398150898516178
43.192189945839345
-56.626508864574134
153.39685622882098
-176.94791437033564
64.32551204040647
-52.88351985998452
-12.219244595617056
-31.63327433820814
-33.393045138567686
-20.11936353892088
42.80585660319775
21.393631354905665
0.14574115443974733
-21.109865653328598
-43.50275595765561
19.86823329050094
34.31583479885012
31.18140723183751
12.466769746504724
52.33308620657772
-63.70629465393722
175.85149593371898
-192.5623724386096
70.33368105441332
-60.10005585569888
-15.572401026263833
-41.50199396722019
-37.02379400562495
-73.87442967481911
-41.62459298875183
107.9829275989905
0.3892363887280226
-108.5776386288926
42.05153150577098
74.03401047643274
36.64075208641589
41.10509264562279
16.439498821273446
59.389242235571146
-69.9270133539103
193.23713254276663
-202.46236926876009
73.65624965727329
-63.436463861726224
-18.448346101678908
-40.925083306618035
-58.42504559457302
-23.081679376773536
-207.55663484800607
-18.71597573440522
-0.27039943914860487
18.74310950934887
208.14225428085774
23.452923737466335
58.68508624471724
41.07566493889317
18.247845770791173
63.037516084033996
-73.87308840453625
203.07860478339717
-206.61588233709335
75.18534840550274
-65.77483414299786
-13.844632145017385
-61.99380998220295
6.436469252221286
-245.92873236723244
437.7191850170493
-1470.225586483255
-0.4127033594995737
1470.7646759906784
-437.6337274638936
246.57242856314406
-7.0969791379757226
62.01720559364185
13.812058239243925
66.00672761024907
-75.42576597491279
205.6653593746014
-202.69549657776952
73.61863204557449
-62.84518296085298
-18.310486842878163
-41.83126987796277
-58.442231566645205
-23.22323812637478
-208.29763521440327
-18.87298681307584
0.2177286259829998
18.83096885867417
208.41150311892852
23.40678326971829
58.6894610458985
41.30378382187337
18.384845857974142
63.41664621187374
-74.1371600474231
203.4122168244794
-193.045254772529
69.38305564783514
-59.520757822319865
-16.344802100211382
-41.26822760980576
-36.68573852162808
-73.38957521971315
-41.82837789040059
107.82143824733794
-0.10449415538460016
-108.4257207158953
41.72341326996684
73.43618547683582
36.97845573024824
40.451279893983155
16.426039373036474
59.64370384067297
-69.92230968736112
192.38293165853247
-176.04951417353004
63.94158020243049
-53.255380044691265
-12.517379124648869
-30.747707259841263
-34.20153158903122
-20.026285503990948
43.786707332357764
21.58063559886068
-0.4396545859053731
-21.56764888809994
-43.99105398822576
20.367039675824344
33.0936957700178
31.98680199449882
12.358951374422759
53.33308203611523
-64.25350902974606
176.24230490298942
-153.73683362547308
55.9768423223868
-43.56805270444602
-6.800170311704278
-20.612524797208607
-6.245170520618558
19.081117485649884
23.661769685335457
15.326176688075066
-0.23153317905962467
-14.985447874292731
-24.000672275200486
-18.628399352077395
6.234781795181334
19.99879354611039
6.297002646140754
43.373965869657695
-55.8689693659544
153.50656622857787
-124.78287898004055
47.92937590461224
-30.331393596716225
2.2341518942266703
-1.6104476060718298
14.989032978191972
20.58811525348574
18.425481005571783
9.97303085308522
0.2500791191123426
-10.733823583461344
-17.72869607200846
-19.937924353871495
-14.932596370112151
2.5166849489323795
-2.0112943006679416
30.145025551784784
-47.67404781701043
123.32200234942138
-89.7937800725922
39.84523310139775
-15.417391490191221
12.478109535761178
12.055787233635783
20.434825306758285
19.129234494641423
16.153664124198258
8.694759304169565
-0.03912778478115797
-7.927332749590278
-15.425907752010971
-19.428699237294495
-19.91870382381603
-11.853101051878184
-12.675638764398172
15.160973116522655
-39.97220943798311
90.43272705934942
-53.39436979871243
35.18025853019208
2.865150909870863
24.213272656314075
22.38539378158748
25.024547236971557
21.00424157641828
16.257853381335735
8.55459305876866
-0.08076755749061704
-8.29073887784034
-16.229392677545547
-21.481210096739233
-24.690221579745412
-22.525941897183657
-23.00442622927949
-3.4502549208700657
-35.22216257825494
53.2334124809131
-22.779003402218223
25.08040062803775
11.305490117520094
22.90353576373309
21.670516048558056
21.72219500876963
17.670753923244774
13.429293496534228
6.497592413797975
0.5794082526117563
-7.0059005483053625
-12.774781649466604
-18.647167839109898
-21.95516871009022
-20.927710770862177
-23.65663435868919
-10.699245647992939
-25.019984263926744
22.985403752303682
16.750838153995574
47.903864107094705
53.055837334133685
59.85264327283949
56.92897334974259
50.910963603295386
40.712627799250185
27.87618191819638
14.845317122060806
-0.5755089046433568
-14.232179744169116
-27.715939675923437
-40.56420804699883
-50.84456238895655
-57.331288625253364
-60.172377148177475
-52.812857491429895
-47.70888304966502
-17.412478580197785
-53.31866327114403
-53.30844304151833
-53.20007745362818
-52.991633197292686
-125.19929230585694
-124.49931769818068
-124.45581961981952
-125.06847333535552
-224.1104587186128
-222.42584962025285
-222.35077470354736
-223.88465285114944
-337.6818131431937
-335.30785845965147
-335.55606709979475
-338.4277553111315
-452.9840986393392
-449.4608018081635
-449.4926907662302
-453.0778235718608
-559.0643272977322
-554.7908608317375
-554.8558768481016
-559.2601829171181
-648.6511175138876
-643.7710776394233
-643.849630841054
-648.8868892984465
-714.879859640263
-709.4989537950605
-709.4910129541531
-714.8539224732667
-757.1847869409248
-751.329896944575
-751.1111002834514
-756.5249864635989
-770.3265672745183
-764.5265416838229
-764.431367719546
-770.038281946443
-757.8822660883889
-752.211142568849
-752.1871707253158
-757.8094146056101
-715.9580386774614
-710.4245093623176
-710.2744795186445
-715.5056170588359
-648.5060373991728
-643.5952066304162
-643.6386569533497
-648.6368660433218
-559.0970061449334
-554.8826107233763
-555.0181626183912
-559.504504817538
-452.92160487454385
-449.54586068354547
-449.73087777849287
-453.47860242892057
-338.1302098566666
-335.49062628112733
-335.47200930304825
-338.0735570853576
-224.29719286598265
-222.8809466799721
-223.08739447966218
-224.91982242278755
-125.56309983227402
-125.12256199587137
-125.34797870460898
-126.2418818231672
-53.807774126529694
-53.99608988780528
-54.10273886658251
-54.12938265595585
0.6019248934462667
0.20462573319673538
0.26424525026232004
0.7820080704987049
6.611385067924857
5.659779674373567
5.795290809124708
7.018776095472276
7.4200847977772355
6.221989982761443
6.438277403824031
8.070874388329685
8.891614159569144
7.2120896857231855
7.137762852013111
8.669245046563447
8.423219825141132
6.613044432364404
6.412552046589553
7.819790434092283
6.865880056284368
5.26062454469502
5.107051130384207
6.404754483141005
5.408721559680998
4.107798381708562
3.993811024352908
5.065231341868639
3.6677250899374485
2.6003135475330055
2.371379173360765
2.978741582017392
2.1625735759735107
1.6990399416536093
1.6734069688245654
2.0865073231980205
-0.3369128154590726
-0.24255082895979285
-0.15161832608282566
-0.06449335254728794
-1.391399750020355
-1.1094631291925907
-1.2535436693578959
-1.8247006158344448
-3.5570896100252867
-2.7169775515794754
-2.7079910933971405
-3.530226624570787
-5.50126267503947
-4.367394868284464
-4.42472493276
-5.673982250038534
-7.301494823535904
-5.861559645738453
-5.8864481307100505
-7.376793895615265
-7.641583285294473
-5.994626779574901
-5.948971200268716
-7.504614623030648
-7.00760458316654
-5.54535967297852
-5.66295558703132
-7.363104569958523
-7.899749667849392
-6.570528240641579
-6.663407100364566
-8.179596284055151
-6.385440327459946
-5.498898718273267
-5.692388407420367
-6.9671739108162
-1.0566628676024266
-0.5892515572486445
-0.5882508367067203
-1.0517279804917052
53.867529177630786
54.02392822346883
54.10536803730065
54.11215369187994
125.21446191822179
124.50798442447558
124.46082800719887
125.0731184524484
223.84736556455027
222.34509083779994
222.45635936281178
224.18154799798504
337.3185026680585
335.1954207930248
335.7077712826431
338.86012366134673
451.37407734105363
447.99216549121775
448.1371622434817
451.8104879783932
558.2189108158927
554.2165396811906
554.5463932566345
559.2109805836808
648.0977446869947
643.3358572400175
643.5273663001135
648.6741049434058
715.1900610998273
709.8822867455892
709.9472580193542
715.3855524221435
756.5931908641942
750.9621819406748
750.9586274833418
756.582045102492
769.7036567353643
763.9959045825526
763.9761912878603
769.6437043938786
756.2080292459577
750.706000906881
750.8248784099706
756.5656605726108
715.8254039091989
710.537399656605
710.6388439028524
716.1296052495018
647.5203176401556
642.6875870395452
642.7960490379483
647.8452790221199
557.8040861887857
553.399680419825
553.312571641989
557.5412466619164
452.95561179704964
449.3070604708046
449.21248769946396
452.6692064292729
337.581480412744
335.0728854043409
335.18797684647143
337.926319854334
223.60909746866673
222.3602838870138
222.73323626816273
224.73120051249862
124.61154807545245
124.08157179132104
124.20481636747718
124.98171897511929
53.01698881201446
53.20479173120111
53.29894429538399
53.30032321624458
-1.1174852792173624
-0.7700955141335726
-0.8938884204253554
-1.4890329400077462
-5.780870791524649
-4.965712547302246
-5.22195153310895
-6.552382574416697
-7.716020790860057
-6.353363277390599
-6.40620185714215
-7.87599581386894
-7.432994671165943
-6.134149635210633
-6.420383551158011
-8.296886961907148
-8.032413370907307
-6.452544483356178
-6.473706893622875
-8.09756258316338
-7.43073261808604
-5.8400395270437
-5.705276384949684
-7.024445780552924
-5.3987212758511305
-4.0894387178123
-3.963432714343071
-5.0189539501443505
-4.000646252185106
-3.0373932532966137
-2.910834902897477
-3.620783037506044
-0.6043397607281804
-0.13317859545350075
-0.06877387873828411
-0.41114838141947985
1.4003422260284424
1.190104921348393
0.9965967135503888
0.8185147196054459
2.6693703001365066
2.30377515591681
2.378415720537305
2.8937021996825933
5.147148481570184
4.26911379955709
4.252040503546596
5.0961371390149
6.032424744218588
4.81064176838845
4.780119271948934
5.94000001065433
7.772792886942625
6.424340123310685
6.544080529361963
8.13282928057015
8.019285410642624
6.415050912648439
6.40971346385777
8.005452949553728
7.839429410174489
6.341036194935441
6.433582013472915
8.118390614166856
7.901977397501469
6.761978600174189
7.047341283410788
8.761509565636516
7.042877810075879
5.999863430857658
6.04400178976357
7.175336752086878
1.1465528011322021
0.8617580477148294
1.049210425466299
1.7110604122281075
12.75802006572485
11.168842613697052
11.482688950374722
13.707732275128365
37.850123619660735
32.619549345225096
32.528149891644716
37.576140547171235
40.48178827948868
33.938559433445334
33.91749938391149
40.418839083984494
45.74930130876601
38.08766295388341
37.88619068264961
45.14171444065869
42.15537147410214
34.85291879251599
34.98726977407932
42.56177029013634
36.910151039250195
30.20794317033142
30.270586032420397
37.1006441116333
29.924902358092368
24.23391211219132
24.10349314752966
29.53243308328092
20.438869359903038
16.449180935509503
16.377258150838315
20.221293356269598
10.28559617139399
8.240354822948575
8.188009874895215
10.12824462261051
-0.40567669831216335
-0.33656953554600477
-0.2778342915698886
-0.2297381516546011
-10.42560489103198
-8.455182142555714
-8.495419551618397
-10.546218652278185
-20.041066961362958
-16.214272792451084
-16.2830655509606
-20.246739470399916
-29.42788031604141
-23.885121112689376
-23.886200371198356
-29.430746043100953
-37.40945783816278
-30.516083328984678
-30.391798209398985
-37.03455620072782
-42.38679634127766
-34.92353864200413
-34.88885139860213
-42.283347276970744
-45.21073421742767
-37.863331170752645
-37.94899154640734
-45.47188719082624
-40.433032248169184
-33.876146487891674
-33.818284270353615
-40.258649116382
-38.108276727609336
-32.907607917673886
-32.85558049660176
-37.95158115494996
-12.737138276919723
-10.834097519516945
-10.797112847678363
-12.625505521893501
-18.79080448113382
-16.775389855727553
-16.699304960668087
-18.558547601103783
20.626858312636614
18.317099830135703
18.255252860486507
20.4407576918602
5.991503169760108
3.2337320130318403
3.2652852814644575
6.087594108656049
14.436536197550595
10.282672595232725
10.305382362566888
14.505794109776616
12.810809868387878
7.955600894056261
7.820215819403529
12.402645104564726
12.373861657455564
7.622097875922918
7.643054213374853
12.439584181644022
9.345259147696197
5.345669009722769
5.520936512388289
9.876426571048796
6.806103461422026
3.7626834018155932
3.8032664507627487
6.930084613151848
3.1991118397563696
1.6541219605132937
1.7246037805452943
3.412019827403128
0.39278557896614075
0.3087311005219817
0.23278826754540205
0.16261008940637112
-3.468522522598505
-1.8397964565083385
-1.851878311485052
-3.504084930755198
-7.384071871638298
-4.083727791905403
-3.893948315642774
-6.810772493481636
-9.792758403345942
-5.718443114310503
-5.848230111412704
-10.183872483670712
-12.089620056562126
-7.321755096316338
-7.32143397629261
-12.08949999883771
-13.067633013240993
-8.265116402879357
-8.195387209765613
-12.85676299314946
-14.572262106463313
-10.337154279462993
-10.279513177461922
-14.39785357285291
-5.964532324112952
-3.1148922629654408
-3.046048993244767
-5.756439101882279
-20.7802766347304
-18.48917208146304
-18.456812514923513
-20.682764936238527
18.95519812591374
16.876667336560786
16.754545154049993
18.587789790704846
-40.49629037827253
-34.06989083811641
-34.047195713967085
-40.424969382584095
35.98899026028812
36.302933340892196
36.25265357084572
35.83736161515117
5.394984255544841
6.367899592034519
6.344935707747936
5.324179980903864
22.402158865705132
21.404880623333156
21.230785882100463
21.876769419759512
19.070245172828436
17.12335578072816
17.046035522595048
18.837584619410336
19.608844834379852
16.947394723072648
17.028116738423705
19.85293542407453
15.571105542592704
12.793109106831253
12.884154628962278
15.84733581263572
11.145014214329422
8.770789531990886
8.75607165787369
11.102504248730838
5.875298484228551
4.60994531866163
4.684661202132702
6.102720838971436
-0.015049580484628677
-0.010184194892644882
-0.015052094124257565
-0.029760007746517658
-5.717302590608597
-4.279421988874674
-4.173928903415799
-5.399787061847746
-10.91636995691806
-8.694196980446577
-8.853864649310708
-11.397142295725644
-16.211751100607216
-13.26100670453161
-13.211960864253342
-16.065482183359563
-19.237069310620427
-16.667054710909724
-16.828342236578465
-19.723665774799883
-19.346487569622695
-17.264270298182964
-17.056705301627517
-18.72015504259616
-22.391847708262503
-21.45699710585177
-21.367990071885288
-22.122548180632293
-5.476384742185473
-6.371687668375671
-6.273046544753015
-5.178253320977092
-36.035212794318795
-36.3788549778983
-36.36418179795146
-35.99160149600357
40.42923894524574
34.29381256084889
34.58240745123476
41.30126876197755
-68.2315883319825
-57.1009600777179
-57.071733586490154
-68.14281471818686
46.41405954025686
49.433187456801534
49.40318811964244
46.32577081024647
-4.630469324998558
0.6266734302043915
0.5605838363990188
-4.830081505700946
20.107797699980438
23.455029187723994
23.308312899433076
19.663483349606395
16.78297576121986
18.791676277294755
18.609541633166373
16.23335268907249
20.84250681195408
21.117868138477206
21.092044975608587
20.76614650618285
17.767820502631366
16.87721826788038
16.904008643701673
17.849709652364254
13.169043892994523
11.76117710955441
11.6321512311697
12.77981501724571
6.307306414470077
5.587426315993071
5.736630351282656
6.757059862837195
-0.025259604677557945
0.13007495738565922
0.2905348325148225
0.45898551400750875
-6.5268889255821705
-5.669089928269386
-5.68049437738955
-6.561393150128424
-12.911995039321482
-11.653879235498607
-11.674323401413858
-12.975250052288175
-17.593768510967493
-16.570476165041327
-16.429494836367667
-17.16948743350804
-20.95761026069522
-21.237297827377915
-21.20036537013948
-20.845361955463886
-16.753307171165943
-18.858545447699726
-18.76763106044382
-16.47909084521234
-19.705132444389164
-23.24375544115901
-23.281843749806285
-19.81894691940397
4.5442477613687515
-0.5395517162978649
-0.2935996279120445
5.2871101554483175
-45.857993892394006
-49.032218840904534
-49.135380109772086
-46.16830031666905
67.42156630661339
56.3160464996472
56.28335391078144
67.32243159040809
-93.22416035830975
-77.83100172132254
-77.80666192807257
-93.14983986504376
58.79370919056237
64.22102495003492
64.38168160337955
59.278888075612485
-11.675269567407668
-2.4296405790373683
-2.4857519241049886
-11.842896595597267
18.44199406914413
26.571039026603103
26.623764161020517
18.601243465207517
12.226617058739066
19.82699363771826
20.00547841563821
12.76552321575582
24.126360224559903
28.78479230776429
28.70045320596546
23.873786331154406
24.30220994260162
26.24090118892491
26.248574210330844
24.326066411100328
17.89151215646416
18.12413806281984
18.12634272594005
17.896951851435006
9.896569647826254
9.531443597748876
9.47669673897326
9.732214990071952
0.15275163389742374
0.07726778462529182
0.00976089108735323
-0.05065289232879877
-9.562726892530918
-9.360972414724529
-9.466197871603072
-9.880836619064212
-18.311401046812534
-18.658190832473338
-18.81044055148959
-18.77317046467215
-23.94393766578287
-26.016144571825862
-26.141998170875013
-24.323849416337907
-24.202825834043324
-28.912072035484016
-28.87461795285344
-24.089023509062827
-12.346172419376671
-19.78125854767859
-19.796956658363342
-12.39448557049036
-18.345273879356682
-26.441898903809488
-26.461295783519745
-18.403694703243673
11.623454554006457
2.4792543314397335
2.6332945013418794
12.089522062800825
-59.03388421982527
-64.28744782414287
-64.26280755735934
-58.959346916526556
93.05177372507751
77.75110978540033
77.81041019503027
93.22915336955339
-114.86997905001044
-96.08555115573108
-96.19259287696332
-115.19296516478062
70.48085566144437
77.26431872975081
77.14823814947158
70.13100678194314
-18.709923463873565
-6.1986985094845295
-6.2214520908892155
-18.77838970720768
17.901996473781765
29.874847494997084
29.808102308772504
17.70155841857195
5.598349827341735
18.60411668755114
18.519064970314503
5.342660650610924
16.430018240585923
28.151145508512855
28.36948429606855
17.088536852039397
33.33116314094514
40.26525302603841
40.23328491859138
33.235943134874105
28.534084241837263
31.175443686544895
31.238080605864525
28.72219495009631
15.9387963488698
16.60646188352257
16.691152691841125
16.196613273583353
0.12692280113697052
0.024485260248184204
-0.07715179398655891
-0.1805099742487073
-16.283399546518922
-16.766770890913904
-16.672783852554858
-16.002725745551288
-28.668954680673778
-31.266084199771285
-31.283394291065633
-28.72097167558968
-32.87712289951742
-39.88171638082713
-39.898436770774424
-32.92742085363716
-16.98878414463252
-28.351656067185104
-28.214810287579894
-16.574112029746175
-5.490912768989801
-18.694495094940066
-18.83651597611606
-5.919759928248823
-17.988142511807382
-29.895933776162565
-29.776507788337767
-17.629131561145186
18.689284935593605
6.060783376917243
5.9682586546987295
18.408500216901302
-70.05565394833684
-77.05010476987809
-77.13894924893975
-70.32586956117302
115.38557219412178
96.6213677925989
96.76152808591723
115.80687644146383
-133.57863485440612
-112.09830236807466
-112.23444521147758
-133.98880827985704
79.65112211927772
87.71767220832407
87.84770457074046
80.04436838347465
-23.646287457086146
-8.806142142042518
-8.769861373119056
-23.534951938316226
16.820395887829363
31.807623696513474
31.931324279867113
17.19446006976068
3.07152284309268
20.48770534619689
20.469862828962505
3.0178692787885666
4.588755594566464
23.63128464948386
23.60350489988923
4.505702784284949
13.86458607017994
31.020955193787813
31.036926588974893
13.911222727969289
60.678585215471685
68.26114036981016
67.80564127210528
59.305628332309425
23.95551731903106
26.457915470935404
26.86695326399058
25.182336900383234
0.26199120469391346
0.22339298482984304
0.19091343134641647
0.16506557445973158
-24.065069348551333
-26.46315428800881
-26.77289690077305
-24.992396683432162
-60.01208013296127
-67.94846988562495
-67.83340226765722
-59.66743872500956
-14.510312591679394
-31.535048662684858
-31.443048269487917
-14.230296776629984
-4.331859914585948
-23.23519334755838
-23.05390392523259
-3.7822090554982424
-3.6099379248917103
-20.95870680268854
-20.904492868110538
-3.446536270901561
-16.64434534776956
-31.624667211435735
-31.733698460273445
-16.975249881856143
23.95313782338053
8.887074631638825
8.635446821339428
23.191805999726057
-79.26246954966336
-87.2998365610838
-87.38171322550625
-79.51112430356443
132.97600937262177
111.42071787361056
111.45014137588441
133.06501612626016
-146.38707900606096
-122.8502891054377
-122.77734735701233
-146.16508355364203
86.87911189906299
95.48557553999126
95.59255620185286
87.20357252191752
-27.766946881078184
-11.55882054567337
-11.584476568736136
-27.843579950742424
16.708916233852506
33.42765345051885
33.584618147462606
17.183652698993683
-0.6369476160034537
19.15028360299766
18.89334294665605
-1.4113702168688178
9.652690069749951
33.19064821023494
33.20614688284695
9.697338028810918
-15.59047354478389
13.087334219366312
12.860932731069624
-16.272039745002985
8.100983060896397
35.29645682219416
36.008409711532295
10.236586794257164
126.56186637375504
131.53979214746505
130.1050575627014
122.26483106985688
-0.3666503233835101
-0.1517237601801753
0.043533108197152615
0.2226424776017666
-127.24678536131978
-132.1246234262362
-130.64427146781236
-122.80871219653636
-8.038440720178187
-35.13569878228009
-35.755682399496436
-9.895785134285688
16.15702062472701
-12.636993752792478
-12.515927235595882
16.520686444826424
-10.037756030447781
-33.551429357379675
-33.559102553874254
-10.05817776825279
1.1535834213718772
-18.85391168296337
-18.82150552701205
1.2524873027577996
-17.028598827309906
-33.453678329475224
-33.31821345817298
-16.62130796071142
27.261910201981664
11.020071835257113
11.001714021898806
27.20396726951003
-87.04302436066791
-95.53640028042719
-95.51266926014796
-86.97245872439817
145.85070801712573
122.61882170010358
122.84474166389555
146.5325795309618
-154.2536689741537
-129.5967331416905
-129.493631336838
-153.94025494530797
91.06575369928032
99.89769500028342
99.93750901333988
91.18679316621274
-29.142717447131872
-12.33584956265986
-12.487744697369635
-29.60192902199924
16.047612003050745
33.44350747484714
33.457313945516944
16.090952295809984
0.5716852750629187
21.911701200529933
22.062722450122237
1.0262871040031314
-5.971639793366194
19.603095690719783
19.330214329063892
-6.792584105394781
35.56242471281439
68.660649811849
69.84659192804247
39.12726800702512
-96.30107636749744
-50.70446126256138
-54.167534401640296
-106.72131068259478
45.59596639405936
102.56241930928081
110.71449254639447
70.0332910604775
-0.08820096496492624
-0.11910894885659218
-0.15991184208542109
-0.21042119711637497
-45.39077183417976
-102.40769127011299
-110.6069790655747
-69.96845664456487
96.30643912218511
50.84179844520986
54.443217056803405
107.14552996307611
-35.4254951113835
-68.48566247429699
-69.6213865056634
-38.837355522438884
5.700588992796838
-19.734672200866044
-19.32823341432959
6.924444074742496
-0.30459903134033084
-21.691401280928403
-21.87656683847308
-0.8627233603037894
-15.996902953833342
-33.46212938707322
-33.54026495851576
-16.2344103557989
29.971335296984762
12.805866979062557
12.638635149691254
29.46562069701031
-91.33106303308159
-100.15653827833012
-100.18592298729345
-91.42143150605261
154.02884200168774
129.60356514900923
129.71367355855182
154.3612750475295
-157.3996770940721
-132.4468970829621
-132.41327050048858
-157.29643729049712
93.71990261040628
102.34468370303512
102.13198465388268
93.0778121445328
-31.420991552993655
-14.22943289205432
-14.265052746981382
-31.52927923295647
20.431957504712045
38.08010034728795
38.21638322714716
20.840904105454683
-15.387164950370789
5.856117067858577
5.1239273604005575
-17.588943240232766
46.09406016767025
73.2120765671134
75.58392779901624
53.22822011914104
-137.3372406307608
-106.13391430303454
-113.88862081244588
-160.68034053687006
405.8635053485632
461.72481432929635
485.447405830957
477.3314742911607
-959.0350540531799
-881.319763883017
-940.3483222546056
-1137.3640959504992
0.1004489166662097
-0.018102814443409443
-0.14264409337192774
-0.27404728066176176
958.848790217191
881.3032764308155
940.5065056607127
1137.7058645961806
-406.16970592271537
-461.94683935213834
-485.5779859954491
-477.360651534982
137.17041365383193
106.1480074301362
114.09548846445978
161.09565679216757
-46.51194966211915
-73.63303580880165
-76.04648836096749
-53.77098750183359
15.129750663414598
-6.017289331648499
-5.206793330144137
17.567193116992712
-20.091731284279376
-37.842703321017325
-38.07389740366489
-20.78764714114368
32.054629996884614
14.697187068406492
14.614113335963339
31.801913923583925
-92.88566225767136
-101.81643074098974
-101.88035876350477
-93.07995666796342
156.6699782423675
131.74296227423474
131.68017750186846
156.4801601814106
-153.7806601319462
-129.3176865335554
-129.3938598781824
-154.00961354281753
91.4967310866341
100.20034226682037
100.12078597955406
91.2575315264985
-29.639125246554613
-12.554623340256512
-12.436398587189615
-29.282348085194826
16.068267940543592
33.51541201304644
33.565979693084955
16.221687489189208
0.297202973626554
21.5352896861732
21.548480356112123
0.3359561190009117
-5.8571570897474885
19.68772710673511
19.38323246408254
-6.7734254244714975
35.47623681742698
68.56503112986684
69.73910768516362
39.00483023095876
-96.77498540468514
-51.20949042867869
-54.726775717921555
-107.35928666684777
45.58775559067726
102.52566421218216
110.64364056289196
69.92248115688562
0.0519364969804883
0.07791475672274828
0.1142744617536664
0.16086239274591208
-45.656239996664226
-102.59238547086716
-110.70598348695785
-69.97692393139005
96.66821558354422
51.15863937791437
54.730040289927274
107.41660571098328
-35.86337282508612
-68.78774079214782
-69.81458068266511
-38.94627331988886
5.763212074059993
-19.670174047816545
-19.272417976520956
6.960340905468911
-0.16212930623441935
-21.532319177873433
-21.69747297046706
-0.6604087143205106
-16.110534409061074
-33.525111376773566
-33.5458628651686
-16.173855552915484
29.59677635645494
12.63304743450135
12.65620245737955
29.66583559010178
-91.4754679244943
-100.29839858226478
-100.34730804851279
-91.62347789341584
154.05458009522408
129.69360967958346
129.87675595469773
154.605908700265
-146.11049106996506
-122.76392462011427
-122.87807080894709
-146.45472312811762
86.47852700855583
95.00757461693138
94.99939856119454
86.45381017681211
-27.14872475899756
-10.974877829663455
-11.0181821025908
-27.27865024935454
16.59367685765028
33.17843985743821
33.184171341359615
16.610284033231437
-0.9089036667719483
19.018476884812117
18.892084013670683
-1.2909384658560157
10.040516887791455
33.56357875838876
33.56587162613869
10.045335817150772
-15.903464711271226
12.972284846007824
12.942303688265383
-15.99171038158238
7.836816469207406
35.04738160595298
35.773689014837146
10.016456911340356
127.0953527269885
131.87167120724916
130.2563116485253
122.25275419373065
-0.12156038172543049
-0.11106115207076073
-0.1030560927465558
-0.10024971514940262
-126.37697124667466
-131.5048924004659
-130.22229041019455
-122.53989681461826
-8.036014994140714
-35.198463588021696
-35.89414712646976
-10.1222069603391
15.82799778971821
-12.98855530237779
-12.920419536996633
16.03353603137657
-9.824235440697521
-33.31062321923673
-33.28747436683625
-9.753746883943677
1.2676165392622352
-18.931685245595872
-19.087354857008904
0.7964336201548576
-17.20060123456642
-33.58741095243022
-33.413565538823605
-16.676980721298605
27.82328312797472
11.469727192539722
11.362573735415936
27.499900419730693
-86.8853734349832
-95.41739266552031
-95.43138982821256
-86.92850520228967
146.26733305631205
122.73818586580455
122.65630119340494
146.0211931183003
-133.4077073354274
-111.76908149197698
-111.73173007089645
-133.29633782058954
79.67895871400833
87.65268414001912
87.6860019909218
79.77776409685612
-23.560311266221106
-8.825376557186246
-8.8976437933743
-23.779295690357685
17.265124583616853
32.076512143947184
32.020428366959095
17.095491917803884
3.1223877649754286
20.73739203810692
20.922038801945746
3.6808848408982158
4.163546988740563
23.141005241312087
23.028415703214705
3.824800396338105
14.087825633585453
31.204705262556672
31.186028027907014
14.029896156862378
60.657731138169765
68.46982258930802
68.25416302401572
60.00978545192629
23.994475356303155
26.520079977810383
26.96067720465362
25.3175305435434
0.34702477138489485
0.13742851559072733
-0.060101550072431564
-0.2509090583771467
-23.883471343666315
-26.45578102534637
-26.926620547194034
-25.299627512693405
-60.29040669929236
-68.23406290123239
-68.15645186509937
-60.05803099181503
-14.209880613256246
-31.192196634132415
-31.0525635862723
-13.787553060799837
-4.422050075605512
-23.559620151296258
-23.64092469215393
-4.666570328176022
-3.29035838926211
-20.546224942896515
-20.38071708055213
-2.7920513954013586
-17.167872584424913
-32.010416706092656
-32.00702894711867
-17.15703055728227
23.681408792734146
8.922743162605911
8.98218899127096
23.858314252924174
-80.04145844094455
-87.97037709038705
-87.9787899707444
-80.06804093392566
132.97958052437752
111.5200481149368
111.6434522033669
133.35409654397517
-115.2633385695517
-96.59116735495627
-96.83468738291413
-116.00148835685104
70.76626688148826
77.41609944030643
77.1692896578461
70.02064963616431
-18.52091513108462
-6.032070179469883
-6.073391522280872
-18.646434110589325
17.562480948865414
29.52195326332003
29.424793262034655
17.268101415596902
4.943902999162674
18.160204348154366
18.274251898750663
5.288833869621158
16.746040822006762
28.212688799016178
28.17770554497838
16.64154085982591
33.14670688845217
40.074686938896775
40.028918573632836
33.00939163379371
28.77073654718697
31.33932080026716
31.343606329523027
28.784183288924396
15.868230883032084
16.59313180670142
16.74379009474069
16.32421962916851
0.15686336578801274
0.05275884363800287
-0.04479087982326746
-0.13888195622712374
-15.788401705678552
-16.47560253692791
-16.56907402491197
-16.07445511640981
-29.01588270580396
-31.614385902881622
-31.64439516561106
-29.106506712269038
-33.3605659971945
-40.131928817369044
-39.9255581907928
-32.73713196767494
-16.752363074105233
-28.223303528502584
-28.19063716288656
-16.65473574772477
-5.702089019585401
-18.8224540152587
-18.882402547169477
-5.882152750622481
-17.329708319623023
-29.456340891774744
-29.535239078104496
-17.567428992129862
18.884815473109484
6.2311908709816635
6.127553092781454
18.57163029536605
-69.9604573789984
-76.83082205615938
-76.77083187922835
-69.77920224610716
115.1438075734768
96.46639299229719
96.69084564293735
115.82342764013447
-92.40392758790404
-77.52534748055041
-78.00326082948595
-93.85046953707933
58.842258165590465
64.0480276029557
63.96585924178362
58.591726877726614
-11.944216429255903
-2.6064605489373207
-2.5817610109224916
-11.869852463714778
18.89148362725973
26.799209907650948
26.64443950727582
18.424562776461244
13.123147344216704
20.492349070496857
20.47735266853124
13.078114175237715
24.243903427384794
29.031427470967174
29.07538631465286
24.378936909139156
23.739183876663446
25.871985745616257
26.05465150345117
24.29163860064
18.339274504221976
18.651418368332088
18.769929957576096
18.699391221627593
9.80867084627971
9.397650820668787
9.291484273038805
9.488785638008267
0.09391707554459572
0.10775885777547956
0.13836663775146008
0.18608471611514688
-9.996770231984556
-9.727352693676949
-9.76271403953433
-10.10309070814401
-18.038797467947006
-18.300644053146243
-18.33861454995349
-18.153370708227158
-23.803822164423764
-25.77239591628313
-25.784071198664606
-23.838767079170793
-24.303683317266405
-29.057998513337225
-29.074096420779824
-24.351199578028172
-12.907752205152065
-20.14870043564588
-19.979075443930924
-12.393764023669064
-19.33318329229951
-27.077094679232687
-26.75842402782291
-18.372634301893413
12.075031491694972
2.636877509765327
2.527360159670934
11.7436450838577
-58.92959794891067
-64.06832819525152
-63.906720449682325
-58.44061886216514
92.89466856932268
77.55814718059264
77.56497860746458
92.9173586985562
-67.6305684633553
-56.57943518552929
-56.62397960014641
-67.76639307662845
46.26227144431323
49.274345031008124
49.21144913882017
46.07105611637235
-4.712254835292697
0.5846176398918033
0.5535015454515815
-4.806541769765317
19.36246453318745
22.920833298005164
22.953328676521778
19.460634543560445
16.591788451187313
18.758323648013175
18.72138370294124
16.481204284355044
20.79148255288601
21.17116247676313
21.239321435801685
20.9981816932559
18.077982449904084
16.990967793390155
16.809697679243982
17.533029378391802
12.731264955364168
11.658204346895218
11.872032021172345
13.378955269232392
6.505894456058741
5.74469449557364
5.8571686069481075
6.845954995602369
0.0866537606343627
0.03518460039049387
-0.002825893461704254
-0.02731617446988821
-6.853619213681668
-5.820708601735532
-5.660826538223773
-6.370371498633176
-13.326071103103459
-11.893314779736102
-11.772373059764504
-12.961034442298114
-17.579780084080994
-16.68147666240111
-16.695413913112134
-17.621280112769455
-20.997417215257883
-21.18671746039763
-21.074383332394063
-20.657797614112496
-16.695381309837103
-18.776714469771832
-18.66296635940671
-16.35048334626481
-19.793344946578145
-23.262814263813198
-23.22846347768791
-19.689059989526868
5.217955178115517
-0.30242328019812703
-0.46959101664833724
4.713026741053909
-46.05290540657006
-49.15946402680129
-49.182810741942376
-46.12254666979425
68.1952088160906
57.116266642464325
57.164216589182615
68.34050797345117
-40.35694708395749
-34.03213001508266
-34.116362707689404
-40.611373039893806
36.0494800535962
36.38160156831145
36.353289066813886
35.96448392327875
5.257076189853251
6.172721397131681
6.078890304081142
4.973466179333627
21.98135855048895
21.298431490547955
21.44631229247898
22.427263559773564
18.686513303779066
16.82963082380593
16.833152901381254
18.698792322538793
19.570011362433434
16.834721776656806
16.84098477009684
19.588838250376284
15.943728816695511
12.908351845107973
12.750756886787713
15.468368725851178
10.803539792075753
8.611318696290255
8.793897102586925
11.355843077413738
5.965909024234861
4.598579376004636
4.5775165762752295
5.903750242199749
-0.5833106013014913
-0.430096120107919
-0.2971630063839257
-0.1816035360097885
-5.233033256139606
-4.0201307740062475
-4.12908682692796
-5.559939826373011
-11.317909182980657
-8.967762036714703
-9.010412732604891
-11.445514729246497
-15.803492740727961
-12.901205830276012
-12.889372090809047
-15.767602675128728
-19.915546737145633
-16.99257405474782
-16.825892263557762
-19.411583019886166
-19.04933583084494
-17.12656226172112
-17.074328976450488
-18.889370295451954
-22.100573747884482
-21.113930356455967
-20.943353034788743
-21.584563734242693
-5.420813083415851
-6.40929034515284
-6.409214792540297
-5.419785514939576
-36.09145545284264
-36.415124650578946
-36.383570889011025
-35.99684388516471
40.37623040180188
34.01732757256832
34.0611866741674
40.50754084647633
-18.692528979852796
-16.79997777286917
-16.85527201835066
-18.861515727825463
20.94430060312152
18.60898893419653
18.530663767829537
20.70700849685818
6.035015357658267
3.1881794268265367
3.1264268523082137
5.848142338916659
14.990999448113143
10.675029267556965
10.568587948568165
14.669987758621573
12.893350251019001
8.023815782740712
7.878659795969725
12.454589200206101
12.604488253593445
7.75463795196265
7.6714970814064145
12.353849602863193
9.316155698150396
5.196965226903558
5.226696756668389
9.406220686621964
7.145120037253946
4.073753220960498
4.104802618268877
7.239384543616325
3.7119178446009755
1.9322509062476456
1.8077784329652786
3.3384014233015478
0.11562612000852823
0.2018484203144908
0.30621257377788424
0.4314297209493816
-3.3416223754175007
-1.8147288206964731
-1.9198226961307228
-3.658024941571057
-6.922064051963389
-3.764354498591274
-3.696219326928258
-6.716552615631372
-10.15208583790809
-5.991713577415794
-6.031142987776548
-10.271623670123518
-12.574538021348417
-7.7791295745410025
-7.757326919585466
-12.508643951732665
-12.776791793294251
-7.787014082772657
-7.499103942187503
-11.907034472795203
-14.935788585571572
-10.810462592402473
-10.901484376750886
-15.20823469455354
-6.364392921095714
-3.282492248341441
-2.989178653107956
-5.478414955781773
-20.731687963590957
-18.44747058977373
-18.410128651885316
-20.619632935151458
19.12610051210504
17.155307174893096
17.14872056513559
19.106270322576165
12.897782128304243
11.060490323230624
11.097643482498825
13.00890234299004
37.96898648608476
32.76655713748187
32.70762026309967
37.79187336936593
40.64668187405914
34.0129352286458
33.893475057557225
40.286684547550976
44.98107860609889
37.582046064548194
37.62001580744982
45.09382908977568
42.92144788429141
35.275887657888234
35.088983935303986
42.35719604510814
37.17388428747654
30.465604511089623
30.54124546609819
37.40003340598196
29.338848419487476
23.89071510359645
23.987804894335568
29.630540169775486
20.58494655555114
16.5432333284989
16.42536373855546
20.22871337039396
10.283457471057773
8.38184502813965
8.512472360394895
10.678772890008986
-0.4675223655067384
-0.4678137805312872
-0.48698091320693493
-0.5233977963216603
-10.336808633990586
-8.290116776712239
-8.262473131529987
-10.255582477897406
-20.00357642164454
-16.1060309978202
-16.104427302721888
-19.998560169246048
-29.477917179930955
-23.953495589550585
-23.976064898539335
-29.547801421489567
-37.13105586497113
-30.429843420395628
-30.50232647336088
-37.35047184373252
-42.39072655886412
-34.99226320069283
-35.04096938832663
-42.536288754083216
-45.404447140172124
-37.94893451151438
-37.950732758967206
-45.409040780505165
-40.65606334526092
-33.96924558933824
-33.79056275088806
-40.11719185754191
-37.368833804968745
-32.29694280331023
-32.34760681958869
-37.5217556648422
-13.193179695867002
-11.421730542730074
-11.540572708530817
-13.551407421531621
SCALARS stress13 float
LOOKUP_TABLE default
-39.57745026983321
39.573047399520874
39.85715154162608
-41.337261978536844
-39.55021486803889
39.64785529207438
40.50956651812885
-40.690124549902976
2.412013066932559
8.50445182994008
10.215957090258598
11.115758528932929
10.976393470540643
10.225368345156312
9.525576368905604
6.8711321745067835
2.045188263989985
0.8902379255741835
-3.224593657068908
-6.069112082011998
-8.150169882923365
-9.210776008665562
-11.005101810209453
-11.339427013881505
-9.6067333528772
-8.553812858648598
-2.104793251492083
54.449731768108904
125.96153601631522
226.60022243112326
341.9678581878543
458.97571256943047
567.0172195760533
657.4724943554029
726.0999537687749
767.0934347985312
781.7438949230127
768.1416180632077
725.3860328369774
657.3931444068439
567.5719890953042
459.59484752477147
341.95720575680025
227.0671462874161
125.67713808023836
52.945055852876976
-2.936418413068168
-7.27628329268191
-9.71321040915791
-10.419027273077518
-10.226193484151736
-9.2157203189563
-8.79174453066662
-5.360678177792579
-3.4926833477802575
0.05278254300355911
2.417860791552812
5.043174993712455
8.129527115263045
9.250189791433513
11.460575432516634
10.965389668941498
9.405823771841824
8.873744148761034
1.1933733504265547
-53.5991701381281
-126.93344731163234
-227.7240341445431
-342.8208717480302
-459.4643388604745
-566.8782312581316
-657.6115532331169
-725.9628375256434
-768.012617032975
-781.6145902425051
-767.5378244342282
-724.9845092510805
-658.0439737485722
-567.9187765289098
-459.13348862342536
-342.5593460071832
-225.988895829767
-126.82888794504106
-53.817235263064504
1.8238965831696987
8.606995861977339
10.100667256861925
11.42393465526402
10.252601835876703
9.693088915199041
8.526445532217622
6.852323734201491
2.886743343435228
0.49602042976766825
-3.935183607041836
-5.113420142792165
-8.212333119474351
-9.145777658559382
-10.884179605171084
-12.020046004094183
-9.752099274657667
-9.06356501672417
-2.4079788709059358
54.074054051190615
127.09824298787862
226.3792105736211
342.2139634732157
458.6998800225556
567.7397682825103
657.6025191200897
725.6731602838263
767.8505731960759
782.3193025896326
768.9240527646616
726.4160422277637
657.692201836966
567.3392836281564
460.12349313427694
342.88996024639346
227.3157427472761
126.66145365219563
53.519347197026946
-1.7850570800947025
-9.174698740243912
-10.611585351405665
-10.80942995287478
-10.705233271699399
-10.111674070125446
-7.686317245010287
-5.384461995679885
-2.6927430918440223
-0.45044536842033267
3.1479458739049733
6.462058179546148
8.392890475690365
9.346056409180164
10.0519983721897
10.681591322645545
9.224657404236495
8.245266932062805
1.7722836332395673
-53.67381243314594
-126.2809478668496
-227.41341012809426
-343.1560689192265
-459.4935101605952
-567.2925230460241
-657.9997679954395
-726.2744372682646
-767.3006081134081
-782.7482766024768
-767.7630978720263
-725.6961749643087
-658.3481977237388
-567.8368578981608
-459.3748661223799
-342.6226379480213
-226.73602079041302
-127.04253130406141
-54.23347245529294
-39.54004189372063
-39.51876066438854
-39.512617060914636
-39.522560730576515
39.55659359600395
39.55692217219621
39.57142373919487
39.60141837596893
39.951665092492476
40.06422585505061
40.19406145752873
40.34175452881027
-41.1583357648924
-41.00556586589664
-40.87628001347184
-40.770955849438906
16.858080742880702
-22.318401772528887
-53.26579119451344
-89.48609624803066
-123.62787566892803
-153.28296752646565
-175.62655212264508
-192.56554007995874
-202.56497197970748
-206.06762956362218
-202.9843664607033
-192.48685282468796
-175.60825035441667
-152.84430869761854
-123.08183040097356
-89.61639235541224
-53.719243169762194
-22.32914407271892
17.28273926023394
47.93149735033512
25.632670551538467
35.412805980071425
40.33134352136403
48.63719692546874
56.09234407078475
63.62862528953701
69.9209380177781
73.80288181919605
75.18316343333572
73.80544496141374
69.93855350837111
63.91556284483522
56.941737135872245
48.28686116170138
39.8964014230296
35.791583908721805
25.273417649790645
47.572346433997154
53.85207892768085
11.579790497198701
2.97525327000767
-14.549367512576282
-30.80095728021115
-43.625615829601884
-52.72493529878557
-59.98799865972251
-63.552419086918235
-65.71217051893473
-63.042683706618845
-59.60380876902491
-53.58889037184417
-43.2828599633649
-30.010699012316763
-14.884676937013865
4.181510312482715
11.039694720879197
53.743078893981874
60.37365200743079
23.005090907216072
23.50307775940746
12.895952644757926
2.389980584383011
-5.822707335464656
-11.907873746939003
-16.074761818163097
-18.1894743219018
-14.594044554978609
-18.26111672539264
-15.221016621217132
-12.989583251997828
-6.23269160464406
2.9397435691207647
12.658753553405404
24.094406751915812
22.630220618098974
60.158411773853004
57.39796964637935
22.439680328592658
22.793474941514432
12.519459159113467
-1.6797448694705963
-20.279900366440415
-31.885531942360103
-40.831403946504
-42.290298756211996
-58.1585379363969
-42.14747486822307
-40.632378422655165
-31.563849397934973
-20.338720756582916
-1.8203580053523183
12.104595299810171
22.995068388991058
22.013703670352697
57.32291719969362
50.722751467488706
21.868997359648347
24.676731580868363
20.329283356666565
14.737986301071942
-5.7718852842226624
-33.846343335695565
-36.66130946855992
-56.63143216911703
-4.664287216030061
-56.42118258122355
-37.23407182004303
-33.22553049772978
-6.495048162527382
14.234897094778717
20.405463594011962
25.21628226991743
22.086066650226712
51.0629874933511
40.56444891169667
18.508519099093974
21.634582998231053
19.681582518853247
19.801227763295174
19.147581371478736
-19.84895901940763
-72.64159832987934
-29.94968497660011
-207.4276277469471
-29.28045216947794
-73.1644860971719
-20.233015276491642
18.54189241770655
20.490761891007423
18.934163368307054
21.80040792748332
18.4154051002115
40.069519898854196
27.80273791681975
13.186002533882856
16.27908205706626
15.511091318912804
18.062269813381135
23.385854777880013
44.51054384931922
-45.15755533799529
-190.28908375184983
318.45630080625415
-189.89468945469707
-44.21444496419281
44.253185843117535
23.604969637468457
17.77554862666875
15.995945158414543
15.701312866993248
12.675796757917851
27.678182660136372
14.101892879232764
6.354698244482279
8.896993170492351
8.385054630227387
10.61629032343626
15.227482594549656
18.945468172430992
115.06193935126066
-59.80493810400367
-1168.937182057649
-58.85864138882607
115.81596857402474
19.360147123225033
15.48309014737606
9.819623907562345
8.677820820827037
7.895770421251655
6.42538504069671
14.804605420678854
-0.34237951319664717
0.15836197417229414
0.0017985189333558083
-0.13416712544858456
-0.07698418386280537
0.03280050866305828
0.0019139964133501053
-0.053984446451067924
0.10694788862019777
0.2966075725853443
0.022503160871565342
-0.4137066677212715
-0.23987260181456804
-0.19099898729473352
0.070615338627249
-0.07323807291686535
0.01972253853455186
0.13485312648117542
-0.1992432284168899
-14.763296818360686
-7.2026740331202745
-8.197845919057727
-8.8165851123631
-10.180216266773641
-14.307705998420715
-18.988567426800728
-115.55807381402701
58.76630918588489
1169.9821610450745
59.35585327446461
-115.28874036017805
-18.557338574901223
-15.144807760138065
-10.172723160590976
-8.457836023997515
-8.058864976279438
-6.696812228765339
-13.50168421305716
-27.62392974551767
-13.628061169758439
-15.85941234882921
-15.59717760886997
-17.82471925765276
-23.065434766933322
-44.563008482567966
44.820949628949165
189.67984892055392
-317.85000260639936
189.76408359315246
45.32446444546804
-45.05285978456959
-23.440117259975523
-16.9564928682521
-15.867431747727096
-16.219872160814703
-13.0910615734756
-27.950030150357634
-40.464245029725134
-18.289641502313316
-21.67682364396751
-19.251136644743383
-19.8887220621109
-19.295391366817057
19.79126065876335
72.72249495610595
28.788419221527874
206.614504983183
29.765945599414408
72.63425871171057
20.133701844140887
-19.21377950673923
-20.517941272817552
-19.152854749001563
-21.561280745547265
-17.989994300995022
-40.76536810072139
-50.69891830626875
-21.9774805046618
-25.51112095080316
-20.442936717532575
-14.967833087779582
6.201557954773307
33.46275484934449
36.34426658041775
56.86851485539228
5.258043655660003
57.15035732323304
37.45716215623543
33.47932770149782
6.5094663691706955
-14.914130283053964
-19.153513630386442
-25.45205799676478
-21.432194476481527
-50.94500534143299
-57.74015273153782
-22.382081671617925
-22.496142379008234
-11.46579313930124
2.4939812421798706
20.0540551552549
30.9807324167341
41.4661211296916
42.180859359912574
58.6065090992488
41.85186636680737
40.825410339515656
31.15472128847614
20.647981998044997
1.8166546779684722
-12.03466103412211
-22.8586778936442
-21.73797584325075
-57.09376108646393
-59.792953758500516
-23.045694741420448
-24.42688133753836
-12.916376928798854
-2.3948903335258365
5.971623977646232
12.435385625809431
16.14083710871637
18.072163923177868
14.341166171245277
18.378105107229203
15.944617537315935
12.304173059761524
6.228569756262004
-2.536475201137364
-12.975958094233647
-23.59016193426214
-23.365829159040004
-59.968092998024076
-53.506977134384215
-11.40832145884633
-2.8367827823385596
15.169698881916702
29.937872113659978
43.31344664655626
53.54221735987812
60.568738704547286
63.20814806735143
65.46801766287535
63.810456414707005
60.32207045983523
52.98200151650235
43.3244068287313
30.238295666873455
15.451597339706495
-3.396312277764082
-11.575622597243637
-53.44196762086358
-47.691027173772454
-25.035898139700294
-35.66772117372602
-39.39587291888893
-48.74238898791373
-55.93383246939629
-63.78061315976083
-69.72763503715396
-72.76463172864169
-75.646483653225
-74.01698595518246
-70.37122394610196
-64.27129503292963
-56.36556646134704
-48.066386429127306
-40.434922255342826
-34.82925706356764
-25.16849663492758
-48.293082462856546
-17.157780531793833
22.507184741087258
53.88342525996268
89.22115921508521
123.32001400832087
152.59747415967286
175.72003392037004
191.9721634532325
202.8661944977939
206.72124917292967
202.36387443495914
192.93934024916962
175.2193789249286
152.628716673702
123.7715806949418
89.80424568220042
53.55600510793738
22.576289112796076
-16.5976959427353
16.882663505151868
-22.77508325688541
-53.48954140394926
-90.07968424446881
-123.65573414508253
-152.50204239971936
-176.08868843503296
-193.2501308331266
-202.65416901372373
-206.4145835628733
-202.67014436423779
-193.3456059396267
-176.3466836521402
-153.33534023351967
-123.58266294375062
-90.1936055496335
-53.534875872544944
-23.083267546258867
16.95637457910925
47.43018791638315
24.581149941310287
35.239948937669396
39.553199196234345
47.95280201919377
56.66488292161375
63.684690091758966
69.63931423425674
73.93447928596288
75.57787885796279
74.04991927463561
70.0718629239127
63.63411506731063
56.470047457143664
47.959850657731295
39.75847084354609
35.00702011492103
24.924141369760036
48.34493969939649
53.567925525829196
10.938957577571273
3.6271019214764237
-15.460283963941038
-30.195310956798494
-43.5333815170452
-53.55743502359837
-59.30926596932113
-63.016415127553046
-66.3281505452469
-63.20779272262007
-59.780694275163114
-53.13186121080071
-43.20560697186738
-30.656170589849353
-15.028646698221564
2.6374781262129545
11.38172628171742
53.32776479050517
59.52761868573725
23.62508001551032
23.719313428737223
12.316933758556843
2.5319210616871715
-7.235568119212985
-12.703035253100097
-16.10244649928063
-18.451078130863607
-13.379030242562294
-18.67705346364528
-16.28259788826108
-12.481683996506035
-6.285463775508106
2.4153820937499404
12.588753399439156
23.64144496433437
22.717015235684812
60.10136820189655
57.57067523431033
20.807984221726656
23.042744163423777
11.852570270188153
-2.260641084983945
-20.378653334453702
-30.751949415542185
-40.93629994150251
-41.509006917476654
-62.45734155829996
-41.48100369144231
-40.90489759296179
-31.618757346644998
-20.462041027843952
-2.515290077775717
12.055600939318538
22.565607093274593
22.39860701188445
57.250205024145544
50.47946775145829
21.2072608852759
25.055684126913548
20.23052449245006
13.931067574769258
-6.187768394127488
-33.65969274286181
-35.932463051751256
-58.67149433493614
7.094085744582117
-58.81048171687871
-36.546590980142355
-33.8117726650089
-6.251443825662136
14.956309156492352
20.14802087470889
24.723612807691097
21.968602389097214
50.171355727128685
39.87216301821172
18.441403997130692
21.796045545488596
19.348744882270694
20.400767114013433
19.527528448961675
-20.01930752582848
-73.24904663674533
-23.463458473794162
-245.78805828932673
-22.9417306445539
-74.39528343081474
-19.973645430989563
19.733993359841406
20.02267685625702
19.292162067256868
21.76019363105297
17.36811309773475
40.136414422653615
27.626480950042605
13.271688581444323
15.949234986677766
15.149563433602452
17.811194790527225
23.5801511304453
43.68873559590429
-42.08484806120396
-208.24498282838613
437.206963240169
-208.47209566179663
-42.336042484268546
44.195361755788326
23.61899479292333
17.706767323426902
15.873925134539604
15.65806583315134
12.830224740318954
27.93231358518824
15.048791650682688
7.085442689247429
8.353825578466058
8.593876335769892
10.621029454283416
14.247696058824658
21.27302743960172
108.38196644186974
-18.697176745161414
-1470.6926303813234
-19.8393861008808
108.02208721637726
20.369603832252324
15.1653041113168
10.462858625687659
8.279759191907942
8.496125916484743
6.385723790619522
14.195320370607078
0.19801022112369537
-0.4559745416045189
-0.5138927521184087
-0.2961521064862609
-0.09202425368130207
0.6433954555541277
-0.1728560058400035
0.1334038060158491
0.33740945905447006
0.5573064852505922
0.05221484135836363
-0.08279244787991047
0.5497289313934743
-0.27474529622122645
-0.05585369933396578
0.22631855309009552
0.539569802582264
-0.08874743152409792
0.5358127728104591
-13.851274287328124
-6.634092304855585
-8.486547337844968
-7.628898507915437
-10.693956481292844
-14.777431588619947
-21.100363365374506
-108.32806903123856
18.581677574664354
1469.8984346333891
18.993124892935157
-108.23042713711038
-21.573089892510325
-14.843864809256047
-10.438663447741419
-8.65184321673587
-8.344866476487368
-6.986528892070055
-14.422682392410934
-27.87337350845337
-12.538664432242513
-15.511680666357279
-16.155508188530803
-18.02327653951943
-24.06952147372067
-44.73965320829302
42.5289146322757
208.69147756602615
-438.06409086100757
208.7072705118917
42.39705581543967
-43.287814057432115
-23.75983264343813
-17.978323372546583
-16.015191515441984
-15.575012158602476
-13.49639138393104
-27.864424584433436
-40.64250249508768
-18.244529486633837
-20.995112976059318
-19.38969189301133
-20.21158856060356
-19.534639426507056
19.76043451949954
74.51868027169257
23.155825749970973
246.30560179520398
23.024146476294845
73.64974528644234
19.761576821561903
-19.671395373530686
-20.31874965550378
-19.674594192299992
-21.23701122403145
-17.85654392791912
-40.71627857722342
-50.622674343176186
-21.626677901484072
-25.039746490307152
-20.43160586990416
-14.458604267798364
6.4524441082030535
34.11249035503715
36.52428044844419
58.621920462697744
-7.646162760909647
58.511853424366564
35.8128818240948
33.75657895207405
6.068913601338863
-14.926897337194532
-20.51256071170792
-25.12239718437195
-22.066532293334603
-50.93543691281229
-57.02061252575368
-21.800522263161838
-23.04545128904283
-12.069623828865588
1.4478206001222134
20.482523795217276
31.59954949747771
40.871430738829076
41.49998711794615
61.83610516274348
41.04322867607698
41.27759792748839
31.44141461653635
20.018903485499322
1.9169478798285127
-12.422530801966786
-22.484725133748725
-21.853234574198723
-57.51743133738637
-59.97450610343367
-23.065314995124936
-23.40390009712428
-12.726559509523213
-1.9798132330179214
6.541244078427553
12.589196766726673
15.654876636341214
18.50499133625999
13.809213665314019
18.654332587029785
15.904114661272615
12.767626176122576
6.103126282803714
-2.609678230714053
-12.408439078368247
-23.712315819226205
-22.798261965624988
-59.54847464314662
-54.29118415527046
-11.778238240629435
-3.359706675633788
15.909714202396572
30.257982910610735
43.00719692837447
53.03056209720671
59.426549680531025
63.73023775452748
66.4698700751178
63.51588883763179
59.13712077960372
52.868926734663546
44.12294336408377
30.45964054670185
15.33730536676012
-2.9284993724431843
-11.346008497290313
-53.30201791296713
-47.91610878519714
-24.281136750243604
-35.0786846736446
-40.20749194826931
-47.19796755351126
-55.88392935041338
-63.76681319531053
-69.66820630477741
-74.43082602554932
-75.7480468917638
-73.31672592367977
-69.6859154207632
-63.74447360262275
-56.03021675860509
-48.650097478646785
-39.268075140658766
-34.68274971563369
-24.59424483636394
-48.520988671458326
-16.837620918639004
22.36176274344325
53.26120732631534
90.6020233668387
123.00159910321236
152.49712761025876
175.99953990243375
193.10006295097992
202.59203031472862
205.77591610699892
202.99305811012164
192.4739732942544
176.30922893388197
152.34236874990165
123.7351425269153
89.72744507435709
53.003786469460465
22.65401286573615
-17.086287050740793
1.35720444470644
0.7694094628095627
0.6531912051141262
1.007009543478489
6.385339314118028
5.331536747515202
5.352940388023853
6.448764394968748
7.384861525148153
5.952343897894025
5.929821107536554
7.316763957962394
7.996850555762649
6.461469296365976
6.522461701184511
8.181545687839389
7.660497408360243
5.925789289176464
5.78244168125093
7.229686686769128
7.219675987958908
5.659956255927682
5.555024862289429
6.904127901419997
6.91517242603004
5.50819549523294
5.310792637988925
6.320633648894727
5.147925660945475
4.280848763883114
4.276652550324798
5.135864472016692
1.3684771601110697
1.111424209550023
1.2773498250171542
1.8696241863071918
0.7838005777448416
0.6919126408174634
0.6142884436994791
0.549424740485847
-2.474644122645259
-2.167860586196184
-2.308645736426115
-2.898536041378975
-4.2101577417925
-3.184210612438619
-2.9949606684967875
-3.6403785459697247
-5.777818256057799
-4.59415455814451
-4.606730854138732
-5.816166370175779
-6.320560569874942
-4.864629699848592
-4.852146255783737
-6.2831158600747585
-7.782420760020614
-6.153800183907151
-6.130412609316409
-7.711513297632337
-8.276563442312181
-6.805304232984781
-6.93964387383312
-8.682247226126492
-6.842075364664197
-5.467221539467573
-5.495251373387873
-6.927425375208259
-6.506122142076492
-5.526788210496306
-5.627688606269658
-6.810295006260276
-1.2187931081280112
-0.8035360658541322
-0.8643124606460333
-1.4008443038910627
54.515136427246034
54.51396549958736
54.4387220563367
54.29021915234625
124.87886819895357
124.44814180862159
124.67333658505231
125.556720755063
223.35584840457886
221.70643567107618
221.6623023347929
223.22249823994935
336.81368786934763
334.2514830781147
334.2999139102176
336.9588034385815
451.86971318069845
448.27677356731147
448.22183134034276
451.703244949691
558.5256149331108
554.3358018640429
554.478575265035
558.9551628800109
647.6553582847118
642.7430842258036
642.7692381972447
647.7330422615632
715.2959242206998
709.8341948734596
709.7494081193581
715.0406108060852
756.0495651918463
750.5828601983376
750.7333280076273
756.500332032796
770.475308785215
764.8786134724505
764.9930043788627
770.818478107918
757.0618514032103
751.5787348309532
751.7329309391789
757.5263103474863
714.8907859046012
709.7261987281963
709.9305879436433
715.5046914322302
647.6226856727153
642.7498782565817
642.8088850895874
647.7995820846409
558.8842190534342
554.5022581005469
554.4561550845392
558.7440115008503
452.6204693694599
449.17308880155906
449.2786030259449
452.9357104371302
336.93856760207564
334.5115804038942
334.6968059311621
337.4937568092719
223.88676959869917
222.31554045306984
222.3641926579876
224.03396661393344
124.56228310905863
124.10029753355775
124.29504415590782
125.14859412284568
53.24337544105947
53.45218199491501
53.56555833655875
53.58557697548531
-1.7511150580830872
-1.0419092886149883
-0.8127669380046427
-1.062727480661124
-5.518898007576354
-4.821032302686945
-5.1962303690379485
-6.650278055225499
-7.085000398918055
-5.852459890767932
-6.0294090119423345
-7.619223885703832
-7.3509790459647775
-5.849923752481118
-5.927363267866895
-7.584863687399775
-7.159644406987354
-5.6674392581917346
-5.761069867294282
-7.444430500501767
-6.4983616473618895
-5.222637191647664
-5.400150497211143
-7.033100064378232
-6.180798820685595
-4.761734989471734
-4.541964857373387
-5.520427966024727
-3.6988770863972604
-2.8677476258017123
-2.871760318055749
-3.7129753888584673
-2.4657818311825395
-1.8721572142094374
-1.7136549390852451
-1.9888911577872932
-0.04680812591686845
-0.14721899759024382
-0.24804553436115384
-0.34909171890467405
1.7030772846192122
1.4159919116646051
1.5604124870151281
2.138738281559199
3.656205401290208
3.0991261224262416
3.379555440042168
4.501701436471194
5.8118237517774105
4.673994910903275
4.725424620322883
5.967829875648022
6.390610329806805
4.965932188555598
4.985582423396409
6.449397651478648
7.99656205624342
6.120399625040591
5.840824819169939
7.1565195405855775
7.744948213919997
6.10205677524209
6.046567584387958
7.577936576679349
6.583706026896834
5.150267198681831
5.114972583949566
6.477463413961232
6.593519968912005
5.385578262619674
5.261282805353403
6.218662657774985
0.3877658434212208
0.03964299615472555
0.15494311600923538
0.7336088633164763
-53.78077351395041
-53.88261603657156
-53.89762507658452
-53.8263098904863
-125.48195079900324
-124.6903809197247
-124.56030656024814
-125.09139553830028
-224.4317078255117
-222.74955156911165
-222.6876711975783
-224.2449681274593
-337.6541885426268
-335.0948611088097
-335.1610730383545
-337.85296164266765
-452.39910240471363
-448.8560215840116
-448.8606359055266
-452.41299406439066
-558.3206150429323
-554.0664188517258
-554.1475763274357
-558.5644991798326
-647.8349287072197
-642.9675662592053
-643.0444218348712
-648.064988732338
-715.2999681038782
-709.9807649077848
-710.0426687309518
-715.4850120134652
-756.6601169621572
-750.8942881701514
-750.7529230387881
-756.2339078048244
-770.4587638964877
-764.9729636386037
-765.197497238405
-771.1343537643552
-756.3780895331874
-750.8012492908165
-750.8457874981686
-756.5116557627916
-714.4303472647443
-709.2046750048175
-709.3456549746916
-714.8535872930661
-648.2393913362175
-643.3498827591538
-643.4101729989052
-648.4196859588847
-559.2462315745652
-554.8871855065227
-554.8713496942073
-559.1969626154751
-452.11476067081094
-448.6178656667471
-448.6669597774744
-452.259797077626
-337.35512358136475
-334.7493309173733
-334.76105673983693
-337.39018209278584
-222.95742686092854
-221.50975504145026
-221.65738090127707
-223.40114700607955
-125.54320269264281
-124.91968256607652
-124.96144577488303
-125.6694262996316
-54.04656985774636
-54.20537652820349
-54.28804069198668
-54.29529229365289
13.136216470971704
11.256594797596335
11.26246046088636
13.152581820264459
-18.56168521940708
-16.704939149320126
-16.793660240247846
-18.830202797427773
-40.630883214995265
-34.268112279474735
-34.30971079878509
-40.757260888814926
-67.63480919227004
-56.655674362555146
-56.77086629718542
-67.98292548395693
-93.19326254539192
-77.8287945734337
-77.83421930111945
-93.20858899969608
-115.68522024247795
-96.62763878703117
-96.4738050037995
-115.2208508066833
-132.96177191101015
-111.46466228179634
-111.55477313604206
-133.23357936739922
-146.22258388251066
-122.8895448949188
-123.02284449804574
-146.62516083102673
-153.99269280396402
-129.47800954058766
-129.49473147746176
-154.04335914645344
-156.83723544050008
-132.0148731963709
-132.08236995898187
-157.0409048087895
-154.3078050594777
-129.70160568971187
-129.63892586249858
-154.11915191542357
-146.17409168183804
-122.87353061512113
-123.04153381288052
-146.68148504942656
-132.99432788044214
-111.5489491559565
-111.69268892891705
-133.4289276190102
-115.49304988700897
-96.67913917545229
-96.7736054090783
-115.7788703655824
-92.78572460543364
-77.53445350192487
-77.6315228883177
-93.07838650140911
-67.74917142186314
-56.761430216021836
-56.87468610703945
-68.08952859416604
-40.9725834755227
-34.51591223478317
-34.479139347560704
-40.86043226439506
-18.61283931415528
-16.80541579797864
-16.95345889311284
-19.059354601427913
13.462877951562405
11.499367437325418
11.434557951055467
13.268442132510245
37.69217878766358
32.470395658165216
32.37369968742132
37.39896594174206
20.946464801207185
18.477553989738226
18.27275148779154
20.327379705384374
36.11674357205629
36.43945712223649
36.40740694850683
36.0190905444324
46.31281523313373
49.22799376770854
49.07667702622712
45.85525474417955
59.03907784540206
64.18066037539393
64.04767221678048
58.63699776586145
70.01180758420378
77.03628517128527
77.14911691565067
70.35313696041703
79.53083261474967
87.49736689496785
87.50955582875758
79.56700202915817
86.90022590570152
95.3708042120561
95.31654991395772
86.73580858204514
91.39063214045018
100.20265871938318
100.2284470135346
91.46919539757073
92.97043192386627
101.9076744383201
101.9861416965723
93.20674132928252
91.39466771110892
100.21840227302164
100.26625831518322
91.5401996448636
86.98744217213243
95.53180316463113
95.55782504566014
87.06724433228374
79.73418364673853
87.62701314501464
87.57357259094715
79.57161660213023
70.57704557850957
77.35851669497788
77.26708723884076
70.30057189706713
58.77104503381997
63.98799023311585
63.924635847099125
58.57970191258937
46.02187680173665
49.07127664331347
49.04542592354119
45.94376455433667
36.37285911012441
36.57500508055091
36.42282371036708
35.91216983739287
20.748959198594093
18.428647332824767
18.361665825359523
20.5462809484452
37.55052898358554
32.559961813502014
32.7135528260842
38.01248687785119
40.857744159176946
34.268560729920864
34.214205818250775
40.69324463605881
5.927860010415316
3.0197422951459885
2.894994517788291
5.550486534833908
5.082371395081282
6.206210355274379
6.3345022881403565
5.470598254352808
-4.202315711416304
0.9249343816190958
0.7467433772981167
-4.740748039446771
-12.185466270893812
-2.746163545176387
-2.6258102664723992
-11.822386268526316
-18.700934539549053
-6.134523396380246
-6.115301470272243
-18.643748328089714
-23.477365314029157
-8.822912733070552
-8.985742956399918
-23.968624029308558
-27.632144063711166
-11.269391027279198
-11.135797241702676
-27.228593280538917
-29.7388908714056
-12.657401674427092
-12.552200035192072
-29.421276576817036
-31.582256799563766
-14.451954205520451
-14.573912316001952
-31.94914854504168
-29.38042067643255
-12.441944890655577
-12.474320596083999
-29.47773096896708
-27.401657607406378
-11.198372322134674
-11.232899582013488
-27.50543764140457
-24.05841646902263
-9.138450332917273
-9.047855290584266
-23.78530397452414
-18.419456228613853
-5.884765536524355
-5.8678305530920625
-18.369772964157164
-11.664645726792514
-2.4817130751907825
-2.6072720792144537
-12.044571926817298
-4.379688106477261
0.9014898259192705
0.8743949988856912
-4.461408114992082
5.848364729434252
6.542305910028517
6.241219334304333
4.938489742577076
5.6016079522669315
2.8967640856280923
2.9663918865844607
5.809888939373195
40.74223846755922
34.13690767250955
34.056419944390655
40.499243167229
45.4574154894799
37.8438554443419
37.6777256000787
44.95730470865965
14.808231909759343
10.736858822405338
10.860659930855036
15.180712514556944
21.92196960095316
21.13948141876608
21.18223304580897
22.05174716655165
19.74747280497104
23.13735215459019
23.02546764165163
19.408699743449688
18.476533045992255
26.584510445594788
26.613528261892498
18.56358533911407
17.854965632781386
29.633515518158674
29.35645811073482
17.01846130285412
17.466201854869723
32.16952056065202
32.01496913097799
16.998254369944334
16.841971724294126
33.397638788446784
33.39207874890417
16.82555368822068
16.313015818595886
33.6411419166252
33.58832395263016
16.155616997741163
20.44708108343184
38.18883394729346
38.4296380802989
21.172570104710758
16.222475099377334
33.52846569288522
33.44757367763668
15.97773656155914
17.46212002169341
33.802095882594585
33.59426401555538
16.834574946202338
16.68581282068044
31.66403138358146
31.76323402673006
16.98639499489218
17.699401756748557
29.73686363734305
29.727386814542115
17.67010194249451
18.867499336600304
26.832348488271236
26.730814336799085
18.56046204920858
19.60204353928566
23.086431183852255
23.074025836773217
19.56416468974203
22.34441815316677
21.414084691554308
21.32682790234685
22.080227634869516
14.365560624748468
10.206222471781075
10.222355158999562
14.416287962347269
45.39268631488085
37.930812052451074
37.920419936068356
45.361393332481384
42.66946999449283
35.2518730442971
35.28805837780237
42.777306771837175
12.773199618794024
7.746230858378112
7.426364295184612
11.807962664403021
19.125158852897584
17.296922301873565
17.34749020729214
19.27684275433421
16.743121118284762
18.80274117179215
18.673746325075626
16.352646552957594
12.889471135102212
20.16886485274881
20.05693885218352
12.550126546062529
5.6525293961167336
18.701338308863342
18.682832743041217
5.596643480472267
2.9492036141455173
20.595360653474927
20.81897561531514
3.6235789777711034
-1.0262124156579375
18.998511030338705
18.97703083883971
-1.0897930301725864
0.049256003461778164
21.433107182383537
21.588835678994656
0.5168647021055222
-15.354376685805619
5.77259162068367
4.920837577432394
-17.91768172942102
0.1416937978938222
21.490243960171938
21.623987174592912
0.543246422894299
-0.877308907918632
19.107722119428217
19.054867112077773
-1.0369628546759486
3.0689919656142592
20.499432953074574
20.48880993295461
3.037365894764662
5.6147302417084575
18.6720923865214
18.649114986881614
5.544894548133016
12.776189492084086
20.05706425383687
19.921454305760562
12.366502847522497
16.468454211950302
18.657133258879185
18.649064942263067
16.443264775909483
19.186980361118913
17.222397873178124
17.13828792516142
18.933954735286534
12.700522183440626
8.04378036595881
8.119005213491619
12.929477368481457
42.55380984209478
35.09023015014827
35.07607764005661
42.51196654140949
37.24631317239255
30.42101076617837
30.374639879912138
37.10513497889042
12.297722698189318
7.412656049244106
7.284454015083611
11.909447433426976
19.34380059503019
16.689233623445034
16.76503830216825
19.572138912975788
20.94140108022839
21.233051858842373
21.2149058599025
20.88627868425101
24.03866020217538
28.635470411740243
28.477424974553287
23.56174286082387
16.96194947976619
28.36546948272735
28.284428304992616
16.717369297519326
4.07452255114913
23.188387267291546
23.224787183105946
4.185138003900647
10.132270445115864
33.75764136016369
33.902148773893714
10.567252257838845
-5.7103725168854
19.720397606492043
19.315698141232133
-6.927980802953243
46.81853569392115
73.85954250302166
76.19645609520376
53.84488993883133
-5.5699785547330976
19.792892125435174
19.31980937998742
-6.993707406334579
9.62567696440965
33.28122861031443
33.418170703575015
10.037447600625455
4.5345544135198
23.492993677034974
23.37723342422396
4.186213983222842
16.42527423426509
27.984898186288774
28.032271401025355
16.569543876685202
23.84579622838646
28.744570238515735
28.88695657532662
24.275040864944458
20.999491640366614
21.264975948259234
21.213983854278922
20.846555163152516
19.69118926487863
16.85548967961222
16.759724750183523
19.40148064866662
12.574584952555597
7.771554014645517
7.750855045393109
12.509670187719166
37.47875443007797
30.53615653794259
30.36170208361
36.95171775948256
29.448784988373518
23.773937693797052
23.640271527692676
29.043195969425142
10.150686647742987
5.9343444453552365
5.92280454095453
10.114692429080606
15.933830045163631
13.074225125834346
13.106919103302062
16.032297905534506
17.840066522359848
16.87324314005673
16.80783491861075
17.643094131723046
23.81330661661923
25.878530544228852
25.995324135757983
24.16800547670573
33.0834001051262
40.12102681212127
40.1952732168138
33.308556688949466
14.130509388633072
31.22426046989858
31.191639117896557
14.03160891123116
-15.436223577708006
13.324655621312559
13.202802240848541
-15.800920362584293
34.82222009729594
68.05431206524372
69.34334910288453
38.69794372096658
-137.8042622199282
-106.435909521766
-114.03680623788387
-160.68204688467085
35.41031819675118
68.58745344448835
69.8479993743822
39.19956943579018
-16.012094316072762
12.663823041133583
12.420758527703583
-16.744246017187834
13.86225422192365
31.056022571399808
31.108083941042423
14.018635218963027
32.67918090522289
39.894991874694824
40.12780470587313
33.383875156752765
24.28255425952375
26.13336183782667
26.039497788995504
24.001987878233194
17.26621980406344
16.453232588246465
16.52356326021254
17.479048958979547
16.05063376482576
13.147019417025149
13.139854489825666
16.02952700201422
9.923883107490838
5.545558715239167
5.340761926956475
9.305133680813015
29.133943325839937
23.621319665573537
23.634677967056632
29.175014982931316
20.03853166103363
16.103013576939702
16.068383413366973
19.934309122152627
7.044303627684712
3.9568857671692967
3.972725280560553
7.093620406463742
11.487543642520905
9.039750810712576
8.97527714446187
11.29329970665276
12.925241688266397
11.583976990543306
11.513683403842151
12.71313794888556
18.451256599277258
18.611957053653896
18.56149065401405
18.300381265580654
28.562208622694016
31.17032582126558
31.208457843400538
28.678079016506672
60.37223763205111
68.24724141601473
68.08362224604934
59.88060996029526
8.052885954268277
35.1655046204105
35.78188797272742
9.900350074283779
-96.53831238858402
-51.01023241318762
-54.56992970407009
-107.25070366542786
406.37584894616157
461.9763247752562
485.4448158685118
477.07607346586883
-96.3050783360377
-50.91494003869593
-54.59409608691931
-107.38067234307528
8.690065439790487
35.5378271471709
35.92348951846361
9.837115372531116
60.262992535717785
68.28822339512408
68.27718264516443
60.229565212503076
28.759218268096447
31.336921706795692
31.338278370909393
28.765147587284446
18.20752449799329
18.406970794312656
18.39161168318242
18.16363091301173
13.39413883537054
12.067357055842876
12.044446213170886
13.323987967334688
10.984043742530048
8.6011713584885
8.592974732629955
10.95978108420968
6.599685679655522
3.5527576128952205
3.5830095633864403
6.691216659732163
20.00946996314451
16.161339554470032
16.20974140614271
20.15704645961523
10.281919081695378
8.44230411015451
8.626430700533092
10.839241310022771
3.2588649662211537
1.7683713072910905
1.9112607538700104
3.691129351966083
6.124864676035941
4.6748069152235985
4.568206099793315
5.802959533408284
6.696598564274609
5.864224381744862
5.906031298451126
6.822011665441096
9.98579800967127
9.663732409477234
9.665206473320723
9.989882628433406
16.179588885977864
16.552822960540652
16.358101033605635
15.5940314065665
23.623874889686704
26.19034442305565
26.655145538970828
25.01926010940224
126.59055018238723
131.65577782690525
130.31093673687428
122.56442900560796
45.28947741817683
102.36736680101603
110.6097606625408
69.99932196456939
-959.018566028215
-881.4099169326946
-940.5518725402653
-1137.691720805131
45.83121120836586
102.50897394958884
110.34485160466284
69.3097471119836
127.10708923637867
131.94984961580485
130.39013231918216
122.42828177567571
23.78734426293522
26.10152485501021
26.307812936604023
24.401876944117248
16.544143966399133
17.03644241578877
16.97295148484409
16.353498050011694
9.369263974949718
9.198818897362798
9.325305868405849
9.750977465417236
6.863548984285444
5.908251939807087
5.829855915158987
6.626870953012258
5.400563924573362
4.200064524076879
4.3179998327977955
5.7572637549601495
3.202985746320337
1.575351174455136
1.5668405559845269
3.1786729847081006
10.672570996452123
8.528522586915642
8.407555588521063
10.30961501551792
-0.23648149147629738
-0.13197563402354717
-0.026537244208157063
0.08282065205276012
0.05230018403381109
-0.060509754344820976
-0.18207169976085424
-0.31347122695297003
-0.06708018947392702
-0.15113121457397938
-0.25257823057472706
-0.37303330935537815
-0.11803086753934622
-0.12599724531173706
-0.15875256340950727
-0.21597289480268955
-0.0742381289601326
-0.07265073992311954
-0.07440649159252644
-0.08037050534039736
0.09788451623171568
0.1901972647756338
0.31150243803858757
0.46245188917964697
-0.04017937649041414
-0.07898816280066967
-0.114158826880157
-0.14568932354450226
-0.009236164391040802
0.030521699227392673
0.06642786879092455
0.10017479676753283
0.13886786717921495
0.1759959002956748
0.220321923494339
0.2734792856499553
0.29812741931527853
0.32425964903086424
0.3761084834113717
0.4538748934864998
0.04357457533478737
0.057865346781909466
0.06465689744800329
0.06292647868394852
-0.289832578971982
-0.1941410033032298
-0.12760992161929607
-0.09066755510866642
-0.10433116788044572
0.041678827721625566
0.19910208554938436
0.36835513124242425
-0.19841497112065554
-0.21062671160325408
-0.22752573480829597
-0.24898469354957342
0.04080243455246091
0.013771706726402044
-0.010721620172262192
-0.033763179555535316
-0.0245183939114213
0.02893927739933133
0.08790312753990293
0.15359022608026862
0.11407655943185091
0.21147824078798294
0.3137179668992758
0.4227191675454378
0.10736337583512068
0.07206320110708475
0.028328692074865103
-0.02532583149150014
-0.06357677327468991
0.07490103598684072
0.21955084847286344
0.372480652295053
-10.595673564821482
-8.405382740311325
-8.2260218905285
-10.054865347221494
-3.820311755873263
-2.06427557207644
-1.9553214684128761
-3.488537377677858
-5.608914664015174
-4.333256623707712
-4.392378760501742
-5.78500687237829
-6.846010434441268
-5.736639474518597
-5.502670297399163
-6.1406589122489095
-9.677233763970435
-9.467519138939679
-9.568556602112949
-9.981813428923488
-15.618474564515054
-16.31088411528617
-16.400370965711772
-15.891489469446242
-23.645052476786077
-26.17875768430531
-26.60005408618599
-24.910330967977643
-126.93636961933225
-131.87517701182514
-130.42420698702335
-122.58810713049024
-46.08312917500734
-102.95028092432767
-111.01248478889465
-70.24791641067713
959.658055533655
881.6699482426047
940.4517483031377
1137.2428554994985
-45.57751257997006
-102.50401200074703
-110.60089259315282
-69.84740563575178
-126.72192700766027
-131.70319910906255
-130.2845833254978
-122.47250818554312
-23.3796595223248
-26.083562031853944
-26.68246612045914
-25.181140215601772
-16.231224508024752
-16.736780989915133
-16.675110726151615
-16.04760033590719
-9.641461846418679
-9.393325867131352
-9.444477836135775
-9.79751450335607
-6.7482622978277504
-5.901410838123411
-5.938320593442768
-6.860843677073717
-5.491124955005944
-4.222949881106615
-4.278363361489028
-5.659443984273821
-3.4826645525172353
-1.8896409142762423
-1.9449304877780378
-3.6517791328951716
-9.722923522815108
-7.9050824898295105
-8.086828908417374
-10.270952210295945
-19.974476443603635
-16.139580660499632
-16.19068736117333
-20.12620820477605
-7.277978936210275
-3.975086555816233
-3.7621647622436285
-6.634623659774661
-11.090389979071915
-8.652548252604902
-8.585140970535576
-10.886338444426656
-13.12261152267456
-11.92449160758406
-12.034466506913304
-13.454902404919267
-18.30029619205743
-18.546311426907778
-18.58262672740966
-18.413029013201594
-28.412123057991266
-31.18117449618876
-31.37675827369094
-29.004157142713666
-60.56080088857561
-68.59888473991305
-68.63074503559619
-60.65987889189273
-8.221733924932778
-35.17733866441995
-35.64256652072072
-9.610697634518147
96.172093286179
50.86667953431606
54.6328529715538
107.50873066764325
-406.0718985963613
-461.9648742219433
-485.7205655761063
-477.63974013831466
96.23302486306056
50.91015409072861
54.66386071126908
107.53088129824027
-7.857131252065301
-34.94363496731967
-35.53367642732337
-9.623041800223291
-60.704811396077275
-68.38311520591378
-68.03327790880576
-59.6523645860143
-28.650723128113896
-31.286370815243572
-31.347880395129323
-28.838008048944175
-17.62449899315834
-18.048140328377485
-18.247743716929108
-18.228540156967938
-13.289044259581715
-11.997602832037956
-12.025282863993198
-13.374516469892114
-11.364773478358984
-8.85416318103671
-8.727085780818015
-10.982330045197159
-7.018062844872475
-3.9976542899385095
-4.07827821187675
-7.260679793544114
-20.19917603302747
-16.27833597967401
-16.260776227805763
-20.147408159449697
-29.49440555740148
-23.97450554277748
-24.009662626311183
-29.600990838371217
-9.967154092155397
-5.7695318050682545
-5.761528672650456
-9.942049381323159
-15.840829168446362
-12.831230042502284
-12.69736182782799
-15.437016085721552
-17.51153038442135
-16.640536285936832
-16.666971813887358
-17.592698357068002
-23.857687219046056
-25.873408960178494
-25.93513256777078
-24.046203337609768
-33.22243956197053
-40.24194320850074
-40.288427353836596
-33.36356577742845
-14.19377375394106
-31.310748090967536
-31.31889664195478
-14.216547910124063
15.709276902489364
-12.843112281523645
-12.48975876159966
16.775375477969646
-35.73682409245521
-68.76413612533361
-69.88723073992878
-39.10993180889636
137.26302648195997
106.1595254978165
114.02214499982074
160.93067264556885
-35.022248385474086
-68.28798778960481
-69.62805769545957
-39.051584797911346
15.506524042226374
-13.175185231491923
-12.972336335107684
16.115391274914145
-13.954525573179126
-31.154449936933815
-31.227613450028002
-14.17586749093607
-33.173127218615264
-40.22949765669182
-40.31810832209885
-33.44287171307951
-24.319664751645178
-26.200713749043643
-26.15924654249102
-24.197549242991954
-17.468680790625513
-16.661507308948785
-16.76242258772254
-17.775430631358176
-15.781371522229165
-12.833866196218878
-12.769401563797146
-15.588623570743948
-9.683264064602554
-5.484671903774142
-5.458668779581785
-9.604625267907977
-29.737838888540864
-24.167469328735024
-24.15824400819838
-29.710260950494558
-37.24465252645314
-30.446406825445592
-30.43294210266322
-37.202603849582374
-12.422951397486031
-7.576325443573296
-7.509116373024881
-12.219440230168402
-19.961561726406217
-17.116161923855543
-17.02469026297331
-19.685070326551795
-21.065202308818698
-21.369072377681732
-21.366853771731257
-21.059225771576166
-24.302554077468812
-28.94285830669105
-28.841651380062103
-23.998618784360588
-16.612306511960924
-28.072136299684644
-28.023634620010853
-16.46558222360909
-4.307822276838124
-23.267560322768986
-23.1414944967255
-3.9259868217632174
-10.31889218185097
-33.79234586004168
-33.75900158472359
-10.216596480458975
5.8633229387924075
-19.63845390919596
-19.29049237817526
6.909508561715484
-46.460472740698606
-73.72800933988765
-76.28805810539052
-54.16253031138331
6.073318292852491
-19.498955736402422
-19.225398207549006
6.8930379105731845
-9.547083399258554
-33.36563811125234
-33.68922018678859
-10.52360632410273
-4.340058345813304
-23.357674931176007
-23.302246616687626
-4.174237305298448
-16.44123069709167
-28.03441991424188
-28.119956374634057
-16.700994496699423
-24.33699904428795
-29.070291158743203
-29.069860185030848
-24.339732844382524
-20.108124003279954
-20.708788075484335
-20.974002342205495
-20.910797281656414
-19.933100152760744
-17.114746302831918
-17.04920666385442
-19.73664120864123
-12.098657624796033
-7.454842810984701
-7.5789900734089315
-12.47429250460118
-37.4942850950174
-30.70109396474436
-30.69742276589386
-37.48551852512173
-42.818728156387806
-35.2170659257099
-35.07673724088818
-42.39496486168355
-12.872168427333236
-8.023792783729732
-7.909848943352699
-12.529107590205967
-18.883549033664167
-17.112381007522345
-17.22155434358865
-19.21321630012244
-16.006866447627544
-18.34548734407872
-18.463987106457353
-16.36506092734635
-12.443937462754548
-20.062575737945735
-20.26853218767792
-13.065650973469019
-5.82171737216413
-18.810060410760343
-18.726613676175475
-5.569791786372662
-3.5282662250101566
-20.843759554438293
-20.723928934894502
-3.1655327128246427
1.4763895431533456
-18.70997517555952
-18.827603342942894
1.1217444073408842
-0.13363776681944728
-21.493715156801045
-21.628007506020367
-0.538745102006942
15.596137816086411
-5.735044168308377
-5.091739010531455
17.528843408450484
-0.44800762739032507
-21.81183703476563
-21.969979921821505
-0.926456815097481
1.098697455599904
-18.853293407242745
-18.763701187912375
1.3680460122413933
-3.362392525654286
-20.71341934381053
-20.658546554856002
-3.196056216955185
-5.423320793081075
-18.610249154269695
-18.733153369743377
-5.796128047630191
-12.85543862497434
-20.22850298276171
-20.207060486078262
-12.793172478675842
-16.48985226266086
-18.76436026673764
-18.83982612658292
-16.719432807993144
-19.07948378683068
-17.13413992500864
-17.060687340563163
-18.858432216802612
-12.407124625286087
-7.714904258027673
-7.736669726669788
-12.474728052737191
-42.43821858102456
-35.07814501854591
-35.16102005331777
-42.68914975435473
-45.070791848003864
-37.65155983250588
-37.68622716423124
-45.17669347021729
-14.715796385891736
-10.51717066206038
-10.520325999706984
-14.726933900266886
-22.57278435304761
-21.534210179001093
-21.333291879855096
-21.967249910347164
-19.84936973825097
-23.31749194767326
-23.281927133910358
-19.741322041489184
-18.383500452153385
-26.389290668070316
-26.309140524826944
-18.140962885692716
-17.845591851510108
-29.77592049818486
-29.664698475040495
-17.510065658017993
-17.082415181212127
-31.91841633617878
-31.88826063182205
-16.991934463381767
-16.887982935644686
-33.54825393855572
-33.64251515176147
-17.174243145622313
-16.405876345466822
-33.70663395430893
-33.62175225280225
-16.149941263254732
-20.563916550949216
-38.17276096902788
-38.280640381388366
-20.88670820556581
-16.148028634488583
-33.48814893653616
-33.4342383495532
-15.98516002111137
-16.973454813938588
-33.536626731045544
-33.54476911574602
-16.998478137888014
-17.14068220136687
-31.910565687343478
-31.819604794494808
-16.8669025124982
-17.73054262623191
-29.797395935747772
-29.82142151426524
-17.804597785696387
-18.588237071875483
-26.670803366228938
-26.68490481050685
-18.63190383464098
-19.829327050596476
-23.219607227947563
-23.108569528674707
-19.494085190352052
-21.98409699392505
-21.179643381619826
-21.203622298082337
-22.057126183295622
-14.934756161645055
-10.629103797720745
-10.517510971985757
-14.5985613160301
-45.1835096986033
-37.6765075661242
-37.59392797993496
-44.93515129177831
-40.71196911111474
-34.32216559536755
-34.474416761659086
-41.174502345733345
-5.9223753260448575
-3.1931573329493403
-3.265602447092533
-6.141818797215819
-4.9337974190711975
-6.04199234675616
-6.146998685784638
-5.249246286228299
4.713251588866115
-0.4864890882745385
-0.3425690261647105
5.148287990130484
11.557620168663561
2.3261078763753176
2.387069320306182
11.743476886302233
18.414000407792628
5.841151331551373
5.781193848699331
18.232401619665325
24.012120665982366
9.089674190618098
8.99090282060206
23.71169996075332
28.052705856971443
11.566956924274564
11.344255773350596
27.377935361117125
29.578941182699054
12.692449498921633
12.796143677085638
29.890661424491554
31.42693891376257
14.377630168106407
14.57435379596427
32.0205651698634
29.99343013530597
12.931750739458948
12.873306395020336
29.816707405261695
27.865245663560927
11.40388020593673
11.171393753495067
27.162691918667406
23.570889894850552
8.74495002347976
8.722556413151324
23.50326564628631
18.574762122239918
6.181625695433468
6.338072409853339
19.046421088278294
11.822772211395204
2.5647530555725098
2.6077962242998183
11.952570664230734
4.836788647575304
-0.5238088753540069
-0.5471036543603987
4.766687534749508
-5.325023866258562
-6.253109303768724
-6.162537777330726
-5.051451459061354
-6.008569683181122
-3.183787678135559
-3.1407774600666016
-5.877492748200893
-40.52950380113907
-33.99317283788696
-33.96489608066622
-40.44594591599889
-37.58198213018477
-32.492925833910704
-32.53684227541089
-37.71538401953876
-20.45865368936211
-18.070900682359934
-17.922121854498982
-20.01098048966378
-36.27968731056899
-36.515102384611964
-36.39946181885898
-35.932446527294815
-45.72126136627048
-48.963203554973006
-49.1248241243884
-46.208365452475846
-58.99899597931653
-63.98316038958728
-63.67898705136031
-58.08273623418063
-69.76299762539566
-76.68316445592791
-76.67490221839398
-69.73712347541004
-79.68101218342781
-87.6389841651544
-87.6362757626921
-79.67369497194886
-86.7898159143515
-95.32132336171344
-95.30794943356887
-86.75226290198043
-90.70574678014964
-99.84125303151086
-100.16725323954597
-91.69171148631722
-93.3647141396068
-102.23681445326656
-102.25612610438839
-93.42392587522045
-91.44381286902353
-100.09528845502064
-99.95821000309661
-91.02985339285806
-87.22866680845618
-95.5979474154301
-95.46376201789826
-86.82321262871847
-79.99992209207267
-87.8226137640886
-87.71997837955132
-79.69001083215699
-70.10534235322848
-76.95201212586835
-76.88669195724651
-69.9080211315304
-58.71669533196837
-64.10498767602257
-64.22124955663458
-59.06710209464654
-46.33694174326956
-49.17400883929804
-48.94529664563015
-45.646947871893644
-35.60952473245561
-35.97424555476755
-35.94797234702855
-35.52868782845326
-20.63645603391342
-18.290612075361423
-18.17914981325157
-20.2997367818607
-38.138353557442315
-33.025431368267164
-33.06958794244565
-38.272125077899545
-13.344916091300547
-11.38586553838104
-11.32284332998097
-13.154965806752443
18.642111726105213
16.67323863040656
16.644344833679497
18.55452453251928
41.057469052262604
34.519834756851196
34.39734282810241
40.68740336224437
67.51862478163093
56.6917644655332
56.963614197447896
68.33730410039425
92.87471572961658
77.47149297222495
77.40869822259992
92.68452155590057
115.17463151179254
96.26958627905697
96.24891082849354
115.11243492551148
133.0203363467008
111.48748454637825
111.5415086299181
133.1827002177015
145.75084033887833
122.52372693410143
122.74638234032318
146.4205887191929
154.20638101827353
129.6138455751352
129.5603771689348
154.04389379220083
157.21017388580367
132.12370072770864
131.93764456454664
156.64883535075933
153.8946379357949
129.48359219171107
129.60579084744677
154.26517808577046
146.38981545809656
122.84143991116434
122.74776853900403
146.10811850707978
132.70241957949474
111.34077873080969
111.55508575262502
133.34780990192667
115.17459537368268
96.23649512347765
96.18015533965081
115.00307805649936
93.33793181972578
77.96704810205847
77.95964289247058
93.31416244176216
67.8414134089835
56.74201122694649
56.72585691232234
67.79221979831345
40.742631605127826
34.21759648900479
34.108716763556004
40.413254242856055
18.728057751315646
16.788557392079383
16.803140116971917
18.77210129890591
-12.942797625786625
-11.141891235951334
-11.238817109027877
-13.234383556060493
SCALARS stress12 float
LOOKUP_TABLE default
-3.2359299737145193
3.2334279535571113
-3.239407846087488
3.2382059253868647
3.2349493842339143
-3.23422594985459
3.2302958624932216
-3.2334842000855133
-4.16291351406835
-6.36496303131571
-7.767890008573886
-8.303521167195868
-8.043262916617095
-7.127127396175638
-5.723501568252686
-3.9845082103274763
-2.0401825497392565
-0.0006906522903591394
2.0390242388821207
3.9833486827556044
5.722764771839138
7.12891364103416
8.043159596505575
8.30242316989461
7.769590986135881
6.36630421486916
4.162741144828033
4.16148627520306
6.365669741120655
7.769729603285668
8.300223191297846
8.040393759991275
7.1281676056969445
5.72285769492737
3.98464413266629
2.0387049466371536
-0.0006588183168787509
-2.038906697402126
-3.98328343166213
-5.721729075332405
-7.128058565183892
-8.042166104962234
-8.303376579337055
-7.769087188964477
-6.367094956287474
-4.162755960362119
-4.162835011921743
-6.367617412786785
-7.768915878648841
-8.303075869851455
-8.041233877796913
-7.129927257003146
-5.723467223418993
-3.9847843147726962
-2.041598054318456
0.0009457527776248753
2.0382458393869456
3.9846985759504605
5.723899011441972
7.128475399193121
8.043063514021924
8.304457773658214
7.770930791593855
6.368206406070385
4.161603436048608
4.163934672367759
6.367779433727264
7.768599976028781
8.30149880272802
8.041643431643024
7.1300786004867405
5.725452334561851
3.9832031861296855
2.038183666067198
-0.00011218368308618665
-2.0377272506593727
-3.983573912642896
-5.721619007235859
-7.126659119443502
-8.043748704192694
-8.30307910987176
-7.768730078008957
-6.36682899214793
-4.162597189482767
4.149989823403303
6.350144110270776
7.747187851520721
8.274697851855308
8.01215823518578
7.099209689535201
5.697161668504123
3.963456923433114
2.0271269876975566
-0.00011312641436234117
-2.0282669034204446
-3.962372704350855
-5.697768074169289
-7.097533567866776
-8.00992716557812
-8.274132095393725
-7.7445921042817645
-6.350014917901717
-4.150568968092557
-4.151540010469034
-6.348752057820093
-7.747141438070685
-8.277716428390704
-8.015030006878078
-7.098240842402447
-5.697324230131926
-3.9664512808667496
-2.0296002331597265
-0.0005429084121715277
2.0294892792589962
3.965535166717018
5.698188199472497
7.09894492548483
8.011507424220326
8.274351014260901
7.743795741946087
6.34703692479161
4.151165967710767
4.150735286120835
6.350648356277816
7.745835892619652
8.273802531082765
8.011818386505183
7.097054991565528
5.69751982834714
3.9634346364910016
2.027960467225057
0.0006527730438392609
-2.028141206334112
-3.964800798043143
-5.698046607023571
-7.099712320632534
-8.010523773351451
-8.274816944060149
-7.745567868289072
-6.348223425884498
-4.150912674202118
-4.150918867147993
-6.349763639853336
-7.746704492776189
-8.275624004541896
-8.011457012558822
-7.0973551805946045
-5.697264954447746
-3.9644256994943134
-2.029876110202167
-0.0016012396081350744
2.0293804123066366
3.964495924708899
5.6981500125839375
7.100379379524384
8.011041092511732
8.27341130079003
7.744515823200345
6.347831811872311
4.150426753156353
-1.932586353563238
-0.6429929655860178
0.6419867057702504
1.9315892736194655
1.9307499427814037
0.641809054708574
-0.6425281603587791
-1.9314960998599418
-1.9362362256906636
-0.646845427729204
0.6378987640346168
1.9272344303844875
1.934677662793547
0.6449116677977145
-0.6402290804544464
-1.9299826178466901
-9.05318692419678
-15.850815990881529
-20.051757358189207
-21.722663255408406
-21.149452449812088
-18.764289262297098
-15.04889738978818
-10.45346150570549
-5.344583019497804
0.00037699565291404724
5.343997192336246
10.453902106906753
15.049130154424347
18.763155683293007
21.149058209732175
21.72230174287688
20.05199878750136
15.849270784296095
9.053535051236395
-15.851292629668023
-28.105927118565887
-36.18961602146737
-39.960050169494934
-39.59642297180835
-35.64589907223126
-28.906416313664522
-20.232504070794675
-10.387171234702691
-0.00029122730484232306
10.386438459623605
20.231130050262436
28.907950635184534
35.64704371802509
39.59550454872078
39.9616990511131
36.18901358463336
28.105755575175863
15.850180518755224
-20.052317573456094
-36.18962288153125
-47.719242767605465
-54.123314223543275
-55.01857638685033
-50.584398114006035
-41.668468313873746
-29.46692252595676
-15.214659697492607
0.00036299938801676035
15.214995782240294
29.468914432858583
41.66934043544461
50.585679979325505
55.01828635370475
54.124229408596875
47.717610871448414
36.189625512837665
20.05094862304395
-21.722292020276655
-39.95997596019879
-54.122830029111356
-63.51468424341874
-66.97438382805558
-63.57341934205033
-53.61267530237092
-38.501625337929
-20.041360885137692
-0.0011677172151394188
20.040772166772513
38.50221015463467
53.61047381701064
63.57253496235353
66.97512987768278
63.514466125983745
54.12358487051097
39.960424583841814
21.72337776410859
-21.150246713950764
-39.59576606564224
-55.01957553304965
-66.974117065256
-74.1382206051494
-74.08689592272276
-65.03433767723618
-47.90984195983037
-25.29603865154786
0.0006803887372370809
25.294948385679163
47.91062335189781
65.03307418184704
74.08768125606002
74.13759132678388
66.97535919043003
55.01772803804488
39.59643296044669
21.150051067612367
-18.76449727982981
-35.646080502832774
-50.58459588128608
-63.57491911831312
-74.08669347688556
-79.73656539589865
-75.58958678680938
-58.55222446861444
-31.718159752112115
-0.0004743348399642855
31.71769006040995
58.55150263683754
75.58969329876709
79.73791946013807
74.08632721868344
63.572814496117644
50.584212315647164
35.64570104400627
18.763588333851658
-15.049935577437282
-28.90569166705245
-41.669639964355156
-53.61103149771225
-65.03326800529612
-75.59096062678145
-81.18434827335295
-71.16552816634066
-40.80972468765685
-0.0002473366039339453
40.80971973089618
71.16536293653189
81.18491078837542
75.590330381674
65.03450214819168
53.61023435520474
41.6694274241745
28.907519797532586
15.049564132699743
-10.453261310234666
-20.232244530052412
-29.46666124841431
-38.501763680251315
-47.91134531761054
-58.55154902834329
-71.16486153879669
-78.96874838063377
-56.21988823355059
0.0008308656979352236
56.22025245506666
78.9692534384958
71.16609377315035
58.55141200177604
47.910250490909675
38.50147223644308
29.466426370461704
20.231191428989405
10.45388562316657
-5.343110322661232
-10.387064309092239
-15.21501142467605
-20.041778962418903
-25.295942104421556
-31.717086899996502
-40.8103115123522
-56.220256984903244
-67.17906292487169
-0.00039310441934503615
67.17961979011307
56.2205454253417
40.810254793439526
31.717593163310084
25.296731933718547
20.04189933775342
15.215302632335806
10.385471866844455
5.3440010386984795
0.0003731169272214174
8.416007040068507e-05
-0.0003783741267398
0.00012915435945615172
-0.00035042857052758336
-0.0004915288009215146
6.158353062346578e-05
-0.0002942793653346598
-0.000653725495794788
-4.886911483481526e-06
0.000913469004444778
-0.00022758677368983626
0.0008206289203371853
-0.000493994913995266
-0.0007377725560218096
-0.0014362239744514227
-0.0005917420494370162
0.0002649203815963119
-0.0003559572505764663
5.342768355563749
10.385613548220135
15.215052001469303
20.041644951154012
25.296157444856362
31.71734400151763
40.8087724414072
56.21896860157722
67.18010006460827
0.0006544734933413565
-67.17920933407731
-56.22006774961483
-40.81078558921581
-31.717852710862644
-25.297137054032646
-20.041121533577098
-15.216101574158529
-10.3860800354596
-5.342906987803872
10.454394151631277
20.23180492897518
29.467374512110837
38.50129075645236
47.91068429671577
58.550995296245674
71.16559928428615
78.96850948684732
56.219115259707905
0.00037142037763260305
-56.21908203687053
-78.96877227947698
-71.166905561171
-58.55030582298059
-47.910005372716114
-38.50010388203373
-29.467247945489362
-20.231699615484104
-10.454167243049596
15.049057647353038
28.90795941086253
41.6697492916137
53.61139399840613
65.03496053625713
75.58994954059017
81.18446323019452
71.16573411456193
40.810664065124
-0.0005198971193749458
-40.81064643448917
-71.16640720554278
-81.18345757160569
-75.58927202723862
-65.0337693260226
-53.61292520495772
-41.66910229076166
-28.907699569579563
-15.049759620902478
18.76446983992355
35.64641986764036
50.58515295377583
63.57315080013359
74.08721057343064
79.7379708866356
75.58915379509563
58.55058268207358
31.718493790191133
7.414643187075853e-05
-31.7178331532632
-58.55108318061684
-75.58937498849991
-79.73694908097968
-74.0860924525914
-63.57238931772008
-50.584681894339155
-35.645812035596464
-18.764275252600783
21.150224980025087
39.59497310803272
55.019187042315025
66.97434233923559
74.13841128131025
74.08629497769289
65.0336358792556
47.90954469135613
25.29541187500581
0.0004049595445394516
-25.295169930090196
-47.910621464965516
-65.03458594038966
-74.08592593568028
-74.13928334928642
-66.97291408202727
-55.01896570534154
-39.596649713566876
-21.149414697683824
21.721879497810733
39.95905858709011
54.12404274370056
63.51335625711363
66.97396585973911
63.57209900728776
53.61258236542926
38.5006792768545
20.04129696727614
-0.00043081463081762195
-20.04231882604654
-38.5012520042219
-53.61205670783238
-63.573823927668855
-66.9735082994448
-63.513564074382884
-54.12436563108349
-39.96096543643216
-21.72407005810237
20.051895397598855
36.19002274761442
47.718484663491836
54.12421787250787
55.017975974682486
50.58480433278601
41.668878858792596
29.468282460817136
15.214722567121498
0.00011514712241478264
-15.2141348264704
-29.467429411699413
-41.66875970161345
-50.584688196191564
-55.018089980629156
-54.12336132208293
-47.71850823742716
-36.18937674041081
-20.052982377674198
15.84993163443869
28.1065828363935
36.18873454091954
39.960765621304745
39.59603932272876
35.647507409070386
28.905558353289962
20.231084734608885
10.387550345651107
4.0912622353062034e-05
-10.38612062165339
-20.231668973880005
-28.907303942163708
-35.64649463043315
-39.59588065817661
-39.961021258808614
-36.18952522393374
-28.106296437010315
-15.851071170549403
9.053036791272461
15.851052408863325
20.05260207268293
21.722915328631643
21.15042681104387
18.764555099012796
15.048439343023347
10.452184335241327
5.343640603707172
0.00010348562500439584
-5.343791946696001
-10.454490085554426
-15.050265732425032
-18.764573672640836
-21.14895780158986
-21.722152067974093
-20.052191989903804
-15.849737273842038
-9.054010504953112
9.037381630041637
15.827443629154004
20.02437633619411
21.69197331543546
21.116822111594956
18.73044051224133
15.019058550300542
10.431826424552128
5.331107289472129
0.0003314573550596833
-5.331150698300917
-10.430412015120964
-15.019996315182652
-18.73036485898774
-21.115900468314067
-21.691344114777166
-20.024415244872216
-15.826486163481604
-9.036575061269104
15.827840943646152
28.08229907276109
36.16085436090361
39.926283885433804
39.55840572784655
35.60671984171495
28.869294783566147
20.202379080932587
10.36978555371752
0.0005637315916828811
-10.369787474162877
-20.202176353603136
-28.870810609834734
-35.60783076408552
-39.55825459258631
-39.92642468539998
-36.15968751104083
-28.081548627029406
-15.827542011335026
20.024859091325197
36.15976877120556
47.68236887420062
54.082050469645765
54.97029675572412
50.531841961841565
41.61762718704995
29.424378935596906
15.190452278533485
-0.0008340560016222298
-15.190515057067387
-29.424700719944667
-41.61796690177289
-50.532573832490016
-54.970129989204
-54.0818005714973
-47.68313395875157
-36.16028965066653
-20.024236161261797
21.691319589037448
39.926642215868924
54.08144629065646
63.46250644000247
66.91238052322296
63.501063282368705
53.53428045922192
38.433648399368394
20.002180165611207
-0.00017199554713442922
-20.001685795228695
-38.432687535649166
-53.53452914830996
-63.50066336628515
-66.91193171046325
-63.46333844089531
-54.082457708980655
-39.926587027002824
-21.692905396572314
21.11699172644876
39.55783164460445
54.970425775041804
66.9121202948736
74.05672045989195
73.98652894957922
64.91911694046576
47.80173212016234
25.219376372144325
-0.0003428662021178752
-25.21868815657217
-47.80352610099362
-64.91866238307557
-73.9859913304972
-74.05761974060442
-66.91278560156934
-54.96953362436034
-39.55726494643022
-21.116163002268877
18.73064842680469
35.6061699091224
50.53171420854051
63.502309285337105
73.98518993228208
79.60362493648427
75.41963315545581
58.35219343256904
31.60109691345133
0.0003196591278538108
-31.599879190238426
-58.351170240930514
-75.42073804428219
-79.60439239916741
-73.9845471412118
-63.500670517852996
-50.53058961505303
-35.60682245006319
-18.730826824670658
15.019435205496848
28.870242321572732
41.61832740728278
53.53477743896656
64.91816781595116
75.42023459955817
80.93171632109443
70.86943944339873
40.398278892214876
-0.0001287432387471199
-40.39843862919952
-70.86882596701616
-80.93052437712322
-75.42098782505491
-64.9183984924457
-53.533949482196476
-41.617282825609436
-28.869850919640157
-15.01944434986217
10.430218997586053
20.201862415124197
29.424529200885445
38.434789794438984
47.80216841492802
58.35056365071796
70.86941877083154
78.32229288376402
55.82481187430676
-0.000694416812621057
-55.82400721733575
-78.32328920249711
-70.86948669792037
-58.35181538926554
-47.802561951975804
-38.433757011342095
-29.424005690030754
-20.20170949594467
-10.43150354080717
5.3303652123431675
10.370481060585007
15.189393572509289
20.002510038437322
25.21906067535747
31.600757937849266
40.39901010747417
55.82450203271583
63.18011182156624
-0.0014769122062716633
-63.18018335138913
-55.82466058409773
-40.39851679149433
-31.600738788518356
-25.220347125374246
-20.00214313750621
-15.19052754441509
-10.369916985771852
-5.330497700575506
0.0002828381257131696
0.0011224551126360893
-0.0007241614512167871
-2.0648003555834293e-06
0.0015025664761196822
-6.186141399666667e-05
0.0004086839617229998
-0.00018737692153081298
0.0003948373778257519
-0.00036363108665682375
-0.00031913258135318756
-0.0003470921947155148
-0.0013121965166646987
0.0009258158097509295
0.0008780828211456537
-8.113577496260405e-05
-0.00036595246638171375
-3.6082929000258446e-07
-0.000897586316568777
-5.330053204786964
-10.36951305315597
-15.189915564318653
-20.002835333318217
-25.219898091163486
-31.599485191487474
-40.39845998902456
-55.82400251500076
-63.18052556645125
-0.00048497304669581354
63.18083327458589
55.82503930776147
40.39906130946474
31.601347966730827
25.221220945502864
20.002272510842886
15.189790499251103
10.369253838100121
5.3316474343591835
-10.431243620172609
-20.202126567659434
-29.42382973060012
-38.433516536897514
-47.802186848188285
-58.35100967247854
-70.86949218463269
-78.32271164288977
-55.824073142925045
-0.0002696826995816082
55.82367651659297
78.32258896334679
70.86934048510739
58.349886335927295
47.802114551886916
38.432114760624245
29.424615972908214
20.20271942310501
10.430524601310026
-15.01840207434725
-28.87086012266809
-41.61859754181933
-53.535882084746845
-64.91874908877071
-75.42087710424676
-80.9315174081421
-70.86898706652573
-40.3986261675891
0.0005640349991153926
40.39936201018281
70.86849852182786
80.93231042884872
75.41960294693126
64.91857062486815
53.53549973094778
41.617832269199425
28.869905458195717
15.019724593512365
-18.73134289740119
-35.607871994317975
-50.530754073522985
-63.501628428843105
-73.98595730148372
-79.60412776638987
-75.42098218866158
-58.3514156905585
-31.60056174339843
0.0003135757870040834
31.600507148366887
58.352108805353055
75.4201076287427
79.60362820448063
73.98454998337547
63.49969035676622
50.5327936305257
35.60579680207593
18.73136173162493
-21.116921122651547
-39.55836155102588
-54.97061189642409
-66.91176607474335
-74.05755442698137
-73.98358587032999
-64.9191614308802
-47.800801656761905
-25.220179016236216
-0.00024800049141049385
25.220209964347305
47.8016783856292
64.91876724081521
73.98497829289408
74.05722680671897
66.91236933664186
54.969250461348565
39.55863511636562
21.11659386698011
-21.690539473085664
-39.9242996868561
-54.081529621209484
-63.4623483644973
-66.91205925718532
-63.5006500124
-53.534615636162926
-38.4331647278741
-20.001938523171702
0.0006417412951122969
20.002131499320967
38.43274178176944
53.53575059512514
63.50012573800632
66.91180112626171
63.46173476151307
54.0833311250899
39.92690257039794
21.691798520827433
-20.024232812109403
-36.16053105329047
-47.68448811644339
-54.083260983083164
-54.96992495714221
-50.5309398873942
-41.61729138006922
-29.42526286415523
-15.19018009895808
-0.0004306332557462156
15.19012820374337
29.424686657293933
41.61724927982141
50.53194000177609
54.96972811956948
54.08244091044617
47.68367211677105
36.160477084849845
20.02515615221637
-15.827452207216993
-28.08105173977674
-36.160524308972526
-39.925860423449194
-39.55774259529426
-35.60642123760772
-28.868826150079258
-20.203221392817795
-10.369553211377934
-0.0003226356056984514
10.370966905509704
20.201581883855397
28.868628084266675
35.6085723858705
39.55767310554802
39.92514094521903
36.1614742455713
28.080845620577747
15.828277458669618
-9.036390067485627
-15.829414075851673
-20.025279060500907
-21.69189288612688
-21.1162424920185
-18.731505561096128
-15.019242501148256
-10.429566486505792
-5.331309891305864
0.0005343623633962125
5.331246265021036
10.43175263487501
15.020945873955498
18.73005682961957
21.116204825026216
21.691422620970116
20.025370332892635
15.828180678192439
9.035493276958732
-2.4896221857052296
-0.8323609361541457
0.8195135170244612
2.4767491472302936
-3.81085535424063
-1.2734400588087738
1.258395611483138
3.7958862723316997
-4.652395349519793
-1.5556777276215144
1.5347594605991617
4.631550555699505
-4.974348979012575
-1.6654445059830323
1.6366505692712963
4.945545630296692
-4.818569378403481
-1.6142450600746088
1.5832286210497841
4.787523458886426
-4.269334154261742
-1.430351524904836
1.402326844050549
4.24134521256201
-3.428867649869062
-1.1499624717980623
1.123658339958638
3.4025516374967992
-2.3873631593305618
-0.8015132800210267
0.7805359185440466
2.366360950109083
-1.2227634431328624
-0.4112456307047978
0.39828029251657426
1.20976720971521
-0.000558581727091223
-0.0004356072749942541
-0.00032125995494425297
-0.00021430285414680839
1.2216420528129674
0.41014334349893034
-0.39938086905749515
-1.2108815247775055
2.386644957761746
0.8012366198236123
-0.7803676885087043
-2.365740012843162
3.4281829547253437
1.1493140376987867
-1.1242827858077362
-3.4031632672413252
4.271033858298324
1.4319939827546477
-1.4007082504685968
-4.239716284442693
4.818921356054489
1.6150530810118653
-1.5819587641744874
-4.78578080306761
4.973584690538701
1.6650083585409448
-1.636758663400542
-4.945320304890629
4.654180620214902
1.557590677344706
-1.5326691282098182
-4.629232627514284
3.8119313456118107
1.2742638232884929
-1.257813588308636
-3.795535794342868
2.4893984556547366
0.8320694252615795
-0.8198875504895113
-2.477219012507703
2.4882367217796855
0.8309818851412274
-0.8209189089830033
-2.478212280315347
3.8116740488330834
1.2743828637176193
-1.2573151817196049
-3.7946562985598575
4.6538292589830235
1.556732980767265
-1.5340590475825593
-4.631185240956256
4.971204236207996
1.6624045772186946
-1.6396345480752643
-4.948522733233403
4.815791665983852
1.6115137070592027
-1.5859594494686462
-4.7903010860900395
4.270315894449595
1.4312955440836959
-1.4013978742004838
-4.240407918347046
3.428353283001343
1.1495591116545256
-1.1239670597133227
-3.402780836884631
2.3869270717259496
0.8004829896672163
-0.7821873639477417
-2.368665247253375
1.2211460246762726
0.40946128955692984
-0.40026146979653277
-1.2119775921746623
-0.0006352664204314351
-0.0006123118218965828
-0.000589299452258274
-0.0005663983174599707
-1.2213307388592511
-0.40962873068929184
0.4001119359018048
1.2118478843185585
-2.3860128049127525
-0.8000181024399353
0.7821986386115896
2.3682169909006916
-3.4272998016531346
-1.14857161778491
1.1248994125926401
3.403671727151959
-4.270113829014008
-1.4309882777452003
1.4018235434778035
4.24096651635773
-4.817856536465115
-1.6138955593924038
1.5832328222604701
4.78719545326021
-4.974311248421145
-1.6655058545584325
1.6364938182741753
4.945293516197125
-4.65394936336088
-1.557625184308563
1.5323763638662058
4.6286862018023385
-3.813101738880505
-1.275838430843578
1.255804226053442
3.7930595945617824
-2.4892778842768166
-0.831821759325976
0.820256326613162
2.477704044809798
-2.489408455431658
-0.8320138998133189
0.8199923224510712
2.477360495922767
-3.812826133933413
-1.2747592036575952
1.2577011120483803
3.795798900864611
-4.6534349858884525
-1.556756746078463
1.533613684707234
4.630312489698554
-4.974157189994003
-1.6655103987432085
1.6363199604020338
4.944939102693752
-4.817069875753077
-1.6132440123619745
1.5837595901612076
4.787608453443681
-4.271913623408182
-1.4327565078419866
1.4000499139219755
4.239150947149028
-3.4287895983143244
-1.1498309000453446
1.1238536823075265
3.402822945281514
-2.387580749433255
-0.801677930081496
0.7804202059633099
2.3662923240626696
-1.2236941315059084
-0.4117126746714348
0.39825951306556817
1.2101789806474699
0.0008626811031717807
0.0007916093454696238
0.0007327125349547714
0.0006868819473311305
1.2210401723568793
0.4097211603075266
-0.3996208788594231
-1.2109380946785677
2.3872585582721513
0.8011123198957648
-0.7812390742183197
-2.3673768471344374
3.4290294120437466
1.1498801787092816
-1.1239931278396398
-3.4031538103008643
4.270291743916459
1.4309312649420463
-1.4021146173763555
-4.241493294684915
4.8187292099464685
1.6147649088816252
-1.582344605732942
-4.786268517374992
4.975076276139589
1.6659636572003365
-1.6363405690935906
-4.945447349367896
4.655071567656705
1.5580314592807554
-1.5326870198186953
-4.629720421216916
3.813736397016328
1.2760090439405758
-1.2560889827436768
-3.7937955119123217
2.488440016633831
0.8312810912029818
-0.8205160271609202
-2.477699526643846
2.490261847677175
0.8326172712841071
-0.8196436943835579
-2.4772733111167327
3.8131352099007927
1.2752097162301652
-1.2571102761430666
-3.795063625089824
4.65303004294401
1.5562499546795152
-1.534233684942592
-4.631054271419998
4.97260288905818
1.6639422354055569
-1.6379377748235129
-4.94664217432728
4.817448159912601
1.6135995008517057
-1.5834154408075847
-4.7872632289654575
4.271984189457726
1.432740290358197
-1.4001580573385581
-4.239354419056326
3.4304018507828005
1.151085535355378
-1.1229417331633158
-3.4022432672209106
2.3861639757524244
0.8004010537988506
-0.7815810691099614
-2.3673589371028356
1.22067408420844
0.4090373393846676
-0.40063832385931164
-1.2123057375429198
-0.00038530194433405995
-0.0006683695246465504
-0.0009639525669626892
-0.0012741383980028331
-1.2204091930179857
-0.40896259184228256
0.40052316803485155
1.2120004781754687
-2.3864284067531116
-0.8005682080984116
0.7815014455118217
2.3673574287095107
-3.4272224737214856
-1.1485218255547807
1.1249225175124593
3.4036662434227765
-4.268761382380035
-1.429654634615872
1.4031652737758122
4.242342191631906
-4.819170710979961
-1.6149659309303388
1.5823827535496093
4.786545705515891
-4.974246125377249
-1.6656809957348742
1.6360709391883574
4.944616163964383
-4.653542122221552
-1.5571559684467502
1.532918906712439
4.629312879114877
-3.8127377089695074
-1.2753719286993146
1.2563776631723158
3.793742639827542
-2.4892991530359723
-0.8320216061547399
0.8198773640324362
2.4771459148614667
-5.432636549172457
-1.8158225194783881
1.7997764898464084
5.416672019986436
-9.519856012891978
-3.1818441478535533
3.1585295596159995
9.4965217585559
-12.043447128497064
-4.024787959235255
3.9973508542752825
12.016029614314903
-13.04644406971056
-4.360224523872603
4.329367907019332
13.015642880171072
-12.701437518466264
-4.245631128724199
4.212810003431514
12.668680710252374
-11.268735600402579
-3.7681375847314484
3.734165229834616
11.234803857107181
-9.037151960365009
-3.022708682285156
2.992662338889204
9.007175207021646
-6.277196338924114
-2.099811800289899
2.0779720379505306
6.255425337410998
-3.2096113133593462
-1.074355760065373
1.0609827933367342
3.196203186584171
0.0003330931649543345
0.00030735658947378397
0.0003002143930643797
0.0003087514778599143
3.2091518740635365
1.0740103676216677
-1.0612228849786334
-3.1963440841645934
6.277737259748392
2.100495280174073
-2.077097461093217
-6.254308204166591
9.037162013992202
3.0225004446692765
-2.993096568796318
-9.007849479618017
11.267849842784926
3.7674948983476497
-3.7345691434456967
-11.234969643410295
12.701282286085188
4.245719389815349
-4.212464838230517
-12.668059897958301
13.046243928081822
4.3602005879511125
-4.329197466839105
-13.015256217040587
12.043618286494166
4.024893240595702
-3.9973034326685593
-12.016030169150326
9.518866338010412
3.1813744730316103
-3.158507012296468
-9.496026761364192
5.43306270748144
1.8163299892330542
-1.7991796185378917
-5.415976931690238
-9.520153438032139
-3.181971537764184
3.15857063914882
9.496735005755909
-16.887840703246184
-5.640551953401882
5.616561455652118
16.863971993501764
-21.74561712349532
-7.262571793748066
7.23357775749173
21.716701645462308
-24.010550172708463
-8.01948421500856
7.985523253912106
23.976654572004918
-23.791281144076493
-7.947478387039155
7.90928836184321
23.753149020369165
-21.41699242661707
-7.15576187055558
7.116319451772142
21.377638129284605
-17.36751904373523
-5.804325581237208
5.767022265354171
17.33027707290603
-12.156132071919274
-4.0638595497002825
4.0337358870892785
12.126008211169392
-6.240943462064024
-2.0869325033272617
2.0696696885861456
6.223639072210062
-0.00010838772868737578
6.66846171952784e-05
0.00023548741592094302
0.0004007929237559438
6.2403797135921195
2.0865232798969373
-2.069936844869517
-6.223771636257879
12.1550920640002
4.063139348989353
-4.03414464002708
-12.12611068278784
17.36840798816411
5.804600184201263
-5.767344195744954
-17.331190759548917
21.417638184095267
7.155943047371693
-7.11657945549814
-21.378325240162667
23.790606320253573
7.947032148047583
-7.9095216213027015
-23.753183541994076
24.01174431911204
8.020279575430322
-7.985076507611666
-23.976516718161292
21.74532389093656
7.262603919603862
-7.233198556612479
-21.715945705829654
16.887827946135076
5.640704000776168
-5.61623169502127
-16.86344510302297
9.519336569588631
3.181436901795678
-3.1588286835467443
-9.496718471986242
-12.0437670078245
-4.024887546489481
3.9974542277050205
12.016325451608282
-21.745747315173503
-7.262868686171714
7.233067084453069
21.71592840756057
-28.67498956754571
-9.576597317995038
9.539902521064505
28.638234392914455
-32.522797644429374
-10.861500766535755
10.820155307359528
32.48147969524143
-33.06045797385741
-11.0428889967734
10.99458576575853
33.012162652099505
-30.395696242863778
-10.155213437567
10.102608150511514
30.343106881249696
-25.038092784699984
-8.367513255274389
8.316537785634864
24.987162227916997
-17.706612873997074
-5.919392661831807
5.87683562602615
17.66406046441989
-9.142604142369237
-3.0571444726665504
3.0328146371175535
9.118315371859353
0.00017034652410075068
-4.295114194974303e-05
-0.0002797102206386626
-0.0005429303855635226
9.142838860105257
3.057290755910799
-3.032746353186667
-9.118315906147473
17.70804246078478
5.920316337433178
-5.876367084274534
-17.66400419716956
25.03866193894646
8.367818398110103
-8.316466725431383
-24.98730312299449
30.396509719023015
10.155600418482209
-10.102613778115483
-30.34348282404244
33.06027942162473
11.042812057014089
-10.994571485323831
-33.01206702698255
32.5235537646804
10.862115294585237
-10.819670612429036
-32.48111435654573
28.6736385008262
9.575473327568034
-9.540854283346562
-28.639066471601836
21.745698509388603
7.262740032252623
-7.233302190201357
-21.716294660203857
12.042828385427129
4.024357897171285
-3.9975916409748606
-12.016080415516626
-13.046233664033934
-4.360195335932076
4.329194649239071
13.01524241041625
-24.01040291081881
-8.019273106358014
7.985790869686753
23.976970452349633
-32.522514716896694
-10.861422368499916
10.820020745450165
32.48111877363408
-38.16781669843476
-12.748111677996349
12.695975003181957
38.115665933233686
-40.2480106363073
-13.445249363372568
13.383102781022899
40.18591220775852
-38.20525856554741
-12.76707911142148
12.694558010494802
38.132792579883244
-32.22052471875213
-10.772431474237237
10.694350766891148
32.14233805425465
-23.139971573313233
-7.7402183233061805
7.672281526320148
23.072021567786578
-12.04532660759287
-4.03027130063856
3.991143472143449
12.006181169708725
-0.000853366160299629
-0.0006004311726428568
-0.00040556956082582474
-0.00026461255038157105
12.045030132110696
4.030222381756175
-3.9909824762726203
-12.005841876933118
23.14057319582207
7.740863382525276
-7.671563171286834
-23.07119786561816
32.21885954772006
10.771224321302725
-10.695173861866351
-32.14284457557369
38.20464809000259
12.766729535156628
-12.694655871542636
-38.13264282644377
40.24865304605919
13.445810383476783
-13.382601026649354
-40.18544806071441
38.167529320839094
12.74773519160226
-12.696468338865088
-38.1163095565862
32.52296568400925
10.861553919006838
-10.820234518527286
-32.48171166732209
24.010781721648527
8.019581073429435
-7.985557086154586
-23.97681958359317
13.046821414929582
4.360276821622392
-4.329636952636065
-13.016238178592175
-12.701964311418124
-4.245931458193809
4.212699253112078
12.668725188646931
-23.790835912164766
-7.947259797772858
7.909263399953488
23.75286042370135
-33.06115936761489
-11.043332690314855
10.99436266667908
33.01212916744407
-40.24785280111246
-13.445198178931605
13.38304948824225
40.18575565877836
-44.5580933939782
-14.889730528637301
14.808180493477266
44.476560178387444
-44.53156577865593
-14.887247436796315
14.786866053647827
44.43118980771396
-39.093840275891125
-13.07814079261152
12.962751486338675
38.97850779246073
-28.8024613414309
-9.64272063516546
9.534551381482743
28.694311823812313
-15.2105728800816
-5.098709945363225
5.021994006965542
15.133875565079506
0.0004974352777935565
0.0003053255786653608
0.00010280113201588392
-0.00011241962783969939
15.209939159656642
5.09847492838162
-5.021881308173761
-15.133458353870083
28.802808320702752
9.642600255523575
-9.53517985358485
-28.69549666054081
39.09302615278284
13.07771971746115
-12.962833174708067
-38.9782994245179
44.5323110796453
14.887947348470334
-14.78621587282396
-44.43059303818154
44.557495498331264
14.889123687200481
-14.808839643927058
-44.47731659858255
40.24868192797294
13.445634467643686
-13.382989657780854
-40.18606078447192
33.059943825152004
11.04269732371904
-10.994461155612953
-33.01172179885907
23.791437352541834
7.947820194764063
-7.908720814273693
-23.752314721379662
12.701976232609013
4.246145813056501
-4.21228142658947
-12.6681028783496
-11.268812645925209
-3.7681105647352524
3.734273109235801
11.23497058666544
-21.417161289195064
-7.1559591788682155
7.116050423006527
21.37725183618022
-30.39585707412334
-10.1553527074866
10.102479182416573
30.342980316781905
-38.20617995492648
-12.767448227386922
12.694726026849821
38.13349557213951
-44.531624693074264
-14.887584838841576
14.786225919495337
44.43021683872212
-47.938368809293024
-16.035555792739615
15.902321676257998
47.805233905790374
-45.455569413665216
-15.219804682245012
15.050010640290566
45.2857213364332
-35.22117146482924
-11.815545089921216
11.615091588260839
35.02086056122789
-19.0795287064102
-6.402859199442901
6.286462332034716
18.96290582497022
-0.0002894560748245567
-0.00012054629041813314
3.510594251565635e-05
0.00018087582429870963
19.079366491438122
6.40301050664857
-6.285982379951747
-18.962072981754318
35.22077435418032
11.815478441276355
-11.614815663633635
-35.020223014085786
45.45548748940928
15.219511674891692
-15.050541493401397
-45.28652164080995
47.9393323205295
16.036120065342402
-15.902174587739864
-47.80552800689475
44.531467234221054
14.887629141157959
-14.78598359512398
-44.42977612800314
38.20487228722777
12.766896526969504
-12.694547199993394
-38.132592261215905
30.395779988495633
10.15556992276106
-10.101970680698287
-30.342173459095648
21.416766226640902
7.1555297406739555
-7.116535402456066
-21.377811226033373
11.268092754442478
3.7675556844333187
-3.7346848261076957
-11.235259109875187
-9.03784110333072
-3.0230880865710787
2.9925591341452673
9.007321883458644
-17.366818233102094
-5.803615496377461
5.767775977146812
17.331109660852235
-25.038889360264875
-8.367944629513659
8.316472059872467
24.987470796331763
-32.219243372033816
-10.771447792416438
10.695104341371916
32.14292988489615
-39.093215687025804
-13.077933641267009
12.962561786989681
38.97793510899646
-45.45651517022634
-15.220342327549588
15.049864200060256
45.28595338022569
-48.84693540231092
-16.381033833953552
16.127956822194392
48.59400856375578
-42.83639973573736
-14.390269873780198
14.094953196210554
42.540821694390615
-24.609741593478248
-8.348200095031643
7.934238017100142
24.1966321603104
-0.00019917302415706217
-0.00016252236673608422
-0.00013875053264200687
-0.00012747192522510886
24.60966751811793
8.348073839675635
-7.934396950266091
-24.196802938880865
42.83632779834443
14.390316898294259
-14.094755628611892
-42.54043670115061
48.847551610757364
16.381737612129655
-16.12712814914994
-48.59301737404894
45.45590390707366
15.219733018137049
-15.050493653136073
-45.28663000900997
39.09408347756835
13.078475640009856
-12.9623086405918
-38.97793813009048
32.21874461392872
10.771248510282021
-10.694989940006053
-32.142476882901974
25.03886118956143
8.368125489301747
-8.316048401437001
-24.98676174224238
17.368225407088175
5.804669382225256
-5.767006879061228
-17.330560950184008
9.037555218528723
3.022881988174049
-2.992693205625983
-9.00739039684413
-6.2773103239014745
-2.100255929166451
2.0771733509609476
6.254241001559421
-12.15602505224524
-4.063901647168677
4.03354178724112
12.125657495751511
-17.706377387803514
-5.919184397498611
5.87701875064522
17.66422303073341
-23.13989774789661
-7.739917847386096
7.672831078700256
23.07284929481102
-28.80350198043743
-9.643341450835578
9.534312691481318
28.694423288223334
-35.22094505443238
-11.815763252176112
11.614422476355685
35.01972429268062
-42.8359072903113
-14.389928331569536
14.09516291791806
42.54091252340004
-47.626834197493736
-16.112002471112646
15.461275215318892
46.97754824577714
-33.89296439776081
-11.439791648328537
11.054531267349375
33.5043830673967
0.0004974984331056476
0.0001848477404564619
-0.00011347903637215495
-0.000404240534408018
33.89331616429263
11.4401819013583
-11.054051421087934
-33.50376424958813
47.62703505344689
16.111907579703256
-15.461664005240891
-46.97823567505111
42.836790963541716
14.390515340463025
-14.094827078981325
-42.540792098414386
35.22064402521937
11.815275624132482
-11.615126633027103
-35.020681385329226
28.802683837449877
9.642729980434524
-9.53478647134034
-28.694825745216804
23.13985406831489
7.740122324845288
-7.672368928499054
-23.072113518835977
17.70628018572461
5.919225057208678
-5.876833267189795
-17.663878857390955
12.155245811562054
4.063374292163644
-4.033834335830761
-12.125725323770894
6.277564427087782
2.1001415915670805
-2.077662481693551
-6.255118383851368
-3.208615939191077
-1.0738134871353395
1.0610899775056168
3.1958851080271415
-6.240734317980241
-2.086616561806295
2.07010076433653
6.224196084309369
-9.143010342668276
-3.057647934067063
3.0321704082307406
9.117485704191495
-12.045583311642986
-4.03037761565065
3.9911814765655436
12.006363092630636
-15.210531835909933
-5.098738593864255
5.0218822331517
15.133667846675962
-19.078746251994744
-6.402358518709661
6.286685509374365
18.96285089169396
-24.610055060096784
-8.348251404269831
7.934443617152283
24.197096635354683
-33.89327498563216
-11.440068648487795
11.054264197737211
33.504104357853066
-41.28936853513005
-15.137342506146524
11.106462384283077
37.26927556990995
-0.0005190997326280922
-0.0006821273418609053
-0.0008910054748412222
-0.0011539364350028336
41.28976330003934
15.13760078229825
-11.106322097766679
-37.269242507143645
33.89344277806231
11.440135219774675
-11.054283431440126
-33.50419704793603
24.610074812429957
8.348364049510565
-7.93422131735133
-24.196747177891666
19.07918132568011
6.4027118999511
-6.286426980455872
-18.96270285276114
15.211001192452386
5.098843615443911
-5.022188881732291
-15.134437869419344
12.045790849952027
4.0306459465646185
-3.9908714419871103
-12.00602217798587
9.143049490783596
3.057421729026828
-3.0326785113138612
-9.118295631022193
6.239628078270471
2.0859604865836445
-2.0703337897139136
-6.22402591156424
3.2092604496865533
1.0742338781128637
-1.0608733125845902
-3.1958519204636104
0.0003379607805982232
0.00030971725936979055
0.0002907727612182498
0.0002822270034812391
0.00024113146355375648
0.00041859515476971865
0.0006224261014722288
0.0008560584392398596
-0.0004023718065582216
-0.0004491277504712343
-0.0005191594245843589
-0.0006113248527981341
0.0001199118560180068
0.00010066083632409573
7.23176053725183e-05
3.7557503674179316e-05
1.8800346879288554e-05
0.0003824896994046867
0.0007476679747924209
0.0011192831152584404
-0.0003413673839531839
-0.00022617584909312427
-0.00014374146121554077
-9.028680506162345e-05
0.0001203258871100843
0.00018120266031473875
0.00024783870321698487
0.00032298837322741747
-0.0002729365951381624
-0.00025276790256612003
-0.00023257220163941383
-0.00021119948360137641
-0.0004538321227300912
-0.00025200474192388356
-4.519353387877345e-05
0.0001695050741545856
-3.782141720876098e-05
-8.647915092296898e-05
-0.00015488752978853881
-0.000246290466748178
0.0006772286433260888
0.0004420615441631526
0.00020199790014885366
-4.976234049536288e-05
-0.00020168072660453618
-0.0001968634023796767
-0.00021727773128077388
-0.0002664377389010042
0.00039396568899974227
-2.52355239354074e-05
-0.0004443662764970213
-0.0008709054382052273
-0.00021412924979813397
6.041614688001573e-05
0.00033727928530424833
0.0006234578031580895
-0.0004249594931025058
-0.00011690071551129222
0.00019602503743954003
0.00052442736341618
-0.001068270910764113
-0.0007574593473691493
-0.0004958219651598483
-0.0002739090705290437
-0.0004780245653819293
-0.00039917370304465294
-0.0003551753470674157
-0.00034474499989300966
0.00020005973055958748
0.00014242928591556847
9.121425682678819e-05
4.4362968765199184e-05
-0.0004016727034468204
-0.0004781585594173521
-0.0005863003898411989
-0.0007264700252562761
3.2084321115980856
1.0737692172406241
-1.0610078170429915
-3.195685536658857
6.239821842347737
2.0862064128159545
-2.0700356643646955
-6.223674669396132
9.142978397605475
3.057523912691977
-3.0324062686413527
-9.117854348383844
12.045458410080755
4.03023574189865
-3.991363715729676
-12.006606956536416
15.210595195298083
5.098621751560131
-5.0222084033011924
-15.134234214026947
19.07919426416629
6.402997481927741
-6.285849509818945
-18.961805156082846
24.60897732398007
8.347602494381135
-7.934686000255169
-24.19694297987735
33.8923953496851
11.439563857362373
-11.05442037738976
-33.503928705875296
41.29008214958594
15.137753523042193
-11.106336997065227
-37.269423307763645
0.00041084454278461635
0.00018050672952085733
-4.155939677730203e-05
-0.0002615067351143807
-41.28938554789056
-15.137209899752634
11.106767199729802
37.269776516011916
-33.89305237692315
-11.439796969178133
11.054603545897407
33.5045314822637
-24.610411563451635
-8.348498355364427
7.934299864631612
24.197051480732625
-19.07927013435983
-6.402633609512122
6.286673978291219
18.963125179172494
-15.211107232054928
-5.098680855502607
5.0225989103200845
15.135081856307806
-12.045145339303417
-4.030133284046315
3.991252961102873
12.006275649677264
-9.143786027241731
-3.058120804736973
3.0319911556580337
9.117595292322221
-6.240219134720974
-2.0865487587288953
2.0697339675825788
6.223400648814277
-3.208211978097097
-1.073205545078963
1.0619097186572617
3.196928460514755
6.277959407132585
2.100453387305606
-2.077400689595379
-6.254873661149759
12.155615582189057
4.063526291458402
-4.0338817203301005
-12.125959880533628
17.70702720223926
5.919799380761106
-5.876407827890944
-17.663584045309108
23.139758281904506
7.740113104053307
-7.672292532544816
-23.07195356194279
28.803046060405904
9.643050162761938
-9.534477546782
-28.694498641532846
35.220438826829195
11.815291347564198
-11.614873882062966
-35.02016729765455
42.83646423878963
14.390314327582018
-14.094937858142657
-42.54084037858411
47.626635093271034
16.111802703002468
-15.461514030524995
-46.977861471212236
33.89251554294606
11.439652883069357
-11.054370874917367
-33.5039310559805
0.00023546276497654617
0.00010627787560224533
-1.874889130704105e-05
-0.00014301904593594372
-33.89253580244258
-11.439740764151793
11.054199003177928
33.503656958113424
-47.626812450791476
-16.111928526690463
15.461410940712085
46.977757274667965
-42.837466493452666
-14.391054193896707
14.09442324223346
42.540519706642954
-35.22008964570705
-11.815286615747027
11.614522799907718
35.019442384917056
-28.8025159198005
-9.642663379621808
9.534720662253676
28.694590506784152
-23.139071049925406
-7.739921410640818
7.671979400955024
23.071113309939392
-17.706811862706672
-5.919472354566096
5.876868276114692
17.664198720129207
-12.155464118724922
-4.063302195805591
4.03420422768977
12.126405667280778
-6.277907102412428
-2.1005820580612635
2.077084603748517
6.2543603953236016
9.037321715732105
3.0229337883065455
-2.992336939321831
-9.006705348670948
17.368389494542498
5.8045627599349245
-5.767391721135937
-17.331242702435702
25.038902267668163
8.367873820039677
-8.316615440999158
-24.987679592624772
32.21935296242009
10.771287500392646
-10.695555381971644
-32.14369471286773
39.09440611168975
13.07865571626462
-12.962283925327938
-38.97808827724657
45.45568358965102
15.21963874620269
-15.050492999289418
-45.28656220078119
48.84712843206944
16.381272528204136
-16.127702785277506
-48.593768660590285
42.83662681010901
14.390527777111856
-14.094649788719835
-42.540454793022946
24.61038509834907
8.348571534850635
-7.934118806762854
-24.196750795468688
-0.0003020215081050992
-8.845393313094974e-05
0.00012468159548006952
0.0003408336197026074
-24.610242258408107
-8.34829769199132
7.934532820887398
24.19731802889146
-42.837201495538466
-14.391037645778852
14.09417399787344
42.53998446086189
-48.84617347759195
-16.380363822885556
16.128569950378733
48.59459760514437
-45.45530986509402
-15.21959934764891
15.050154368320364
45.28578932391247
-39.093513416999485
-13.078039823449217
12.962636011870927
38.978178768215
-32.22052000975236
-10.772156687147799
10.694915225918521
32.14321663984447
-25.038520054367837
-8.36776041376288
8.31645213412412
24.98722460238787
-17.368312583930674
-5.804688956268365
5.767031676194165
17.330609151700628
-9.037630041930242
-3.022849068263895
2.992820952902548
9.007599343472975
11.268691237724852
3.767877175938338
-3.7346385517157614
-11.235489929502364
21.41717816592427
7.155623063328676
-7.1167825238080695
-21.37843569542747
30.396448014245834
10.155998955538962
-10.101754035480553
-30.342150960408617
38.20499024473247
12.766783068422228
-12.694912618608214
-38.133237241389
44.53188730333932
14.887597993249074
-14.786463363590883
-44.43071258449345
47.93937725320575
16.03618057645508
-15.902072599012172
-47.80535854847403
45.455054537800606
15.219159811502323
-15.05083666779683
-45.28678232218954
35.22006265819073
11.814936340233544
-11.615224650187884
-35.020534865761874
19.079892393696355
6.403255526325665
-6.286027517489856
-18.962425246136263
0.00010253637447021902
0.0001406672818120569
0.00018866127356886864
0.0002465417783241719
-19.079392247396754
-6.402904461778235
6.2862384136533365
18.962502175796544
-35.2203457452415
-11.814994339947589
11.615402773983078
35.02096258569509
-45.45535768321133
-15.219566875690361
15.050301356706768
45.28609152538411
-47.938662107044365
-16.035763986845268
15.902192874142202
47.80517550322111
-44.53127412049798
-14.887478089585784
14.786090445981245
44.429834816473885
-38.20474105364701
-12.767048965048161
12.694117024933803
38.13188732213166
-30.395753979479196
-10.155040061305044
10.103023731237045
30.343781475676224
-21.416996688756626
-7.155908291635569
7.115975173583138
21.37703558539215
-11.268487743800506
-3.7676859189086827
3.734795405063778
11.235589340765728
12.70197000936605
4.245957775448915
-4.212655703653581
-12.668667463818565
23.790208460006397
7.946740652958397
-7.909731964522507
-23.753333365602884
33.06089199913549
11.043142788723344
-10.994516784674488
-33.01228272571461
40.24813061990426
13.445512604725081
-13.3827105765522
-40.18540431940346
44.55810795578873
14.889555764064426
-14.808559591590893
-44.477159152331296
44.53154255961999
14.887851352599682
-14.785568196995882
-44.42911581293447
39.09332541655749
13.07778175661224
-12.962982975150226
-38.97863604515442
28.802412826713407
9.642911474249559
-9.53412282836507
-28.693639040575363
15.210017049568705
5.0981698807445355
-5.022572521411348
-15.13454305747291
0.00025060048210434616
0.00010856002336367965
-2.13019666261971e-05
-0.00013972044689580798
-15.209848080790835
-5.09805928170681
5.022640018956736
15.134584059298504
-28.803067744593136
-9.643168331676861
9.534248206109623
28.69414006183797
-39.094103664931026
-13.078421698417515
12.962449785438366
38.97818308134447
-44.53107658874069
-14.88724027837452
14.786379909957759
44.43018670758465
-44.558844742612564
-14.89017002399487
14.808054194058059
44.476748755638255
-40.246978895476786
-13.444579205897753
13.383483142970363
40.186068309281836
-33.06093755713664
-11.043477926170453
10.993866344564594
33.01129076984944
-23.79135869066522
-7.947439697527443
7.909414409587043
23.75333686111844
-12.70140972405352
-4.245636170533544
4.212750486738514
12.668546261731535
13.046038164407946
4.360217949200887
-4.328942304186057
-13.014740707760211
24.010132252587937
8.019635808945168
-7.984791194961872
-23.97531630715821
32.52342543262057
10.862056862737518
-10.819641172973206
-32.480976889200974
38.1668628344778
12.747490418463713
-12.696303797507426
-38.115736068139086
40.24777713807998
13.44517528329743
-13.383035515027586
-40.18571576022077
38.204305480845505
12.766474856383866
-12.694824588688789
-38.13272308636806
32.22042299024179
10.772299701318843
-10.694532140594674
-32.142588210786926
23.139379325381014
7.739937856065808
-7.672284461354138
-23.071772619587136
12.045352934364928
4.030367914878298
-3.9909910063724965
-12.005981681140838
-0.0002136924013029784
-2.796994522213936e-06
0.00020678021246567369
0.00042015465442091227
-12.046095486992272
-4.030856385157676
3.990738503780449
12.005953639833024
-23.139836928472505
-7.740326663188171
7.67192159917613
23.071396475745132
-32.2198323442135
-10.771621210806188
10.69532781545422
32.1435346055805
-38.20572962287406
-12.767631753362366
12.69390365385334
38.13201176073926
-40.24744432857551
-13.444975691454601
13.383093494776404
40.18562134668173
-38.16708087675215
-12.747754271011217
12.695957855918095
38.115272979353904
-32.52338904141652
-10.861639941671456
10.82047280502593
32.48226659713691
-24.0111195350255
-8.019738596449315
7.98556507761532
23.97698337322072
-13.047501428911346
-4.360990365574253
4.32884231263597
13.015312311865273
12.043540900398511
4.024856472911779
-3.997283009928651
-12.015937814081553
21.745967813913012
7.262881921837106
-7.233287493058015
-21.71640720454161
28.674099200143246
9.575513148360187
-9.541252302704379
-28.639926661504433
32.523287792748306
10.861581401899457
-10.820489214966074
-32.482241138932295
33.06006075136247
11.0426870562369
-10.994597154320218
-33.0119836233207
30.39615151664475
10.155736757296836
-10.10199104124331
-30.342365368502215
25.03846633329522
8.367861344158882
-8.316204399859998
-24.986833132250467
17.70750987768406
5.919842968462035
-5.8768247156695
-17.664490602270234
9.142637890327023
3.057187839120161
-3.032726255012676
-9.118149325775448
3.4869066439568996e-05
-5.881334072910249e-05
-0.00016715328092686832
-0.00029109074966982007
-9.14226738299476
-3.0569850489555392
3.0328063440101687
9.11814670721651
-17.706952317792457
-5.919567470657057
5.87682379859325
17.66420890718291
-25.03838416156941
-8.367814729077509
8.316218777486938
24.98681713883707
-30.395948324425262
-10.15541069410392
10.102486098985537
30.343082550360123
-33.06018162892724
-11.042817607711186
10.994451396036311
33.011816629819805
-32.52275240467134
-10.861365595192183
10.820379519507696
32.481788734810834
-28.674248011964664
-9.575800484228239
9.540809557031025
28.639308916746813
-21.745508503270685
-7.262589120182383
7.233437841721752
21.71644164469035
-12.044239911338082
-4.025173551526677
3.9973554381576832
12.01641897099762
9.519188691861928
3.181372410384938
-3.158827979990747
-9.496666221646592
16.88853231052053
5.641317570494721
-5.6156805913487915
-16.862930567003787
21.745025632553734
7.262242758559296
-7.233668314846
-21.716573556303047
24.011156010092236
8.020011083543068
-7.985049609647831
-23.976213832298527
23.791071871091845
7.947461689385818
-7.909095981478458
-23.752729721338255
21.418189702002564
7.156624860741431
-7.115716099331621
-21.377221221337095
17.366906415612902
5.8039616646419745
-5.767127339087892
-17.330106700828765
12.154876254702685
4.062738125241594
-4.034746323974105
-12.126927653211169
6.241206602426246
2.087125083548017
-2.0695040830178186
-6.223459195403848
-2.0351551938802004e-05
-8.455480565316975e-05
-0.00015449424972757697
-0.0002336681936867535
-6.239952973133768
-2.0859608811879298
2.070666077794158
6.224705879983958
-12.155641535035102
-4.0636997546534985
4.033573007603991
12.125527628915734
-17.368269768950995
-5.804987087962218
5.76640253450023
17.32965409179451
-21.417099083264475
-7.155389000516152
7.117172207537806
21.37898168018728
-23.79095972373034
-7.947392609377857
7.90912202373147
23.752710514629143
-24.01144535162166
-8.020356424669444
7.984617007379711
23.975658468378242
-21.745418186132156
-7.262268256257812
7.2339844406888005
21.71721300898207
-16.88832930560966
-5.641204880084842
5.6156939806642185
16.86283859512332
-9.519916249933885
-3.1817069463540975
3.1588754479998897
9.497097341070912
5.432738608273212
1.8161609746748582
-1.7992125484743156
-5.415892298333347
9.519722134136828
3.1813162133912556
-3.159486852295231
-9.49795703944983
12.04395017560455
4.024954263411928
-3.997523976577213
-12.01655635345378
13.046662662090966
4.360411340137944
-4.3292120944242924
-13.015522484318353
12.702264768071473
4.246349443681538
-4.212167173245689
-12.668082060787128
11.26870062245871
3.7678256549406797
-3.734737300721463
-11.235625192668522
9.036725416954141
3.0223258690384682
-2.9929910953505896
-9.007437175838277
6.27660302221193
2.0999010817613453
-2.0771878275845665
-6.2539212658884935
3.208870308182668
1.073784929671092
-1.0614114296040498
-3.1965109958837274
0.0001533736940473318
0.00022079801419749856
0.00030566073837690055
0.0004100609221495688
-3.2090045634831768
-1.0739073704608018
1.06130121582828
3.1964185007091146
-6.277996558041195
-2.1004079553677
2.07756038075604
6.255185932517634
-9.037825851031812
-3.0227250976022333
2.993282415816793
9.008424153187661
-11.268958483473398
-3.7683437530940864
3.733936127013294
11.234514148236485
-12.701147239495185
-4.245550911946339
4.212672695459332
12.668311725283274
-13.046122043735522
-4.36009713421663
4.329287992819445
13.01534014527715
-12.043590533772658
-4.024647840800753
3.9977699528608355
12.016731732968765
-9.518894693999755
-3.1809776437366963
3.1593259539367864
9.497275185884064
-5.433559005121424
-1.8168969952112093
1.798490940267584
5.415115912740475
SCALARS strain11 float
LOOKUP_TABLE default
-2.17741421861678e-07
-2.176376525317436e-07
-2.1762439107112907e-07
-2.1753213396563664e-07
2.1734590381974894e-07
2.1750831503616896e-07
2.1754928151355817e-07
2.1751672227982022e-07
-9.827036922746557e-08
-7.236886815503718e-08
-4.930615260523297e-08
-2.8174577695189162e-08
-9.252066928561176e-09
6.342983086687903e-09
1.844680345280958e-08
2.70180205638737e-08
3.1904939037930014e-08
3.35189125968971e-08
3.1919981612754667e-08
2.682734092165906e-08
1.8542017362482843e-08
6.381612203953946e-09
-9.272383451330857e-09
-2.8189315718490926e-08
-4.9370398561010553e-08
-7.234540667228062e-08
-9.820434160659475e-08
-3.500504812958827e-07
-8.394923878274341e-07
-1.5362702441221177e-06
-2.3422011944281007e-06
-3.166130005387291e-06
-3.931323840390688e-06
-4.578455098668693e-06
-5.0658425331546325e-06
-5.367829075651059e-06
-5.4699083411602345e-06
-5.368088980352986e-06
-5.065968727693826e-06
-4.578127287850273e-06
-3.931246403616681e-06
-3.1660836286090052e-06
-2.3421366423343956e-06
-1.5362914769323326e-06
-8.394184936879288e-07
-3.499707014388998e-07
-9.807174926714304e-08
-7.228891042926691e-08
-4.943459633354255e-08
-2.810054029484671e-08
-9.264087229982065e-09
6.483464116274762e-09
1.8534099222380918e-08
2.687786742130993e-08
3.199689952576579e-08
3.354063007714181e-08
3.201648744906305e-08
2.713159209452587e-08
1.8451818241740914e-08
6.315170001519599e-09
-9.207208929301602e-09
-2.8051092913761178e-08
-4.920756644516411e-08
-7.228590469601781e-08
-9.814172056629711e-08
-3.500730651924411e-07
-8.395077227378589e-07
-1.536181109117185e-06
-2.3421362328225614e-06
-3.1661277384714692e-06
-3.93126345572814e-06
-4.578331353990994e-06
-5.066080004445528e-06
-5.3680459180180384e-06
-5.469885795267998e-06
-5.3679452900745606e-06
-5.065838531288086e-06
-4.578345778924464e-06
-3.931235265715316e-06
-3.1661523065898423e-06
-2.3422060472129413e-06
-1.5363605453608264e-06
-8.394333680106225e-07
-3.5007837578121537e-07
9.796205280993009e-08
7.251348031755978e-08
4.950458480645903e-08
2.8113693418402308e-08
9.28609652367518e-09
-6.363140511028709e-09
-1.839425526478644e-08
-2.6978370957359e-08
-3.190751710763218e-08
-3.373884112367609e-08
-3.1996457896393826e-08
-2.7027104727850304e-08
-1.8368179133948503e-08
-6.424412547084701e-09
9.262391846565077e-09
2.8140574034191124e-08
4.937684964720357e-08
7.248225393496899e-08
9.801787524341132e-08
3.4912563579708733e-07
8.378574910157532e-07
1.5345374096455144e-06
2.3400096676277904e-06
3.1635500560220353e-06
3.928128472881903e-06
4.574662860365149e-06
5.062111003175957e-06
5.363843113096248e-06
5.465539430409699e-06
5.363571830291e-06
5.061980029388152e-06
4.574815945589117e-06
3.92817216694763e-06
3.16357192809303e-06
2.3399674708105694e-06
1.534474730087356e-06
8.38072466968591e-07
3.490363485335237e-07
9.8195937132809e-08
7.239529930527441e-08
4.9420978211287686e-08
2.8239811283685412e-08
9.327246392777655e-09
-6.345832241627658e-09
-1.8377278165372657e-08
-2.6836262836948954e-08
-3.192631797994949e-08
-3.354557684236148e-08
-3.1980825597119344e-08
-2.692661601154389e-08
-1.8555958578719833e-08
-6.3585923904679875e-09
9.277465608248381e-09
2.8234486193490227e-08
4.9429844248966015e-08
7.23679840566871e-08
9.807409753412322e-08
3.4898323719029234e-07
8.379689272336455e-07
1.5346878698835331e-06
2.340053585788565e-06
3.1635016806037808e-06
3.92816779632571e-06
4.574835499805002e-06
5.0620310187120265e-06
5.363713022007305e-06
5.465774137281693e-06
5.3637256144691e-06
5.06206133745607e-06
4.574814880531353e-06
3.9282432378676124e-06
3.1635309318198135e-06
2.340064332379682e-06
1.534531312609444e-06
8.378738589262524e-07
3.490364150066094e-07
-1.3011743644000817e-07
-4.340044078288141e-08
4.30112334463828e-08
1.297261252759807e-07
-1.3000315548031272e-07
-4.327517094671052e-08
4.314811775929517e-08
1.298753451901835e-07
-1.2998538200621398e-07
-4.3252260680795226e-08
4.3176635579995556e-08
1.299099394310669e-07
-1.2991861427641416e-07
-4.321065800311219e-08
4.319337733316164e-08
1.299019864488271e-07
-2.2244311718641607e-07
-7.18604950353946e-07
-1.4390777523694276e-06
-2.287537508464943e-06
-3.1693873189311828e-06
-3.999592096959326e-06
-4.708943956988065e-06
-5.247396086836831e-06
-5.582209537405292e-06
-5.695616545283583e-06
-5.582263103456192e-06
-5.247398842320172e-06
-4.7089792902590966e-06
-3.999615357089259e-06
-3.1693414194525205e-06
-2.2875127839230847e-06
-1.4390518188467372e-06
-7.186412961518451e-07
-2.2253068849426016e-07
-1.49251496311259e-07
-4.948113587373293e-07
-1.0238349913496703e-06
-1.6863043793696741e-06
-2.416910571199915e-06
-3.1392746183515896e-06
-3.77993950555211e-06
-4.278935212525398e-06
-4.5941879015208575e-06
-4.701747684993096e-06
-4.594206632624331e-06
-4.278924421393521e-06
-3.78008853640574e-06
-3.1392716854233838e-06
-2.416975697513979e-06
-1.686339300342038e-06
-1.0237645736675682e-06
-4.947876579806942e-07
-1.493338890254381e-07
-7.580219580152758e-08
-2.662543919194904e-07
-5.900606531786257e-07
-1.0460348396391927e-06
-1.6101416680132374e-06
-2.2219588253352685e-06
-2.800603726664866e-06
-3.270990582769119e-06
-3.575034800459842e-06
-3.680306937668687e-06
-3.5751082466152495e-06
-3.271005030509866e-06
-2.800568032850642e-06
-2.2219545341081726e-06
-1.6100981988405316e-06
-1.0460207412639477e-06
-5.899968905896669e-07
-2.6628801755648746e-07
-7.584653041042833e-08
-9.992675954056951e-09
-5.277266746858689e-08
-1.634998996608017e-07
-3.81226473552404e-07
-7.379796849935061e-07
-1.2199000213770905e-06
-1.7445393915328788e-06
-2.2050884581209518e-06
-2.5181981367985995e-06
-2.626399345728725e-06
-2.518144238645298e-06
-2.205139276071494e-06
-1.7445450300711263e-06
-1.2199680604930985e-06
-7.378863231752297e-07
-3.8126119196457697e-07
-1.634740185163519e-07
-5.281769829140748e-08
-1.000233376680093e-08
4.434218869170392e-08
1.3150976407166892e-07
2.266334456560437e-07
2.740026246450533e-07
1.9880150207637892e-07
-7.198822976617336e-08
-5.222811147037598e-07
-9.98150030576822e-07
-1.3461698598893346e-06
-1.4776247392288278e-06
-1.346133815985362e-06
-9.982360188037775e-07
-5.222629145609781e-07
-7.198083547960143e-08
1.987299363993833e-07
2.740266629372434e-07
2.266143651931396e-07
1.3152769037794165e-07
4.444915577273001e-08
8.528689481729357e-08
2.753057507971779e-07
5.467184676574699e-07
8.50472955470083e-07
1.1105772141986603e-06
1.1995645239071262e-06
9.703229249119483e-07
4.6602234514414587e-07
2.9705947486580175e-08
-1.3904544953619036e-07
2.9811623308839685e-08
4.66113901784887e-07
9.702765096375465e-07
1.1996810271273917e-06
1.1105659451712824e-06
8.504567076683678e-07
5.467206029043103e-07
2.752217307475796e-07
8.520584597951353e-08
1.1307688905018431e-07
3.769554793725538e-07
7.824229993694254e-07
1.2963660003667554e-06
1.8716737551355278e-06
2.4160173888003456e-06
2.7136517320343334e-06
2.4558186732803744e-06
1.780095119762598e-06
1.5545344274649209e-06
1.780085635959966e-06
2.4558637288993324e-06
2.713609415273127e-06
2.4161086297734558e-06
1.8717106542165407e-06
1.2963804168313053e-06
7.824435244510597e-07
3.7691888480316516e-07
1.131496696234191e-07
1.3036847708314259e-07
4.4110218569079485e-07
9.358008427780284e-07
1.5964813181723603e-06
2.40608719666649e-06
3.3395763124680067e-06
4.313067220398231e-06
4.972549830489087e-06
4.648546731371439e-06
3.711084386803093e-06
4.64861174484868e-06
4.972553138466243e-06
4.312946437016671e-06
3.3396816802814394e-06
2.4061122434089477e-06
1.5963839902193716e-06
9.358013448937386e-07
4.4111080349691634e-07
1.302195538309403e-07
1.3926045174320056e-07
4.7551680544891117e-07
1.0195342064200918e-06
1.7630814226387084e-06
2.7093543043894743e-06
3.87816316800918e-06
5.319315113504891e-06
7.062044773284426e-06
8.7247949713265e-06
9.300720083090658e-06
8.724809428522357e-06
7.062207899156611e-06
5.3192522900934874e-06
3.878088601276183e-06
2.709334840037686e-06
1.7631270121179488e-06
1.01952651772666e-06
4.755345556963636e-07
1.3932096470936628e-07
1.4210536848982547e-07
4.862259665450175e-07
1.045866620683067e-06
1.8157868702343982e-06
2.8054054178744403e-06
4.052668345404242e-06
5.639453963666996e-06
7.807537888995797e-06
1.0929934135494451e-05
1.3691284670335618e-05
1.0929911174946058e-05
7.807551958914638e-06
5.639626893552685e-06
4.052689406498083e-06
2.805522337202826e-06
1.8158927829210053e-06
1.0459268010246797e-06
4.862578174454069e-07
1.4216238226893996e-07
1.3928895356563054e-07
4.755129199424113e-07
1.0195677650690071e-06
1.7630482708336226e-06
2.709400395522338e-06
3.8781159019639355e-06
5.319255807077067e-06
7.062232019457854e-06
8.724843248552466e-06
9.3006391160156e-06
8.724676502062587e-06
7.062120485777992e-06
5.319192017971125e-06
3.878144623964408e-06
2.7093285605850337e-06
1.763056250185177e-06
1.0195324812670853e-06
4.7549097259048934e-07
1.393376674787422e-07
1.3034458676286498e-07
4.4120941264033653e-07
9.35761608946567e-07
1.5964306637021586e-06
2.4061771273162225e-06
3.3395820797019193e-06
4.313035200043114e-06
4.972553975520627e-06
4.648583185697108e-06
3.711050698363902e-06
4.648633743168512e-06
4.972521990114984e-06
4.313041916984353e-06
3.3395643330332014e-06
2.406062476957571e-06
1.5963577241207005e-06
9.35803479030356e-07
4.4120960248326957e-07
1.303303534382766e-07
1.1311808581146443e-07
3.769549265231209e-07
7.824305215051175e-07
1.2962984314128512e-06
1.8717553738958892e-06
2.4160248581657495e-06
2.7136057861240626e-06
2.455820380366236e-06
1.7801415065459014e-06
1.5544863421288607e-06
1.7800548828793283e-06
2.455831408391951e-06
2.7135688258680263e-06
2.4159698553214565e-06
1.8716934565201487e-06
1.2962660489845151e-06
7.824018887457596e-07
3.7694758525750466e-07
1.131487860671701e-07
8.5171535550016e-08
2.7528623224720716e-07
5.467879470484605e-07
8.504032928159655e-07
1.1106198952136326e-06
1.1996810619641085e-06
9.703153941685583e-07
4.6611390465758906e-07
2.9742329227949726e-08
-1.3911416218634343e-07
2.973451308091457e-08
4.661418275212631e-07
9.70191565868514e-07
1.1996687596660394e-06
1.1106108594657882e-06
8.504600609105309e-07
5.468106681625132e-07
2.7526207461818497e-07
8.520807388487373e-08
4.44649780584859e-08
1.3151771106607694e-07
2.2659648770892438e-07
2.740398668439614e-07
1.9875951001030456e-07
-7.193680385056411e-08
-5.221409838853525e-07
-9.98224035845749e-07
-1.346153753477991e-06
-1.4775650465734952e-06
-1.3461498484731993e-06
-9.982888697756404e-07
-5.222119093175465e-07
-7.200671854612484e-08
1.9875931222580745e-07
2.741240485212154e-07
2.2651433026835144e-07
1.3153087110705924e-07
4.437346735539083e-08
-1.0020540001931533e-08
-5.2738878746766416e-08
-1.6347603987859616e-07
-3.813483151933472e-07
-7.378752527216481e-07
-1.2199814727123504e-06
-1.7444992881313764e-06
-2.2050581191639107e-06
-2.5180685077202947e-06
-2.626389602774018e-06
-2.5181206536224743e-06
-2.2050028710227793e-06
-1.744477088011162e-06
-1.2200332262842645e-06
-7.378871199250486e-07
-3.8128617528988135e-07
-1.6345613628593325e-07
-5.271921312086786e-08
-1.0044053401492281e-08
-7.583982110023757e-08
-2.662273625476941e-07
-5.899776454390548e-07
-1.046091159057072e-06
-1.6101252937154864e-06
-2.2219262396580564e-06
-2.80052133923292e-06
-3.2710118242663955e-06
-3.575002305118355e-06
-3.680210729448477e-06
-3.5751330419095395e-06
-3.271011793516687e-06
-2.800598452364772e-06
-2.2218573014530854e-06
-1.6100715144271721e-06
-1.0460144297085028e-06
-5.900709227008374e-07
-2.662807400380558e-07
-7.589046039030781e-08
-1.4940448525221917e-07
-4.946855282454699e-07
-1.0237230653568907e-06
-1.6863069285076582e-06
-2.4169245232859293e-06
-3.139336171374685e-06
-3.780008432513471e-06
-4.278857028403027e-06
-4.5942198042669274e-06
-4.701765823721463e-06
-4.594212876754544e-06
-4.278992928265571e-06
-3.7800299644546315e-06
-3.1392432955834257e-06
-2.4169090526333925e-06
-1.6862827055741034e-06
-1.023747455450568e-06
-4.947738070464058e-07
-1.494197672869714e-07
-2.225240856128241e-07
-7.186695237665353e-07
-1.4391326081733546e-06
-2.2874800533444206e-06
-3.169318099589119e-06
-3.999583658858413e-06
-4.708975150816835e-06
-5.247411733553392e-06
-5.582280579664173e-06
-5.69559750825295e-06
-5.582253820753114e-06
-5.247356763273328e-06
-4.709041145501379e-06
-3.999581032369977e-06
-3.1693445324536967e-06
-2.2874925015431424e-06
-1.4390447739022483e-06
-7.187079193587964e-07
-2.224238232532115e-07
2.2165550871838802e-07
7.17133717641899e-07
1.4371499178524039e-06
2.28509127463139e-06
3.1665477510829654e-06
3.996090931913943e-06
4.705135609892053e-06
5.242912606211875e-06
5.577471896032332e-06
5.690785905444057e-06
5.577516138399047e-06
5.242923539271888e-06
4.7051498898997846e-06
3.996134639333571e-06
3.1665409503459085e-06
2.285109773665292e-06
1.4371351713211508e-06
7.172307988300396e-07
2.216867458527949e-07
1.487251714143989e-07
4.936277376473008e-07
1.0221501932569654e-06
1.6841218598469265e-06
2.4141135453285834e-06
3.1356280995320507e-06
3.775713083981752e-06
4.273967186982364e-06
4.588546306531077e-06
4.695937873593764e-06
4.588632084211175e-06
4.273956379568372e-06
3.775799011042358e-06
3.135730564301359e-06
2.414109627587452e-06
1.6840782742291727e-06
1.0220485614081953e-06
4.936425612653284e-07
1.487800732648259e-07
7.547239608621248e-08
2.6538105124193634e-07
5.886839661572996e-07
1.0439990175449554e-06
1.6075810709732796e-06
2.218444946775616e-06
2.79609869721989e-06
3.265406288380235e-06
3.568583031594158e-06
3.673615686660553e-06
3.5686467510995246e-06
3.265441688205667e-06
2.7960801955405346e-06
2.2184229208875583e-06
1.6075049717664824e-06
1.0441399788327366e-06
5.886358028853178e-07
2.6542112505079096e-07
7.539177202323111e-08
9.762989819361856e-09
5.215793546023417e-08
1.6246609046977056e-07
3.7979374185176384e-07
7.357198490917649e-07
1.2167038146541909e-06
1.7398899199612405e-06
2.1988390848728945e-06
2.510375345984167e-06
2.617922844540266e-06
2.5103388043533348e-06
2.1987214368947294e-06
1.7398968167048334e-06
1.2165812675740684e-06
7.356371024280772e-07
3.7978967278376463e-07
1.6252915182105032e-07
5.219732635702856e-08
9.693365696922251e-09
-4.4428621791964273e-08
-1.3171607782594408e-07
-2.2695076812295767e-07
-2.748921862916198e-07
-2.003836628017286e-07
6.933589297153375e-08
5.178681850501188e-07
9.912066556011512e-07
1.3361171498950386e-06
1.4668056714621514e-06
1.3361380477167062e-06
9.912274892068251e-07
5.177889163161808e-07
6.937879187124407e-08
-2.0029862222645245e-07
-2.7489188373502893e-07
-2.2700875259434872e-07
-1.3171344191362233e-07
-4.4474423279566855e-08
-8.508802806089788e-08
-2.7494373846040365e-07
-5.464826223107455e-07
-8.503129181360036e-07
-1.1110059579093334e-06
-1.2012246916534575e-06
-9.734076594838936e-07
-4.736795913215519e-07
-4.2727597265868056e-08
1.1938524850652055e-07
-4.284657960720861e-08
-4.7389885546658683e-07
-9.733177771774348e-07
-1.201113691381983e-06
-1.110911099014289e-06
-8.502377317389648e-07
-5.464784962518759e-07
-2.7499376547765464e-07
-8.505550763704406e-08
-1.1275934641563623e-07
-3.7610312782210276e-07
-7.813083393627684e-07
-1.295006460618614e-06
-1.870413615656652e-06
-2.4150449426975362e-06
-2.7155322902365497e-06
-2.4583252330248606e-06
-1.8020233642362937e-06
-1.5730531653206092e-06
-1.8019907195403195e-06
-2.458405267181246e-06
-2.715575386722348e-06
-2.415031183335614e-06
-1.87039487770037e-06
-1.2950452091958775e-06
-7.813176295789342e-07
-3.760808288833656e-07
-1.1267607324602635e-07
-1.2957764343457523e-07
-4.398245233711018e-07
-9.338574507126995e-07
-1.593719202504229e-06
-2.4024487399985917e-06
-3.335312098461801e-06
-4.307196869248603e-06
-4.977621165830337e-06
-4.640927364293196e-06
-3.873931274975262e-06
-4.640890119689961e-06
-4.977632123226786e-06
-4.307141738121509e-06
-3.335346222666999e-06
-2.4024732281895805e-06
-1.593799371365362e-06
-9.338505926274193e-07
-4.39854044581231e-07
-1.2964740163726174e-07
-1.3853929469939685e-07
-4.738927719405428e-07
-1.016927036207732e-06
-1.7592337712875328e-06
-2.7036568185818954e-06
-3.869646485001044e-06
-5.304429631595303e-06
-7.0425604098284245e-06
-8.681864258161531e-06
-9.259541329686982e-06
-8.68185432365172e-06
-7.0425889693026544e-06
-5.30442194234329e-06
-3.8696641943818805e-06
-2.703526756998864e-06
-1.7592244658474337e-06
-1.0169985706458273e-06
-4.7384485873415427e-07
-1.384993257146777e-07
-1.4115914485565706e-07
-4.844620091724872e-07
-1.0429544142799563e-06
-1.8115034534672836e-06
-2.7990530993664275e-06
-4.041172229438811e-06
-5.623669341273119e-06
-7.755194710815094e-06
-1.0888367450525432e-05
-1.3293038587946365e-05
-1.0888340889853368e-05
-7.755280227013384e-06
-5.623726923649486e-06
-4.041188125459422e-06
-2.799075291106193e-06
-1.8115710967887833e-06
-1.043029451209751e-06
-4.845273616303075e-07
-1.4120946970931636e-07
-1.383896492505865e-07
-4.7386688052653003e-07
-1.0169207836745187e-06
-1.7593259545797824e-06
-2.7036608582046984e-06
-3.869600175850085e-06
-5.304388075728916e-06
-7.0425950372959845e-06
-8.681769590334135e-06
-9.259527900321723e-06
-8.68177246728108e-06
-7.042449656399427e-06
-5.304410472908513e-06
-3.869656206703653e-06
-2.7036510083407184e-06
-1.7591947714789419e-06
-1.0169466859201448e-06
-4.7381595003580246e-07
-1.3851682964353962e-07
-1.2964904284873402e-07
-4.398466673140311e-07
-9.338387156956895e-07
-1.593726379658933e-06
-2.402477954938087e-06
-3.3352518550543164e-06
-4.307168995156679e-06
-4.977667893011489e-06
-4.640889116839381e-06
-3.8739377230968125e-06
-4.640914506588711e-06
-4.9775904108362995e-06
-4.307158129147198e-06
-3.335216171402103e-06
-2.402493126508684e-06
-1.5937085907809234e-06
-9.339362554098424e-07
-4.3987576790922855e-07
-1.2969493675372978e-07
-1.127357936760165e-07
-3.761037617212859e-07
-7.813503142585498e-07
-1.2950093452313016e-06
-1.8704243395749331e-06
-2.415040199949675e-06
-2.7154852510202776e-06
-2.4584085788828536e-06
-1.8020417174233194e-06
-1.5731100160335486e-06
-1.801976128979789e-06
-2.4583175504914317e-06
-2.71550205249195e-06
-2.4149617137980695e-06
-1.8703998775088798e-06
-1.2949658620003968e-06
-7.812800810877082e-07
-3.7601637591349463e-07
-1.1271043082964477e-07
-8.504064294423408e-08
-2.7497090672110036e-07
-5.466233055709258e-07
-8.503100266434027e-07
-1.1109474836110134e-06
-1.2012469945386905e-06
-9.734145790668558e-07
-4.738094851863134e-07
-4.280539967968511e-08
1.193807879548009e-07
-4.277999130809784e-08
-4.737781532700852e-07
-9.734017381059223e-07
-1.2011495637755804e-06
-1.1110039260329302e-06
-8.503788309407317e-07
-5.465079464337524e-07
-2.749710113422732e-07
-8.511248677980227e-08
-4.454103121401265e-08
-1.316538413842494e-07
-2.2698125495476673e-07
-2.7490252296757944e-07
-2.0030146430718987e-07
6.934974444705588e-08
5.176984579444849e-07
9.911808817927165e-07
1.3361843348557584e-06
1.4667996380210435e-06
1.3360856490392953e-06
9.91341358452455e-07
5.178338955431211e-07
6.933325034409743e-08
-2.0023582875377394e-07
-2.7486872031592946e-07
-2.2709870016197203e-07
-1.316761770418784e-07
-4.438529541562347e-08
9.7110645601306e-09
5.2187459579494666e-08
1.6248921878847522e-07
3.79799723147084e-07
7.356923883879152e-07
1.2166006614668101e-06
1.7399041842332957e-06
2.198729560802526e-06
2.510357607045377e-06
2.617944716341511e-06
2.510320610219635e-06
2.1988296619816078e-06
1.7397799574950246e-06
1.2166832542509845e-06
7.357391139913363e-07
3.798314287904031e-07
1.6255978809495003e-07
5.2230114717596865e-08
9.721727718854656e-09
7.54446850721735e-08
2.6539791948831937e-07
5.886700103312215e-07
1.0441397276308995e-06
1.6075575079606275e-06
2.2183748758751454e-06
2.7960575675091415e-06
3.265385911834298e-06
3.568514546194515e-06
3.673469130171386e-06
3.568618865397097e-06
3.265373090029916e-06
2.796013728108282e-06
2.218413714759511e-06
1.6074182016623598e-06
1.0440731809044368e-06
5.886868239112636e-07
2.654059634617928e-07
7.54144009293585e-08
1.487507832985402e-07
4.935760445426429e-07
1.021943596107855e-06
1.6840788627861536e-06
2.414109160436828e-06
3.135633652853742e-06
3.7758701783626586e-06
4.273909985317084e-06
4.588537986965555e-06
4.695962725629124e-06
4.588540241034014e-06
4.273911726264748e-06
3.7757414240880555e-06
3.1356692797458036e-06
2.41408177751104e-06
1.6840075646980604e-06
1.0220579317781267e-06
4.935794607851922e-07
1.4886408229199122e-07
2.2167658870336782e-07
7.172538098974834e-07
1.437243539431643e-06
2.2850702256806132e-06
3.166522896627666e-06
3.996156319079243e-06
4.705171430374917e-06
5.242974880170434e-06
5.57743761844115e-06
5.690837630934267e-06
5.577566249385588e-06
5.242962609199736e-06
4.705131384741441e-06
3.996113998285672e-06
3.1664806821119287e-06
2.285143897622424e-06
1.4371838348600612e-06
7.172122464035174e-07
2.2161552381378628e-07
-5.8354666352539164e-08
-1.9437324208504414e-08
1.914345818671004e-08
5.8055990251326683e-08
-4.2891968407565706e-08
-1.4169244586664798e-08
1.4301844708519695e-08
4.302863310795546e-08
-2.919046515961754e-08
-9.608781600251026e-09
9.795147623559153e-09
2.938085413850544e-08
-1.6701203846974932e-08
-5.550223964451151e-09
5.492283596669756e-09
1.6642305596115126e-08
-5.463484442636002e-09
-1.7960966741670248e-09
1.8306206585327889e-09
5.497827172684655e-09
3.765973557307012e-09
1.2430630344506532e-09
-1.261810229219451e-09
-3.7852042195085644e-09
1.0948037948432798e-08
3.6453915129575076e-09
-3.5915324915480884e-09
-1.0894594799221169e-08
1.6017348367786122e-08
5.317719313502334e-09
-5.280668055607229e-09
-1.5979429737744688e-08
1.8902093078254634e-08
6.2614809726024845e-09
-6.258334066255866e-09
-1.8900873997862444e-08
1.9816215886953037e-08
6.495295259978384e-09
-6.699317468827903e-09
-2.002555231014891e-08
1.8896889941721895e-08
6.235781824931452e-09
-6.3047773633806425e-09
-1.8968398764890315e-08
1.5860452652616264e-08
5.191739808896312e-09
-5.37844259407283e-09
-1.60515415022211e-08
1.1025733655939396e-08
3.707400678121253e-09
-3.5433185691102764e-09
-1.0858331723345716e-08
3.785325424637831e-09
1.2428252038620968e-09
-1.2819727016055715e-09
-3.825669541573928e-09
-5.4836992481599456e-09
-1.816549664163114e-09
1.8096063050809796e-09
5.4757421756590485e-09
-1.6706953601813845e-08
-5.547285995138873e-09
5.503545126572806e-09
1.6661558455838277e-08
-2.9263837100085288e-08
-9.692998490656857e-09
9.698224640031228e-09
2.9269428634265404e-08
-4.287958430687633e-08
-1.4167744494947287e-08
1.4292369607260547e-08
4.3008244174358445e-08
-5.82922518796436e-08
-1.9377795638930717e-08
1.9200875438218912e-08
5.8112141734095735e-08
-2.0952494829765134e-07
-7.003386641446507e-08
6.910978352092645e-08
2.0860064383135257e-07
-5.039734501458004e-07
-1.685259678196882e-07
1.6689666814534432e-07
5.02342289199903e-07
-9.229790331154175e-07
-3.083871293087237e-07
3.066424057139583e-07
9.212382836507049e-07
-1.407655286025239e-06
-4.7026994888510476e-07
4.6806903355317564e-07
1.405457520701342e-06
-1.9031051402586263e-06
-6.35721889852281e-07
6.331255038571904e-07
1.900514275680193e-06
-2.3632447319940197e-06
-7.894533463213751e-07
7.86254885910137e-07
2.3600473270657396e-06
-2.7523788015439143e-06
-9.194854308364198e-07
9.156949079512644e-07
2.748587616322254e-06
-3.0453461603106163e-06
-1.0172214003345559e-06
1.0134654874760507e-06
3.0415984375187916e-06
-3.2269120665093937e-06
-1.077879997054762e-06
1.0738766005290168e-06
3.2229145071876325e-06
-3.288338915080624e-06
-1.0984938244151116e-06
1.0941276076294193e-06
3.283971831559429e-06
-3.2271651945210006e-06
-1.0781308898612924e-06
1.073623477823929e-06
3.2226544370347193e-06
-3.0454672791981052e-06
-1.017340357315974e-06
1.0133456374017413e-06
3.0414745778705593e-06
-2.7520935326208473e-06
-9.192386855238696e-07
9.159070547461873e-07
2.7487687311025452e-06
-2.363174233101055e-06
-7.893896380667745e-07
7.86311962547824e-07
2.36009771384469e-06
-1.9030628571892194e-06
-6.356840584293907e-07
6.331584953209179e-07
1.900542013251981e-06
-1.4076123056342912e-06
-4.702482167733349e-07
4.680696428895417e-07
1.4054368597240727e-06
-9.230085018774835e-07
-3.08424725078537e-07
3.065965989037904e-07
9.211841389216401e-07
-5.038749749308388e-07
-1.6840127527303558e-07
1.670493747548546e-07
5.025250209545438e-07
-2.094790000851856e-07
-7.002137753734511e-08
6.908881734660026e-08
2.0854582419294054e-07
-5.815638539578144e-08
-1.9235829751317393e-08
1.935190611723021e-08
5.8275174799604906e-08
-4.285009823508899e-08
-1.4166025389620446e-08
1.4265680479573148e-08
4.295200258853417e-08
-2.930578222020558e-08
-9.713021330379906e-09
9.699803649957511e-09
2.9292376319683955e-08
-1.6619468727434306e-08
-5.4595827169053035e-09
5.59317886840785e-09
1.6754976299611368e-08
-5.465806581644861e-09
-1.7883991518599651e-09
1.8488484632150914e-09
5.5271401648224194e-09
3.8784045220188745e-09
1.3293167556299723e-09
-1.2000119292351896e-09
-3.746285567353402e-09
1.1018754748903792e-08
3.7009103047783154e-09
-3.549990187229346e-09
-1.0865827091387226e-08
1.5935100896799503e-08
5.292270535001142e-09
-5.2500474991695745e-09
-1.5893092720348223e-08
1.8969742662106048e-08
6.306060191391127e-09
-6.2357222042203064e-09
-1.8899348933065774e-08
1.986852340464529e-08
6.579964477795852e-09
-6.580512376327952e-09
-1.987057520434765e-08
1.897537949338557e-08
6.297421216439059e-09
-6.2590247689592315e-09
-1.8937901458820905e-08
1.611766596923414e-08
5.4053754475896776e-09
-5.205220301660041e-09
-1.5915877242880794e-08
1.0921993125884155e-08
3.5874991397705225e-09
-3.6824956990005875e-09
-1.1020101605557775e-08
3.7454979777418185e-09
1.2292956791393195e-09
-1.2692847844823774e-09
-3.786605189343498e-09
-5.4303926251553225e-09
-1.7742040822610328e-09
1.8418507552464547e-09
5.498940108816797e-09
-1.6581585382535735e-08
-5.4327793895525556e-09
5.6092950111164e-09
1.676043970277874e-08
-2.9126206866486593e-08
-9.578735790660708e-09
9.790871453863037e-09
2.9341760469231426e-08
-4.285278030688455e-08
-1.4174431770680451e-08
1.4251358274042225e-08
4.293145864850412e-08
-5.823269060012404e-08
-1.9320292105745596e-08
1.925722850973366e-08
5.816807896810716e-08
-2.0956859175455533e-07
-7.009981201760995e-08
6.902006033718266e-08
2.0848548533403122e-07
-5.039640287342328e-07
-1.684917039813938e-07
1.6695615099454608e-07
5.024274003888329e-07
-9.228837146574298e-07
-3.082825893417629e-07
3.067592790548246e-07
9.213704992086513e-07
-1.4075967821429447e-06
-4.7021667808760936e-07
4.6811814811281716e-07
1.4055035934615323e-06
-1.903111286494924e-06
-6.357372809434603e-07
6.330999482058453e-07
1.9004776946676682e-06
-2.3631893602063525e-06
-7.894026317761815e-07
7.863014089004583e-07
2.3600900076505005e-06
-2.7522499274276746e-06
-9.193494077686104e-07
9.158404710336854e-07
2.7487454354151175e-06
-3.0455445577566576e-06
-1.017384951632061e-06
1.0133330235230498e-06
3.041493614047708e-06
-3.2271053395580007e-06
-1.0780531563524265e-06
1.073720512910492e-06
3.2227726041167415e-06
-3.28827900628742e-06
-1.0983943729385437e-06
1.0942691212253997e-06
3.284158397388187e-06
-3.2270237772941135e-06
-1.077989530952339e-06
1.0737668702485992e-06
3.222802108907713e-06
-3.045351950059505e-06
-1.017237393860504e-06
1.013438875520356e-06
3.041560607895677e-06
-2.7522654178768757e-06
-9.193658797763959e-07
9.158229452750632e-07
2.7487265405398698e-06
-2.3631532302115232e-06
-7.893578523113232e-07
7.863555789022758e-07
2.360154431831768e-06
-1.9031252118661968e-06
-6.357406087918738e-07
6.331073218283911e-07
1.9004959311494374e-06
-1.4076491719437756e-06
-4.702525481445341e-07
4.680982681089241e-07
1.4054991195160127e-06
-9.230510500286837e-07
-3.084416215007324e-07
3.066048009717215e-07
9.212168009323229e-07
-5.039246174023959e-07
-1.6848642381619983e-07
1.6692787387778685e-07
5.023657577117591e-07
-2.095646401099882e-07
-7.008542964384579e-08
6.904612097000107e-08
2.0852450888231289e-07
-1.329304178780688e-07
-4.445840819447544e-08
4.366530802907276e-08
1.321391705985664e-07
-4.3129287161797203e-07
-1.44225083580779e-07
1.4275979157152285e-07
4.298256179209592e-07
-8.64418433429992e-07
-2.88881103680666e-07
2.869500161269134e-07
8.624884596797333e-07
-1.374444964047112e-06
-4.592034494729433e-07
4.5675691589391887e-07
1.371998543608921e-06
-1.9044830236979171e-06
-6.361615137520649e-07
6.333051698857728e-07
1.9016323206284824e-06
-2.4034888235942298e-06
-8.028347583712014e-07
7.993410901796505e-07
2.399992614053603e-06
-2.8297923572971617e-06
-9.451567772253422e-07
9.413172501263056e-07
2.8259632908547716e-06
-3.1534449769533845e-06
-1.053336721557746e-06
1.0488339212619269e-06
3.1489486242985976e-06
-3.354651191410374e-06
-1.1205314689524681e-06
1.1157847074685923e-06
3.349907484091058e-06
-3.422804487965281e-06
-1.1432957403335886e-06
1.138454914936804e-06
3.4179670912945492e-06
-3.354686489175085e-06
-1.12054843845813e-06
1.115786736123614e-06
3.3499297220074276e-06
-3.1534420917474215e-06
-1.0533301257227567e-06
1.0488426544011387e-06
3.1489587177559175e-06
-2.8298158639208926e-06
-9.451698060082558e-07
9.413137871394639e-07
2.8259688273843397e-06
-2.4035005428586775e-06
-8.028342672397604e-07
7.993547288843994e-07
2.400020593547325e-06
-1.9044487532121623e-06
-6.361380840529118e-07
6.333182902967804e-07
1.9016354373402322e-06
-1.3744244150848406e-06
-4.5918531727320855e-07
4.5677407475852583e-07
1.372015925489578e-06
-8.644041102900957e-07
-2.888764120100029e-07
2.869468403235431e-07
8.624789210251449e-07
-4.3130364964574786e-07
-1.4421047307699997e-07
1.4280019270535016e-07
4.298933102518665e-07
-1.3298908351638827e-07
-4.4491254416745285e-08
4.3655551226068345e-08
1.3215060932006417e-07
-8.909176144739073e-08
-2.978228850689102e-08
2.9243477795565243e-08
8.855712887306799e-08
-2.9682719729015594e-07
-9.928770450945423e-08
9.810260841180973e-08
2.956426125681755e-07
-6.147657657350203e-07
-2.0550910721783833e-07
2.0381117925641346e-07
6.13072260416403e-07
-1.0128849495666392e-06
-3.3847147322060844e-07
3.3627546540751507e-07
1.0106934703324466e-06
-1.4519644081535665e-06
-4.851359642829567e-07
4.823234565493051e-07
1.4491570616663452e-06
-1.8861169579949266e-06
-6.302234854885236e-07
6.265840767454012e-07
1.882475148064916e-06
-2.2711308111204864e-06
-7.588482472398184e-07
7.545987063713178e-07
2.2668890152371945e-06
-2.5710388096497616e-06
-8.591233073493298e-07
8.541383740984232e-07
2.566059521563746e-06
-2.7605394024889096e-06
-9.225417616220977e-07
9.169095419522821e-07
2.7549040502658495e-06
-2.8251894519763787e-06
-9.441669089997606e-07
9.383497000282903e-07
2.819374747442538e-06
-2.760543083568656e-06
-9.225279673300002e-07
9.16943734604464e-07
2.754962090210228e-06
-2.5710310090909516e-06
-8.591194127424706e-07
8.541377625481163e-07
2.566053960064568e-06
-2.2712290594119333e-06
-7.588987133988478e-07
7.545941387750166e-07
2.2669295532823375e-06
-1.886100369899446e-06
-6.301908779433874e-07
6.266358352179091e-07
1.882550007947098e-06
-1.4520142223237165e-06
-4.851721473742021e-07
4.8229932374938e-07
1.4491436372381095e-06
-1.0129183973181521e-06
-3.3850495718620865e-07
3.362404074093439e-07
1.0106550250126023e-06
-6.147262864540648e-07
-2.0550138910349625e-07
2.0378531067830052e-07
6.130102247273173e-07
-2.968064483147015e-07
-9.926952240779663e-08
9.811886341609677e-08
2.9565762744293567e-07
-8.914472110141403e-08
-2.980737013116852e-08
2.9245256345095116e-08
8.858540865436249e-08
-4.5134511326289095e-08
-1.508851170742287e-08
1.4750159274545815e-08
4.4799007080376096e-08
-1.5961669090971964e-07
-5.344492497172393e-08
5.2570762198306253e-08
1.5874276537014564e-07
-3.5420556416046467e-07
-1.1850827535270225e-07
1.1713553348460803e-07
3.528314942678745e-07
-6.282596209175595e-07
-2.1013173405817764e-07
2.0811228967562712e-07
6.26234669977993e-07
-9.673057316007816e-07
-3.23409795326135e-07
3.208418019491621e-07
9.647402746983114e-07
-1.335103583924302e-06
-4.4640657619055e-07
4.429055860052933e-07
1.331598259567135e-06
-1.6829762313486096e-06
-5.627817573697347e-07
5.582726610893485e-07
1.678468515602799e-06
-1.965801472710721e-06
-6.574815362182795e-07
6.518877678149404e-07
1.9602108970832866e-06
-2.148629170254518e-06
-7.187486515680686e-07
7.122955561177091e-07
2.1421765305923435e-06
-2.211921458258881e-06
-7.39943326555359e-07
7.332391780898173e-07
2.2052216141037195e-06
-2.1486753256638735e-06
-7.187679610977382e-07
7.123032020744935e-07
2.142211680010442e-06
-1.9658017675651396e-06
-6.574699341413415e-07
6.519092097187484e-07
1.960240174660177e-06
-1.6829527844132441e-06
-5.62769935159857e-07
5.582736171128033e-07
1.678459308866731e-06
-1.3351083542681441e-06
-4.464184991150033e-07
4.428884917001552e-07
1.331577794933675e-06
-9.67285239406035e-07
-3.2341237064456574e-07
3.208157088527286e-07
9.64689725047041e-07
-6.282284330735854e-07
-2.1007951082896437e-07
2.081896712524678e-07
6.263416579867231e-07
-3.541681862437307e-07
-1.1849482128498123e-07
1.1712706847813448e-07
3.5280261821007963e-07
-1.5963577503982918e-07
-5.3449568316460416e-08
5.2580740244473345e-08
1.5876762111607934e-07
-4.518251829621622e-08
-1.5141680770325294e-08
1.4690024075642016e-08
4.472978900119107e-08
-5.793934852726945e-09
-1.9666294669151707e-09
1.7363845118689714e-09
5.5639089377446105e-09
-3.150074474054035e-08
-1.0652787387887414e-08
1.0051526826149182e-08
3.0894955430765814e-08
-9.801703087022884e-08
-3.29627771918084e-08
3.194579668158726e-08
9.699439651456032e-08
-2.288439240397122e-07
-7.672921345514006e-08
7.529554537852312e-08
2.2741054262614968e-07
-4.4335142117962745e-07
-1.4855316257667006e-07
1.4630069768151177e-07
4.4109648464005224e-07
-7.331777795646643e-07
-2.4555821638572173e-07
2.4236148943659885e-07
7.299812754303636e-07
-1.0487838425984886e-06
-3.5133343169804765e-07
3.466840564521345e-07
1.0441344075150238e-06
-1.3258770941437792e-06
-4.4431065283553894e-07
4.3804574863248735e-07
1.3196174061015642e-06
-1.514335426125446e-06
-5.076947049049985e-07
4.998754284980811e-07
1.5065149702210567e-06
-1.5794893332247983e-06
-5.296565185643198e-07
5.211572649543861e-07
1.5709977939232234e-06
-1.5142998631666182e-06
-5.076769525290403e-07
4.998754558963037e-07
1.5064970272822553e-06
-1.3259301970859616e-06
-4.443710845888904e-07
4.379723431875704e-07
1.3195250276043513e-06
-1.0487852654429697e-06
-3.5133118328131707e-07
3.4668910166985034e-07
1.044141102024554e-06
-7.332496192828664e-07
-2.4563683990314056e-07
2.422724698844525e-07
7.298777342963636e-07
-4.432929172730471e-07
-1.4852900904333e-07
1.4629037537253198e-07
4.4105070227604126e-07
-2.2887366215099125e-07
-7.675347583543934e-08
7.527731733097953e-08
2.273990224142819e-07
-9.798769213739678e-08
-3.292811840902021e-08
3.198780746532792e-08
9.704588432510319e-08
-3.15281247741106e-08
-1.066317966216812e-08
1.0057804387952896e-08
3.09177832780172e-08
-5.812080591111046e-09
-1.994542649097486e-09
1.6968932196881337e-09
5.5106405792704205e-09
2.665954759034639e-08
8.870267739075066e-09
-8.954803148997215e-09
-2.6744737199185797e-08
7.905436337149463e-08
2.6314351777440015e-08
-2.6520889276349102e-08
-7.926084138326628e-08
1.362638562402152e-07
4.536813081809643e-08
-4.570198930756164e-08
-1.365921747965848e-07
1.6471260570749546e-07
5.469219372528089e-08
-5.5573808822179105e-08
-1.6559688124917482e-07
1.1943916445461555e-07
3.936683437913424e-08
-4.09440716053755e-08
-1.210180376395864e-07
-4.357603143254063e-08
-1.5381580918683024e-08
1.2738624977776114e-08
4.092992013718377e-08
-3.147507782359782e-07
-1.0647209595232576e-07
1.0205733298393471e-07
3.1033663104584885e-07
-6.014046394081651e-07
-2.0297483556766527e-07
1.960203337668387e-07
5.944538737923111e-07
-8.112420948475085e-07
-2.740209721768805e-07
2.6396827060987116e-07
8.011894045908963e-07
-8.903873396116924e-07
-3.006535724513204e-07
2.899076189657665e-07
8.796165929688109e-07
-8.112113199509885e-07
-2.7399411867828904e-07
2.639923302287517e-07
8.012116130030889e-07
-6.014620457517328e-07
-2.0300737042788786e-07
1.9600907186570482e-07
5.944603582962171e-07
-3.147513727708162e-07
-1.0649141790608496e-07
1.0201892102976173e-07
3.102783502247075e-07
-4.356314513634385e-08
-1.536244221764238e-08
1.2764847481111508e-08
4.0964060771947475e-08
1.194004060380005e-07
3.935972127042109e-08
-4.092032583960514e-08
-1.2096373642675462e-07
1.6473075040504548e-07
5.4705054087361704e-08
-5.556570567208374e-08
-1.655929362624764e-07
1.362445196037565e-07
4.534508205381038e-08
-4.573251654108046e-08
-1.3663432979135748e-07
7.907029623763218e-08
2.6327882741983277e-08
-2.651027419461882e-08
-7.925383812071307e-08
2.6733907504405963e-08
8.913391261189396e-09
-8.941803051470965e-09
-2.676123165082367e-08
5.11129186232806e-08
1.7084069141998226e-08
-1.6894831474795202e-08
-5.092045061647066e-08
1.6531710249345632e-07
5.523096886089762e-08
-5.4885711163465967e-08
-1.6496623167841507e-07
3.2841316656428976e-07
1.0960790105749019e-07
-1.0936538193465073e-07
-3.281729148880974e-07
5.109674529532593e-07
1.7048246910011944e-07
-1.7032957344217947e-07
-5.10812141661654e-07
6.672317137898509e-07
2.2243445890052227e-07
-2.228505290233218e-07
-6.676520595098878e-07
7.204880127960334e-07
2.3979973980473024e-07
-2.414318264337689e-07
-7.221295029481711e-07
5.821655351852251e-07
1.931281637598814e-07
-1.9620494806291133e-07
-5.852449393821402e-07
2.7762895555422107e-07
8.991322674942182e-08
-9.757469819973719e-08
-2.8528897717816637e-07
1.4071980830587805e-08
1.68335064637537e-10
-1.3159190920958297e-08
-2.707332835347187e-08
-8.890242066475484e-08
-3.65246880691672e-08
1.6629597129891316e-08
6.908685801221282e-08
1.4129899597592477e-08
1.810890326581216e-10
-1.3190115253497448e-08
-2.7147755821133046e-08
2.77664378052489e-07
8.989076942522711e-08
-9.765810859638235e-08
-2.854376101139866e-07
5.821419677004558e-07
1.931293442322679e-07
-1.9617682055217411e-07
-5.851873402309971e-07
7.205872190954588e-07
2.398895042575455e-07
-2.4134331803871145e-07
-7.220339149453803e-07
6.672357286269248e-07
2.2245614182334061e-07
-2.2280811618272112e-07
-6.675854328404285e-07
5.109680615116019e-07
1.7050034259100122e-07
-1.7029372447081859e-07
-5.107572858993603e-07
3.284158405832821e-07
1.0961102180594151e-07
-1.0936186676212267e-07
-3.2816904747302866e-07
1.65249438580789e-07
5.517477211225419e-08
-5.493527775214668e-08
-1.650138491855746e-07
5.106129267909258e-08
1.705786115461204e-08
-1.6899025014407987e-08
-5.090535011749442e-08
6.767606550855954e-08
2.2629260389150918e-08
-2.2300005789871458e-08
-6.73507598719647e-08
2.2627243266223895e-07
7.569173338453639e-08
-7.485283045477464e-08
-2.2542900951147415e-07
4.6992260407593966e-07
1.5705537061844188e-07
-1.55934996633883e-07
-4.6880416125147373e-07
7.787611984062803e-07
2.6015446533134146e-07
-2.5878818277202953e-07
-7.773971754006237e-07
1.1244573933852364e-06
3.754451857532204e-07
-3.7416977326579226e-07
-1.1231871249704761e-06
1.451599522268171e-06
4.844970370385115e-07
-4.835064403851952e-07
-1.450615009584988e-06
1.6299304698985662e-06
5.430399605474423e-07
-5.44913232456562e-07
-1.6318062117763599e-06
1.4742288048687213e-06
4.90791758171738e-07
-4.932672961685536e-07
-1.4767147405378434e-06
1.0629564393960234e-06
3.468632401443239e-07
-3.688691158389157e-07
-1.08493600927545e-06
9.283163688138252e-07
3.0332893229470526e-07
-3.2130955254089377e-07
-9.464796362559924e-07
1.0629516034553477e-06
3.4686494780611365e-07
-3.6885896829291775e-07
-1.0849155202344307e-06
1.474246988018152e-06
4.9078438161404e-07
-4.93299297847638e-07
-1.4767708358190412e-06
1.6298894661564978e-06
5.429997347941584e-07
-5.449534500150122e-07
-1.6318473213539075e-06
1.4516661611431447e-06
4.845441366457121e-07
-4.834742771565176e-07
-1.4505937539956854e-06
1.1244853532037247e-06
3.754669886234935e-07
-3.7415143815978935e-07
-1.1231697576996602e-06
7.78763915897443e-07
2.6014597599537115e-07
-2.5880730887203884e-07
-7.774263976311618e-07
4.6993464223633874e-07
1.5706024174104438e-07
-1.5593601631821996e-07
-4.688098584441913e-07
2.2625220412117453e-07
7.568550461876933e-08
-7.484745427610573e-08
-2.2541419066914037e-07
6.774735618504668e-08
2.2700653273810545e-08
-2.222679745117473e-08
-6.727361486630334e-08
7.803050426288816e-08
2.62109397727861e-08
-2.543318169262454e-08
-7.724832762345812e-08
2.647345106639165e-07
8.863968304489989e-08
-8.736329987560354e-08
-2.634577243795788e-07
5.620077439955073e-07
1.8800853486891644e-07
-1.860599046638045e-07
-5.600609055550487e-07
9.590339623798128e-07
3.206965346370938e-07
-3.179379628008572e-07
-9.562742072782848e-07
1.4455898561388514e-06
4.832818151535856e-07
-4.796329921182008e-07
-1.4419445059712932e-06
2.006624502524923e-06
6.706357948554897e-07
-6.663692747807537e-07
-2.0023587550231647e-06
2.592162715982227e-06
8.665521576724233e-07
-8.606387882845179e-07
-2.586263793010607e-06
2.9865496465469876e-06
9.94490311389401e-07
-9.99595434831007e-07
-2.9916434517007068e-06
2.793094166699678e-06
9.340894987566739e-07
-9.261407280386491e-07
-2.7852557881805073e-06
2.192111825241594e-06
6.756645851806187e-07
-8.397820378536203e-07
-2.3558005159546314e-06
2.7931476891049356e-06
9.341344457299006e-07
-9.261013331103574e-07
-2.7852189350904832e-06
2.9865477319240136e-06
9.944843974863532e-07
-9.996041500405506e-07
-2.991653835233282e-06
2.5920779440687797e-06
8.66502585039966e-07
-8.606535957210448e-07
-2.5862438161883272e-06
2.0066967412277897e-06
6.706781114640403e-07
-6.66354234157493e-07
-2.0023689847308707e-06
1.4456039978110596e-06
4.83285643199105e-07
-4.796389993337591e-07
-1.441959900923967e-06
9.589465367124128e-07
3.206157845013491e-07
-3.180153180966372e-07
-9.563514121908867e-07
5.620076275747454e-07
1.8800873514794592e-07
-1.8605839538152202e-07
-5.600571264009757e-07
2.6473788016304067e-07
8.863677076857701e-08
-8.73736049501056e-08
-2.6347684681411743e-07
7.790900870795203e-08
2.611106355437931e-08
-2.551726391644693e-08
-7.732246977767976e-08
8.329665518794216e-08
2.7944948962493887e-08
-2.7203607991244105e-08
-8.256208593182546e-08
2.853772941846522e-07
9.562559250692049e-08
-9.399647737939887e-08
-2.837499196578497e-07
6.122929823923484e-07
2.0497269565336595e-07
-2.0237275184797898e-07
-6.096906154245962e-07
1.0591241980176247e-06
3.5440381530860154e-07
-3.5056992577636725e-07
-1.0552856824740109e-06
1.627888259983501e-06
5.447217008985872e-07
-5.390144658980189e-07
-1.6221843115692136e-06
2.330586801466833e-06
7.800326023571502e-07
-7.715172752609245e-07
-2.3220710571696113e-06
3.1978280910470447e-06
1.0714494788170714e-06
-1.0565651227291417e-06
-3.1829433651819894e-06
4.246607029911864e-06
1.4229454694675292e-06
-1.4034678707391945e-06
-4.227127185237045e-06
5.251751565831658e-06
1.7663276482178525e-06
-1.723258354478785e-06
-5.208729112769761e-06
5.597181192584788e-06
1.880668856136386e-06
-1.8401132598454273e-06
-5.556414112310726e-06
5.251762952537473e-06
1.7663373496866475e-06
-1.7232492739473193e-06
-5.208719841059625e-06
4.246721716425622e-06
1.423017742535268e-06
-1.4034329153846115e-06
-4.227125455790598e-06
3.1977807690049265e-06
1.071416883593676e-06
-1.0565836877710066e-06
-3.182948537962596e-06
2.330527449167716e-06
7.799864043100263e-07
-7.715522735880775e-07
-2.3220966290319472e-06
1.6278941461101565e-06
5.447546308802453e-07
-5.389522023460658e-07
-1.6220898160397568e-06
1.0591596623730354e-06
3.5443071348673083e-07
-3.50550123318083e-07
-1.0552716970535503e-06
6.122739076891599e-07
2.0494182408612761e-07
-2.024161214059239e-07
-6.097474595893881e-07
2.8539772644643746e-07
9.565045115678128e-08
-9.396543972084448e-08
-2.8371116047275213e-07
8.334986531868815e-08
2.7992768858106643e-08
-2.7159639440221817e-08
-8.252061439208147e-08
8.502146910810415e-08
2.858556016199776e-08
-2.763366437411041e-08
-8.407146322511605e-08
2.918058307765925e-07
9.781325874258506e-08
-9.603713561553984e-08
-2.900338064958097e-07
6.281208273471728e-07
2.103432594664778e-07
-2.0744308243739185e-07
-6.252166261551395e-07
1.0908027477281312e-06
3.6510586905527664e-07
-3.6082833155051675e-07
-1.0865232609319486e-06
1.685606491920455e-06
5.641695522903833e-07
-5.578150680460303e-07
-1.67925272673633e-06
2.4358461527991537e-06
8.16105985766008e-07
-8.046098022400361e-07
-2.4243500002761598e-06
3.3900137286560494e-06
1.135786535391703e-06
-1.1200373770080263e-06
-3.3742527762899155e-06
4.700389013980594e-06
1.5851730025689958e-06
-1.5327490482490436e-06
-4.647992155448061e-06
6.577464726365695e-06
2.2080018493401965e-06
-2.167078572527792e-06
-6.536325596023795e-06
8.315606379576818e-06
2.9091851486747616e-06
-2.5078978895566595e-06
-7.915346004066376e-06
6.577449427147206e-06
2.2079952081924953e-06
-2.167075432660953e-06
-6.536311416198079e-06
4.700381020211752e-06
1.5851445225260191e-06
-1.532796930816746e-06
-4.64805887988827e-06
3.390134561732233e-06
1.1358591639216292e-06
-1.120009881422357e-06
-3.374268348602452e-06
2.435859742607252e-06
8.16112438175795e-07
-8.046104132929111e-07
-2.424357977759417e-06
1.6856900015189968e-06
5.642231523401292e-07
-5.57788573550197e-07
-1.6792512283671929e-06
1.0908724915621032e-06
3.6514108353417896e-07
-3.6082685786129054e-07
-1.0865557552499489e-06
6.281549153035887e-07
2.1035150718669293e-07
-2.0746113444346237e-07
-6.252621827795846e-07
2.918182171757905e-07
9.780662342182e-08
-9.606278711729588e-08
-2.900788776162566e-07
8.505428374452895e-08
2.8595887666474362e-08
-2.7644410816041187e-08
-8.41023165085858e-08
8.334291773035019e-08
2.801178917294367e-08
-2.7112983441712757e-08
-8.244396580703306e-08
2.8538076840556315e-07
9.563578869109524e-08
-9.39802287276692e-08
-2.837284092289949e-07
6.123207052129154e-07
2.0499491266631753e-07
-2.0235585265412914e-07
-6.096789785352275e-07
1.0590872098377446e-06
3.5435931611954574e-07
-3.5062594493442956e-07
-1.0553575883337496e-06
1.627923376757573e-06
5.447463381422213e-07
-5.389998186840217e-07
-1.6221791933335172e-06
2.3305572133466845e-06
7.800206829541856e-07
-7.715110161754437e-07
-2.3220455383807063e-06
3.1977905838274923e-06
1.0714326060361212e-06
-1.0565621707502026e-06
-3.182921059330379e-06
4.246738599091027e-06
1.4230279455663963e-06
-1.4034288026848474e-06
-4.227126767297057e-06
5.251798657991691e-06
1.7663788397393604e-06
-1.723197782049768e-06
-5.2086539538229865e-06
5.59711737911639e-06
1.880622558193476e-06
-1.8401411633253012e-06
-5.556422263798891e-06
5.251676175510936e-06
1.7662939595600863e-06
-1.7232509023825532e-06
-5.2086801162736646e-06
4.246679437609757e-06
1.4230195261449863e-06
-1.4033869404021099e-06
-4.227033982213621e-06
3.1977399913962062e-06
1.0713926303883292e-06
-1.0565940300327759e-06
-3.182947140223033e-06
2.3305757713750624e-06
7.800256913419873e-07
-7.715229695965525e-07
-2.322077883131282e-06
1.6278729149509646e-06
5.447145629295519e-07
-5.390154409617987e-07
-1.622181060645378e-06
1.0591166615218917e-06
3.544114199807019e-07
-3.5054957457821e-07
-1.055254893543578e-06
6.122922142064863e-07
2.0497075936022624e-07
-2.0237820110534377e-07
-6.097019292269218e-07
2.853720697647971e-07
9.564087969510249e-08
-9.396069199085755e-08
-2.83693605235974e-07
8.335753797633627e-08
2.799250694955624e-08
-2.7166761165306474e-08
-8.253347891749863e-08
7.800276589919886e-08
2.6176752803558356e-08
-2.5476724840878262e-08
-7.73042192689366e-08
2.648140539594779e-07
8.86928621934846e-08
-8.733553095649493e-08
-2.63454904496363e-07
5.619786909716318e-07
1.8799024290375166e-07
-1.8606666521078785e-07
-5.600553125741092e-07
9.58995207116925e-07
3.206680733273959e-07
-3.179577675489764e-07
-9.56286934757078e-07
1.4456530008158386e-06
4.833199205925287e-07
-4.796184421528016e-07
-1.4419523191207262e-06
2.006637320840776e-06
6.706574234953411e-07
-6.663369263026908e-07
-2.002313549288176e-06
2.5921411173114584e-06
8.66541716888769e-07
-8.606373323866157e-07
-2.586249551333325e-06
2.986541442793339e-06
9.944713483672762e-07
-9.996241000544137e-07
-2.991681220681358e-06
2.793123188153321e-06
9.341150478507643e-07
-9.261146973991996e-07
-2.7852254512027858e-06
2.192084946702269e-06
6.756437726969378e-07
-8.39797503914344e-07
-2.355811233790972e-06
2.7931617544094123e-06
9.341397855106015e-07
-9.261054033458255e-07
-2.78523295698177e-06
2.9865322987241566e-06
9.94483786711034e-07
-9.995905313232856e-07
-2.9916262331113053e-06
2.5921518394412396e-06
8.665545412969711e-07
-8.606239808410521e-07
-2.5862369979218897e-06
2.0066354053764612e-06
6.706684071450947e-07
-6.663155992219644e-07
-2.0022841300728483e-06
1.445569847660145e-06
4.832619578348882e-07
-4.7965704848274e-07
-1.4419768851539616e-06
9.589463032880219e-07
3.206395521437172e-07
-3.17968887499423e-07
-9.562828667333823e-07
5.619979699875155e-07
1.8798463110800134e-07
-1.860998216831472e-07
-5.601190595384137e-07
2.648058274705434e-07
8.86775796161976e-08
-8.735660413962398e-08
-2.6348055137334625e-07
7.798082775518911e-08
2.614799843488058e-08
-2.551158722469138e-08
-7.734475480046521e-08
6.771238837341431e-08
2.266133099573797e-08
-2.227151178410547e-08
-6.732511454582424e-08
2.2627299960456537e-07
7.569300983917282e-08
-7.485146320818092e-08
-2.2542821275992053e-07
4.699200319979724e-07
1.5704313359801714e-07
-1.5595680141755608e-07
-4.6883576439865626e-07
7.78708512526316e-07
2.6011558060257123e-07
-2.5881426883936354e-07
-7.774113205301358e-07
1.1245157899887614e-06
3.7548307521909075e-07
-3.741499352803712e-07
-1.1231833439359629e-06
1.4516063884181807e-06
4.845034661353498e-07
-4.835004397199527e-07
-1.45060953403095e-06
1.62990324479792e-06
5.43031248696757e-07
-5.449034945377573e-07
-1.6317779125904486e-06
1.4742145103378845e-06
4.907614042579111e-07
-4.933142422110931e-07
-1.4767791968288424e-06
1.0629875092805358e-06
3.4688060514091734e-07
-3.6886426206528267e-07
-1.0849429006153793e-06
9.282753034248886e-07
3.03290486039845e-07
-3.2134979101663963e-07
-9.465260772702211e-07
1.0629323787172268e-06
3.4685558370980973e-07
-3.6885968537209157e-07
-1.084908397782497e-06
1.4742375367120947e-06
4.907977737087649e-07
-4.932624879938619e-07
-1.4767094264570707e-06
1.629872943668259e-06
5.430059923650088e-07
-5.449250455209775e-07
-1.6317967775278386e-06
1.4515747430877274e-06
4.844963019424997e-07
-4.834814450287162e-07
-1.4505621272857538e-06
1.124474859330593e-06
3.754606688870926e-07
-3.741557411708618e-07
-1.1231737589347673e-06
7.786921803250996e-07
2.601142051299188e-07
-2.58801144186957e-07
-7.773834532435325e-07
4.699110903970405e-07
1.5705333608704436e-07
-1.5592741792885834e-07
-4.6878654727956076e-07
2.2628104379054242e-07
7.571778367493343e-08
-7.480816673240132e-08
-2.25364159263039e-07
6.773878441067999e-08
2.2685133823502346e-08
-2.224872433335967e-08
-6.730172347636093e-08
5.1037364855177625e-08
1.704405938607323e-08
-1.6902961520043336e-08
-5.0899693272710156e-08
1.6529848671786862e-07
5.5212213252719966e-08
-5.490591385021171e-08
-1.6498921573057657e-07
3.2844318881286583e-07
1.0959829687198774e-07
-1.0941593880930967e-07
-3.2826680303535416e-07
5.109178455482699e-07
1.704501114557777e-07
-1.7034749491529576e-07
-5.108183806414729e-07
6.672733443256751e-07
2.224769920719516e-07
-2.2280490238196782e-07
-6.676011379616598e-07
7.205698320904286e-07
2.3985096720899324e-07
-2.414076525590614e-07
-7.221296270398803e-07
5.821575495210118e-07
1.9312048131839288e-07
-1.9621206743744568e-07
-5.852516716114975e-07
2.7767733006868467e-07
8.991886803894067e-08
-9.761234491360848e-08
-2.8537148564003467e-07
1.4086228660933897e-08
1.607353642546494e-10
-1.3188972634511908e-08
-2.712629500883912e-08
-8.895332682772039e-08
-3.65604392732477e-08
1.6606466575128098e-08
6.907407348877292e-08
1.4086145529515481e-08
1.6756114898375252e-10
-1.3175792826572441e-08
-2.7107022924910407e-08
2.7770415313502217e-07
8.994506220556808e-08
-9.758587623913406e-08
-2.853434202861743e-07
5.820645482268461e-07
1.930557027539359e-07
-1.9625041275395105e-07
-5.852644560239151e-07
7.205722224769284e-07
2.3987078174615706e-07
-2.4136671085417394e-07
-7.220630382949456e-07
6.672566007451947e-07
2.224516490855616e-07
-2.2283974570290466e-07
-6.676463801015553e-07
5.109479080632473e-07
1.7045471607367996e-07
-1.7036758298560883e-07
-5.108627917672914e-07
3.2847888847657714e-07
1.0964923872775617e-07
-1.0934698882643368e-07
-3.281765051897645e-07
1.6528189926163367e-07
5.520164169693642e-08
-5.4911808904621606e-08
-1.6499164033449698e-07
5.105083068779326e-08
1.7035485504884873e-08
-1.693292115551026e-08
-5.0950630448194645e-08
2.673661998742194e-08
8.901714750736422e-09
-8.969683468196266e-09
-2.680732935980701e-08
7.907175718357973e-08
2.634172761514786e-08
-2.6482746870448715e-08
-7.921112548173181e-08
1.3623408865945374e-07
4.534293657557087e-08
-4.572551100257005e-08
-1.3661739354034474e-07
1.6474054018167372e-07
5.4710857934348045e-08
-5.5564493704057805e-08
-1.6559717821301723e-07
1.1942229400166426e-07
3.9374707393874386e-08
-4.0911587641939695e-08
-1.2096086904334058e-07
-4.3536672027916223e-08
-1.5351321464018852e-08
1.2762127663684675e-08
4.09482282144602e-08
-3.146752104929429e-07
-1.064582663395236e-07
1.0201074901634855e-07
3.102293586257354e-07
-6.014632037143475e-07
-2.030205775299665e-07
1.9598444687615735e-07
5.944247116872886e-07
-8.11220735742052e-07
-2.739916921280089e-07
2.6400793224669317e-07
8.012417997554921e-07
-8.903453740279066e-07
-3.006266064507074e-07
2.899219012329757e-07
8.796200818925876e-07
-8.112325146063942e-07
-2.74021529777721e-07
2.6395759937340724e-07
8.011685278721398e-07
-6.014872189850223e-07
-2.0300271056684915e-07
1.9604635266741444e-07
5.945338409068385e-07
-3.147062247206957e-07
-1.0644974323694399e-07
1.020594496709687e-07
3.1032004737217844e-07
-4.3594366087515435e-08
-1.5398187194065605e-08
1.2725218096268365e-08
4.0921164522894626e-08
1.1943034547434728e-07
3.9392980331724725e-08
-4.0880587322440765e-08
-1.2091421538150404e-07
1.6480833818412893e-07
5.476557367063012e-08
-5.551972230219415e-08
-1.6555932791807032e-07
1.3614913775723825e-07
4.525307678235335e-08
-4.582243723523505e-08
-1.367236047650558e-07
7.90742043735998e-08
2.6335218673324834e-08
-2.6496482600016358e-08
-7.923009472370762e-08
2.6688720585962833e-08
8.899363603681598e-09
-8.9235651446265e-09
-2.6708772388195356e-08
-5.822214852596597e-09
-1.997241514534176e-09
1.701117722380241e-09
5.521552486065229e-09
-3.147198238129256e-08
-1.0626963857507388e-08
1.0076577509898765e-08
3.092124852346889e-08
-9.799585528463828e-08
-3.294295438868722e-08
3.196554525242146e-08
9.701530335678998e-08
-2.2893487883896002e-07
-7.67925369647704e-08
7.525717819409361e-08
2.273950794329238e-07
-4.432761345832259e-07
-1.4850519023529296e-07
1.463227601063155e-07
4.4109353956878206e-07
-7.33256419343381e-07
-2.4563697680404784e-07
2.4227895756637197e-07
7.298907177648306e-07
-1.0487501634556806e-06
-3.513048794905743e-07
3.467081642824499e-07
1.0441539797095833e-06
-1.3258706398240616e-06
-4.443291919814518e-07
4.3800014291710265e-07
1.3195417521202207e-06
-1.5142411334424094e-06
-5.076319509397798e-07
4.999095812533577e-07
1.5065226019166794e-06
-1.5794822594179803e-06
-5.296491638814849e-07
5.211674397962579e-07
1.5710129547992502e-06
-1.51428848749538e-06
-5.076757238747093e-07
4.998684622701394e-07
1.50648361966349e-06
-1.325813128233086e-06
-4.442663533860136e-07
4.3807168861181855e-07
1.3196256803821305e-06
-1.0487545979102203e-06
-3.5133676915335976e-07
3.4664746144559555e-07
1.0440626756584581e-06
-7.332844804168112e-07
-2.4564049933353815e-07
2.4230158227230014e-07
7.29941795168422e-07
-4.432799553810707e-07
-1.4849938709867588e-07
1.4634004506103304e-07
4.411243850173732e-07
-2.2888755562156665e-07
-7.675533284304259e-08
7.528865937460327e-08
2.2742489464832455e-07
-9.797286022305424e-08
-3.291353734523328e-08
3.2004964345411224e-08
9.70683946242834e-08
-3.1451174998566034e-08
-1.0603620337681918e-08
1.0104171890672198e-08
3.0955142768518407e-08
-5.839997382819234e-09
-2.009228813274616e-09
1.6955670045087912e-09
5.523397570480343e-09
-4.516775667720574e-08
-1.5118632359922834e-08
1.4721955175767132e-08
4.477158983481888e-08
-1.595954110256148e-07
-5.342719909540161e-08
5.2586801810436054e-08
1.587586577651845e-07
-3.5415015606568567e-07
-1.1847592175720512e-07
1.1714895585199225e-07
3.528296562589628e-07
-6.282817449770883e-07
-2.1011765901496338e-07
2.0816515514110456e-07
6.263296046631062e-07
-9.672975273163076e-07
-3.2340966668945037e-07
3.2083391481030343e-07
9.647244108533515e-07
-1.3350916780834055e-06
-4.4641481006246764e-07
4.4287732972603244e-07
1.331549535812937e-06
-1.6829233429275364e-06
-5.62755441722157e-07
5.582748517501956e-07
1.6784483945000983e-06
-1.9658195744755996e-06
-6.574975768332963e-07
6.518722996586707e-07
1.960194088324041e-06
-2.148614914663019e-06
-7.187529879899152e-07
7.122716209236046e-07
2.1421314024897e-06
-2.211871642539623e-06
-7.399400607493306e-07
7.331947838931652e-07
2.2051275724074143e-06
-2.1486980836850356e-06
-7.187897477726329e-07
7.122809800898244e-07
2.1421874983884592e-06
-1.9658207199325928e-06
-6.575007056551507e-07
6.518664794601808e-07
1.9601849942912225e-06
-1.682985139158863e-06
-5.628061983016519e-07
5.582307073641324e-07
1.6784065521874975e-06
-1.3350341678567898e-06
-4.463658341904986e-07
4.4292051398775456e-07
1.3315894481762819e-06
-9.672779562059503e-07
-3.234253571678808e-07
3.207807829546175e-07
9.646304268478775e-07
-6.282339549031069e-07
-2.1009780704506903e-07
2.081572262249004e-07
6.262931294574378e-07
-3.54213752179304e-07
-1.1851398210027675e-07
1.1713259003790638e-07
3.5283147888434674e-07
-1.5962906819294576e-07
-5.34455161936738e-08
5.2580102803852224e-08
1.5876050618807494e-07
-4.5210020684603724e-08
-1.5155004404188155e-08
1.468931935377088e-08
4.4740857083405694e-08
-8.920385408464626e-08
-2.985662441931658e-08
2.9204232171453626e-08
8.855098241125625e-08
-2.96741789404531e-07
-9.923964165714505e-08
9.81157826408785e-08
2.956227744682627e-07
-6.147147126253638e-07
-2.055189760562237e-07
2.0373889155281266e-07
6.129348579068938e-07
-1.0128934513943533e-06
-3.384866879459214e-07
3.3625254989774755e-07
1.0106613387850238e-06
-1.4519740197567466e-06
-4.851423639692931e-07
4.823190753316942e-07
1.4491533944678558e-06
-1.8861641697502651e-06
-6.302571730412709e-07
6.265633501444101e-07
1.8824674083706139e-06
-2.2711621963655837e-06
-7.58839230148925e-07
7.546520559842396e-07
2.2669914432407734e-06
-2.5709872636323072e-06
-8.590982629504834e-07
8.541366787826604e-07
2.566030532724639e-06
-2.760564514701566e-06
-9.225610795842581e-07
9.168949376206492e-07
2.754893088031257e-06
-2.825197982879793e-06
-9.441663959240676e-07
9.383587369956453e-07
2.8193918413296076e-06
-2.760556627362672e-06
-9.225532688041322e-07
9.169016763621585e-07
2.754897937213077e-06
-2.5710859911775436e-06
-8.59164995242051e-07
8.540970416453381e-07
2.566013599479902e-06
-2.271189951096389e-06
-7.588803682782863e-07
7.545898809534907e-07
2.2669001660639843e-06
-1.8860849422498369e-06
-6.301901609049795e-07
6.266192754877595e-07
1.8825130272941831e-06
-1.4519673137052339e-06
-4.851439641068503e-07
4.823092602176948e-07
1.4491350964008012e-06
-1.0128875534507614e-06
-3.3849895051622086e-07
3.3622177163412925e-07
1.0106110528316711e-06
-6.147119205567042e-07
-2.0548908070353727e-07
2.0379613954561726e-07
6.130201652102159e-07
-2.9680655060267125e-07
-9.928393203233188e-08
9.808924295853436e-08
2.956118933389318e-07
-8.919444512730905e-08
-2.9822662870248803e-08
2.9263368474946594e-08
8.863637213237484e-08
-1.3298856338384013e-07
-4.449546420551287e-08
4.364807492870937e-08
1.3214114237894425e-07
-4.313247189031977e-07
-1.4422286713847154e-07
1.4279808880496292e-07
4.2990293449424177e-07
-8.644452016808024e-07
-2.8887938651606104e-07
2.869808966507459e-07
8.625498756978378e-07
-1.3744043312370613e-06
-4.591788682374587e-07
4.5676602832001034e-07
1.3719925072847028e-06
-1.9044329251163838e-06
-6.361299057996983e-07
6.333183907511475e-07
1.9016268809242398e-06
-2.403473362062869e-06
-8.02810257367545e-07
7.99376829526896e-07
2.400041939833175e-06
-2.829811947843361e-06
-9.45164276672586e-07
9.413227471215257e-07
2.825983151270167e-06
-3.1534463890460496e-06
-1.0533234538964709e-06
1.0488625398399204e-06
3.1489935533608043e-06
-3.3547135190846455e-06
-1.120585797780363e-06
1.115737659483293e-06
3.349867077258664e-06
-3.422781330772104e-06
-1.1432672546649036e-06
1.1384898633802487e-06
3.418009836006833e-06
-3.354666935219408e-06
-1.1205196523821764e-06
1.1158236165355329e-06
3.3499737112554356e-06
-3.153400217439581e-06
-1.0532883569103896e-06
1.0488842392807757e-06
3.148999465000038e-06
-2.829864218660376e-06
-9.45206758523956e-07
9.412857686933937e-07
2.825947013247905e-06
-2.4034761852715497e-06
-8.028201218639175e-07
7.993581486618814e-07
2.4000125222372118e-06
-1.9044601308202194e-06
-6.361591338814587e-07
6.332860781393598e-07
1.9015901869291751e-06
-1.3744015262655285e-06
-4.5915975243737e-07
4.5680240482078027e-07
1.3720470983602864e-06
-8.643899570156231e-07
-2.888546358800585e-07
2.8697676601610947e-07
8.625177491403471e-07
-4.3135972697689456e-07
-1.442563813368325e-07
1.4276405130037723e-07
4.2986623851899025e-07
-1.329206807827157e-07
-4.445933288925799e-08
4.3652512861850734e-08
1.3211340401190748e-07
SCALARS strain22 float
LOOKUP_TABLE default
-2.1760104869372743e-07
-2.1782194190370086e-07
-2.1778037468463303e-07
-2.174999148493728e-07
2.175607132122448e-07
2.1721719646247695e-07
2.1743115392056436e-07
2.1753822705347647e-07
-3.4995647671745567e-07
-8.392562010177407e-07
-1.5364285841645842e-06
-2.342238523536655e-06
-3.1660415537836106e-06
-3.931309478559519e-06
-4.578324903487668e-06
-5.065995149020758e-06
-5.367942757468491e-06
-5.46986855610998e-06
-5.367942548021448e-06
-5.066020160201384e-06
-4.578297649219382e-06
-3.931357425084742e-06
-3.166145089050776e-06
-2.342516288358215e-06
-1.536481584490934e-06
-8.395692872587013e-07
-3.4993679526307275e-07
-9.814605054017655e-08
-7.240763642835102e-08
-4.9417543401125696e-08
-2.809030857746364e-08
-9.32212650128772e-09
6.226793664021457e-09
1.83375702417915e-08
2.6972412624573505e-08
3.199770933805246e-08
3.3635676938148507e-08
3.193000691452397e-08
2.7025077832705524e-08
1.8532292841814957e-08
6.309933403905732e-09
-9.350709561685433e-09
-2.817144020839102e-08
-4.944092455881274e-08
-7.260100268820409e-08
-9.816039766349233e-08
-3.5005749637553483e-07
-8.393687677750884e-07
-1.5365039319099882e-06
-2.3423230913728957e-06
-3.166140692535506e-06
-3.931117771415436e-06
-4.578047097191472e-06
-5.065970959283739e-06
-5.367769369719021e-06
-5.469882317879482e-06
-5.367845251430525e-06
-5.065813924997123e-06
-4.578334662157235e-06
-3.931349703931164e-06
-3.1661356648653854e-06
-2.342464649279785e-06
-1.536450910883183e-06
-8.394538348957536e-07
-3.500462331731957e-07
-9.806608599477462e-08
-7.242847747251924e-08
-4.923967843184496e-08
-2.7892130969459084e-08
-9.144311349795764e-09
6.506798461147767e-09
1.8540604568989538e-08
2.7148856981962233e-08
3.2025589416506683e-08
3.360865541077174e-08
3.2015391615569655e-08
2.6907176851193038e-08
1.8491165418299538e-08
6.3428244982677295e-09
-9.224832779597403e-09
-2.785788403431022e-08
-4.951046092896427e-08
-7.25383777419597e-08
-9.811250115815406e-08
3.491790131551764e-07
8.379977074583767e-07
1.5345239871046579e-06
2.339858169869008e-06
3.1634726528166623e-06
3.92810132963245e-06
4.574871867283475e-06
5.062005672008124e-06
5.363793374832393e-06
5.465556673221045e-06
5.363875258422579e-06
5.061998557601838e-06
4.5748473492188135e-06
3.927946072207478e-06
3.163517899102547e-06
2.339795621125046e-06
1.5343975063135395e-06
8.378462745019244e-07
3.490527251473474e-07
9.801782641788437e-08
7.237577134139306e-08
4.9437931956552994e-08
2.806768035525098e-08
9.24618550994516e-09
-6.424557259885472e-09
-1.8430853288876892e-08
-2.684094661462022e-08
-3.1760443134840055e-08
-3.349470052357861e-08
-3.194954007086637e-08
-2.6887567767738818e-08
-1.8461505129317712e-08
-6.357419223869398e-09
9.218592795373626e-09
2.8012871355030666e-08
4.9285777318271856e-08
7.236340442010394e-08
9.807868169855148e-08
3.491535024055764e-07
8.379140062778415e-07
1.5344892740449742e-06
2.3400694544543216e-06
3.1635934012955863e-06
3.928298999728019e-06
4.5750275261182555e-06
5.062177039079699e-06
5.363848407739444e-06
5.4656761500557205e-06
5.363695455439313e-06
5.062216994089486e-06
4.574876574670733e-06
3.928135063731297e-06
3.1635989833755235e-06
2.3398751178033833e-06
1.5344572894347014e-06
8.380069206267993e-07
3.4912131762279697e-07
9.81916459946719e-08
7.254781491522477e-08
4.949868770073862e-08
2.829797314182758e-08
9.36904815534989e-09
-6.2886509159809645e-09
-1.843524272127084e-08
-2.6925075932715536e-08
-3.187253959022196e-08
-3.3385639090083297e-08
-3.1901016106505864e-08
-2.6882822391771644e-08
-1.8431002290347775e-08
-6.29404368901465e-09
9.275763646759971e-09
2.815780074036378e-08
4.938822309799584e-08
7.227802535994532e-08
9.810586363429019e-08
-1.2996464071254876e-07
-4.323404005981968e-08
4.3192488627386005e-08
1.2992352341895108e-07
-1.3020644737057885e-07
-4.3498444266681924e-08
4.290364237838351e-08
1.296083101155754e-07
-1.301320836025058e-07
-4.3390574597864e-08
4.3045827743753116e-08
1.2978584796902604e-07
-1.2988844328223892e-07
-4.318268555583704e-08
4.321910674828788e-08
1.2992552140753122e-07
-2.2246675466033872e-07
-1.4935090634007886e-07
-7.580365878057105e-08
-1.0038150727309514e-08
4.4341771209682745e-08
8.51855038487559e-08
1.1326157419583316e-07
1.3035177618900273e-07
1.3939820965591654e-07
1.4216286765844632e-07
1.392827474570868e-07
1.302759847464363e-07
1.1318081753058928e-07
8.525472271550538e-08
4.4344524722378376e-08
-1.0079766722681516e-08
-7.587515288981495e-08
-1.4937620650481986e-07
-2.2251158884184497e-07
-7.185962749081676e-07
-4.948211254976465e-07
-2.663279645639949e-07
-5.276143596327776e-08
1.3156930327509753e-07
2.7530094208819134e-07
3.768813515124536e-07
4.411245719988799e-07
4.754354664057714e-07
4.861897148662753e-07
4.754527210340531e-07
4.411971514794999e-07
3.7689405452123736e-07
2.753393155280337e-07
1.315781890248724e-07
-5.26922428432941e-08
-2.663113329373634e-07
-4.947671369097406e-07
-7.186872611961159e-07
-1.4391845984326745e-06
-1.023698810494883e-06
-5.899964666059021e-07
-1.634215544138451e-07
2.2657564807682107e-07
5.468222011948548e-07
7.82417500044038e-07
9.358106766096941e-07
1.0195502497083175e-06
1.0458592862548632e-06
1.0195059810709506e-06
9.358760147022693e-07
7.824078103874088e-07
5.467650686340197e-07
2.2673254309116264e-07
-1.634547559803412e-07
-5.90000216012937e-07
-1.0237450767582729e-06
-1.439051350450582e-06
-2.2875176756698146e-06
-1.686317753692157e-06
-1.0460199557187078e-06
-3.812618869641904e-07
2.74120793473942e-07
8.50434010747636e-07
1.2962980217197384e-06
1.5964334573424777e-06
1.7630759279116393e-06
1.815806698824557e-06
1.7630564637244328e-06
1.596326654782626e-06
1.2963184103653713e-06
8.504164388870028e-07
2.7405761095049275e-07
-3.813430078762614e-07
-1.0460579855774838e-06
-1.6863014453000202e-06
-2.2874562361097778e-06
-3.169371451918618e-06
-2.4169687373766513e-06
-1.610142080700483e-06
-7.379396843414099e-07
1.9869562449537082e-07
1.110666250636605e-06
1.8716814027819328e-06
2.4061658781826534e-06
2.7094149177252225e-06
2.8055700871318368e-06
2.709355673861935e-06
2.4060968826372653e-06
1.8716650125438078e-06
1.110600069019127e-06
1.9887635350525346e-07
-7.380086495117899e-07
-1.6100976430889063e-06
-2.4168869555939165e-06
-3.1694640232910604e-06
-3.999558830593969e-06
-3.139238313534798e-06
-2.2218821467342997e-06
-1.2199749209185207e-06
-7.197387612636885e-08
1.199695652452648e-06
2.4160188491842427e-06
3.33947896401926e-06
3.878126780529345e-06
4.052620575772242e-06
3.878181489483726e-06
3.3396399259852383e-06
2.416032394477602e-06
1.199677794798057e-06
-7.197567825599493e-08
-1.2199383489994164e-06
-2.2219530686155148e-06
-3.1393009958576717e-06
-3.99960240251955e-06
-4.708991682370739e-06
-3.7801456015292e-06
-2.8004641497436644e-06
-1.7444807707753252e-06
-5.222137146737582e-07
9.702325999803862e-07
2.7135892510105064e-06
4.313036053790742e-06
5.319161685184495e-06
5.639513843379296e-06
5.31930680453159e-06
4.313036209681667e-06
2.7136968882204154e-06
9.703197796813445e-07
-5.222941513380319e-07
-1.7444787652805965e-06
-2.8006048703264202e-06
-3.780036829393804e-06
-4.708968015370088e-06
-5.247295565377619e-06
-4.278942852948414e-06
-3.271046454516452e-06
-2.2051456978582074e-06
-9.982559677663982e-07
4.6599957415419113e-07
2.4557933585474256e-06
4.972561677859394e-06
7.062083584408879e-06
7.807624290137247e-06
7.062172903441952e-06
4.9724144369558965e-06
2.4557859796825454e-06
4.6611295844919964e-07
-9.982372836444403e-07
-2.205075892302774e-06
-3.2709769692725044e-06
-4.27899454136238e-06
-5.247371342961479e-06
-5.582306918352348e-06
-4.594201995337249e-06
-3.5750042443457794e-06
-2.5180712701368922e-06
-1.3461217071865893e-06
2.9824809615053294e-08
1.780171904179964e-06
4.648604489105798e-06
8.724805254746448e-06
1.0929812941583641e-05
8.724796320453906e-06
4.648699509753398e-06
1.780069046072516e-06
2.970234816782047e-08
-1.3461650596787583e-06
-2.5181708144979276e-06
-3.575136334758172e-06
-4.5941187514133425e-06
-5.582206380855617e-06
-5.69568355808861e-06
-4.701709175835428e-06
-3.680344510158945e-06
-2.6263966534031957e-06
-1.4776610360554832e-06
-1.3910683559562043e-07
1.5545870241800985e-06
3.711013640581712e-06
9.300794861822476e-06
1.3691177924327752e-05
9.300591611515266e-06
3.71103780918286e-06
1.5544736876385579e-06
-1.390420037491319e-07
-1.4776264883453044e-06
-2.6263943958704933e-06
-3.6802806336316135e-06
-4.701769473964765e-06
-5.695597208955905e-06
-5.5822879130758285e-06
-4.594152322151546e-06
-3.5750591357019967e-06
-2.5181047369170206e-06
-1.3461307247775167e-06
2.9699732909116427e-08
1.7801744550925702e-06
4.648643693367163e-06
8.724807504047888e-06
1.0929836374190191e-05
8.724802258745432e-06
4.648616531243918e-06
1.7801212702020508e-06
2.975061003454571e-08
-1.346171938714294e-06
-2.5181626974388194e-06
-3.575050611057465e-06
-4.594129231146743e-06
-5.582296971597123e-06
-5.247427539725735e-06
-4.278973121038532e-06
-3.2710764840127027e-06
-2.2051122088480313e-06
-9.982290485044398e-07
4.660323912955566e-07
2.4558371148758473e-06
4.972492292866851e-06
7.062094912850536e-06
7.807577138139662e-06
7.062129029575606e-06
4.972485097762963e-06
2.4558799261772263e-06
4.6601623710992857e-07
-9.982929469031648e-07
-2.205059429117792e-06
-3.2709320166683653e-06
-4.278864424936933e-06
-5.2473162263366735e-06
-4.709067507175507e-06
-3.7800349821440205e-06
-2.800615923288785e-06
-1.7444992963105976e-06
-5.222531200797798e-07
9.70269400558596e-07
2.713618492302186e-06
4.313066129191245e-06
5.3193014649295656e-06
5.6395895555311215e-06
5.319158163019297e-06
4.313036473300655e-06
2.713665406330404e-06
9.70243138373461e-07
-5.222696397187351e-07
-1.7445414298026055e-06
-2.8005632504617475e-06
-3.7800286492670893e-06
-4.708995107678519e-06
-3.999596166075897e-06
-3.139250772478397e-06
-2.2219539688068946e-06
-1.2199712164234766e-06
-7.18935578292168e-08
1.1996865921896915e-06
2.416059442669413e-06
3.339543065850742e-06
3.878109381082878e-06
4.052656644930319e-06
3.87814460616441e-06
3.3395875670624853e-06
2.4160196972679987e-06
1.199631089051148e-06
-7.1935274130637e-08
-1.2199649723669895e-06
-2.221884370125042e-06
-3.139324418767117e-06
-3.999514571470801e-06
-3.1693461593194396e-06
-2.4169409616999274e-06
-1.6101383314669204e-06
-7.379417027719715e-07
1.9875086407043774e-07
1.110543232922534e-06
1.8717507401268263e-06
2.4061579747582107e-06
2.709328969893038e-06
2.805580446031339e-06
2.7093125464592444e-06
2.4061668517129375e-06
1.871709551085933e-06
1.110623991089181e-06
1.9872173768076956e-07
-7.378579492374818e-07
-1.6100848480417665e-06
-2.41703725901727e-06
-3.1693819031088782e-06
-2.2875084533073575e-06
-1.6863212102188885e-06
-1.046015159846675e-06
-3.813388147130836e-07
2.7404994719891496e-07
8.503865300876073e-07
1.2962176867761799e-06
1.596393573088592e-06
1.763182271753358e-06
1.8158268910370423e-06
1.763058095545847e-06
1.5964036562399198e-06
1.2963648066428163e-06
8.504090173791501e-07
2.7404252559998926e-07
-3.8127920948954896e-07
-1.0460490385737556e-06
-1.6862971479723356e-06
-2.2875389932806856e-06
-1.43904804160086e-06
-1.023724418566102e-06
-5.900317452643689e-07
-1.6343706309672468e-07
2.26619880416834e-07
5.468482244756073e-07
7.823520569473497e-07
9.357962251765883e-07
1.0195299487373438e-06
1.0458443188404026e-06
1.0195526005014888e-06
9.357844173293536e-07
7.823447700722533e-07
5.467785638589226e-07
2.2669705703869808e-07
-1.6347820891091103e-07
-5.900304024214313e-07
-1.0237380486562142e-06
-1.4391422206556058e-06
-7.186549635211648e-07
-4.947509099628711e-07
-2.663282339943063e-07
-5.2747322116034057e-08
1.3154140266619097e-07
2.7532488340413497e-07
3.7685265035468374e-07
4.412043593075843e-07
4.754706230628708e-07
4.862418421253817e-07
4.755930494686894e-07
4.411081384594548e-07
3.7687256404430464e-07
2.753324150010089e-07
1.3154154035726479e-07
-5.27535213784916e-08
-2.6630074191581407e-07
-4.948110905269622e-07
-7.186171125548799e-07
-2.2247828805263548e-07
-1.493318872933247e-07
-7.580649016500352e-08
-9.990597214099006e-09
4.445479363096583e-08
8.51890244561726e-08
1.1317419105170978e-07
1.3032563372060435e-07
1.3927354008784476e-07
1.4214117537159066e-07
1.3939245613672768e-07
1.303057146706879e-07
1.1314365251993697e-07
8.52377585397815e-08
4.443610482178506e-08
-1.0011559116451796e-08
-7.577941006165281e-08
-1.4941192584853533e-07
-2.2240437298878726e-07
2.2163204349556764e-07
1.4881518862683296e-07
7.544225829464457e-08
9.719049731682361e-09
-4.432198352777306e-08
-8.512151044789973e-08
-1.1272928954197958e-07
-1.2971287548235733e-07
-1.3839975456994558e-07
-1.412210523868418e-07
-1.3842972983527102e-07
-1.2973121705367463e-07
-1.1271012996874608e-07
-8.511824867510343e-08
-4.451223651474878e-08
9.7273778970966e-09
7.543062406027007e-08
1.4868741618923736e-07
2.2173771421080124e-07
7.171844322896581e-07
4.93622928796067e-07
2.653889214498939e-07
5.22577181909234e-08
-1.3172278155032524e-07
-2.7496559488332517e-07
-3.76088761216975e-07
-4.3982998658431693e-07
-4.7382750732738455e-07
-4.844686450518332e-07
-4.7373717475610033e-07
-4.398607905027607e-07
-3.761119655928957e-07
-2.750022884169534e-07
-1.3172797895533161e-07
5.216728720877639e-08
2.654193018113149e-07
4.936624771433029e-07
7.172180627283697e-07
1.4372395150258344e-06
1.0220131875515737e-06
5.886886971888383e-07
1.6245207437592946e-07
-2.27010495897767e-07
-5.465207533195127e-07
-7.813610140780525e-07
-9.338930185807948e-07
-1.0170361966384267e-06
-1.04298166141506e-06
-1.0168817659861329e-06
-9.3386700836251e-07
-7.813902752895618e-07
-5.464517854568418e-07
-2.2707107079009137e-07
1.6250904475573202e-07
5.886053355171061e-07
1.0220074119701716e-06
1.4371692630132937e-06
2.2850755596014183e-06
1.6840915303545367e-06
1.0441054243658099e-06
3.797226473256643e-07
-2.7487436170259283e-07
-8.502755176158228e-07
-1.2949726972029396e-06
-1.5936912159501826e-06
-1.7592551502139397e-06
-1.8115207040987624e-06
-1.759360036289459e-06
-1.593769007903617e-06
-1.295017161100781e-06
-8.50312055364344e-07
-2.748401949723839e-07
3.798162879261463e-07
1.0441901413336258e-06
1.6840791693065876e-06
2.2850923344312074e-06
3.166570835162752e-06
2.414083550967422e-06
1.6075221343572754e-06
7.356918493399422e-07
-2.0030854871663784e-07
-1.1110126145082166e-06
-1.8703482242178604e-06
-2.4024638876143922e-06
-2.703649025936894e-06
-2.799031166476895e-06
-2.703621177706228e-06
-2.402440773666137e-06
-1.8703898908567496e-06
-1.1109251330330278e-06
-2.0033193783193515e-07
7.356487522949123e-07
1.6075718898469343e-06
2.4140266610683803e-06
3.166502877481603e-06
3.996084654796228e-06
3.135657649911555e-06
2.2183566005216926e-06
1.2167403698574997e-06
6.93247115199358e-08
-1.2011707160065888e-06
-2.415055967694424e-06
-3.335272825973762e-06
-3.8695449217328315e-06
-4.0412102753212276e-06
-3.8696352426936115e-06
-3.335387953287694e-06
-2.4150520939736353e-06
-1.2012184211242227e-06
6.9322871422417e-08
1.2165917681120075e-06
2.218452354513234e-06
3.1357043513476762e-06
3.9961060502250595e-06
4.705113394180144e-06
3.7757553030676183e-06
2.7960638438254137e-06
1.739916961746718e-06
5.177548455179148e-07
-9.73371064957873e-07
-2.7155577258311525e-06
-4.307026400751646e-06
-5.304382434418581e-06
-5.623739767163932e-06
-5.304476945621264e-06
-4.307112785947517e-06
-2.7156225049390116e-06
-9.733484095733602e-07
5.177882673431181e-07
1.7399093561343976e-06
2.796062319312259e-06
3.7758162885863367e-06
4.705128235631129e-06
5.2430011014369116e-06
4.274005702652184e-06
3.2653616010083764e-06
2.1987884785135137e-06
9.912457417729503e-07
-4.73716445133221e-07
-2.458360237465179e-06
-4.97762982434348e-06
-7.042562287578116e-06
-7.75519293919752e-06
-7.042552716307257e-06
-4.9775561531493345e-06
-2.458395476896344e-06
-4.737484180557944e-07
9.912679824319176e-07
2.1987392019168217e-06
3.2654705121332867e-06
4.27391140527672e-06
5.242994369944812e-06
5.577461040302822e-06
4.588547860378406e-06
3.568635943026338e-06
2.510292476283482e-06
1.3361608374555523e-06
-4.282965387208959e-08
-1.802049886723625e-06
-4.640888204213503e-06
-8.68187952812391e-06
-1.0888351064048188e-05
-8.681806182932877e-06
-4.640963033404957e-06
-1.8019512308085905e-06
-4.2828679438014494e-08
1.3362112027178602e-06
2.5103664927968866e-06
3.568644476221322e-06
4.588530926556006e-06
5.577499734852123e-06
5.690851555304605e-06
4.6959737425855685e-06
3.673622209644095e-06
2.6178623431516446e-06
1.46677597784306e-06
1.1945040881422564e-07
-1.5731319715633907e-06
-3.873973625339797e-06
-9.259511998064782e-06
-1.3293058073475875e-05
-9.259499498738555e-06
-3.873972430490022e-06
-1.5730335953170055e-06
1.1939228241469868e-07
1.4668179573497364e-06
2.6179194512337967e-06
3.673525233839972e-06
4.695951131632528e-06
5.6907247021464186e-06
5.57750144889943e-06
4.588563764815895e-06
3.5686771893833624e-06
2.510323112974583e-06
1.3361634369109254e-06
-4.279796557600524e-08
-1.8020701405448147e-06
-4.640911502783174e-06
-8.681755151750126e-06
-1.0888392888279766e-05
-8.681783999943057e-06
-4.640868006637253e-06
-1.8020143045943682e-06
-4.278738288156225e-08
1.3362444953798902e-06
2.510327531724671e-06
3.5685555472148023e-06
4.588555079640053e-06
5.577522200690341e-06
5.242975110904269e-06
4.2739899079359545e-06
3.2654708890730855e-06
2.1988390539705305e-06
9.912384863267065e-07
-4.737385128263799e-07
-2.4583765661657236e-06
-4.977633561364589e-06
-7.042565456088709e-06
-7.755176309883274e-06
-7.042643220557185e-06
-4.977531693940371e-06
-2.458391148218303e-06
-4.737225693957764e-07
9.912380258270126e-07
2.19876831204259e-06
3.265392557613711e-06
4.27388592211253e-06
5.242870374642938e-06
4.705184691939507e-06
3.775791401781914e-06
2.7960586703144885e-06
1.7398447740187006e-06
5.178238786235356e-07
-9.734108256595486e-07
-2.7154464849396542e-06
-4.307068680393239e-06
-5.3044522999694255e-06
-5.623751136589299e-06
-5.3043454310787354e-06
-4.307127504824676e-06
-2.715579037158855e-06
-9.73313722391414e-07
5.177516891842135e-07
1.7398804940411267e-06
2.796062095480889e-06
3.7757963818286708e-06
4.705080609739183e-06
3.996196539651775e-06
3.1356339771429487e-06
2.218379101887047e-06
1.216624953798845e-06
6.938686984009346e-08
-1.2012597241251727e-06
-2.4150556328945277e-06
-3.3352508176966167e-06
-3.86964001202611e-06
-4.041197142281433e-06
-3.86960766666708e-06
-3.3353637243563328e-06
-2.4150416666618435e-06
-1.2011965864954996e-06
6.933002630934298e-08
1.216707563335244e-06
2.2183566162261442e-06
3.1357445419285743e-06
3.995991551186337e-06
3.1665041228708113e-06
2.414135435481468e-06
1.6075673393220469e-06
7.356490511218478e-07
-2.003530292747635e-07
-1.1109694438276446e-06
-1.8704529959022442e-06
-2.4025548451458295e-06
-2.703556356746864e-06
-2.7990474153177097e-06
-2.7036878192041036e-06
-2.402457113534831e-06
-1.8703925522738432e-06
-1.1109854534500918e-06
-2.0032455755585737e-07
7.357804005410362e-07
1.6074821434933564e-06
2.4141669928024606e-06
3.1664705433340906e-06
2.2851106841401125e-06
1.6841080970261824e-06
1.044101364242045e-06
3.797973232629731e-07
-2.748204654887121e-07
-8.503351948685456e-07
-1.294888477425954e-06
-1.59373244127195e-06
-1.7593090734201178e-06
-1.8115330692979048e-06
-1.7593198611554062e-06
-1.5937426567930874e-06
-1.2950738877050977e-06
-8.502687864507183e-07
-2.7483026288598056e-07
3.796938333648983e-07
1.0441404991751863e-06
1.68406981900307e-06
2.2851885460978792e-06
1.4371778695489168e-06
1.0221135099582057e-06
5.886213634773152e-07
1.6246399040832638e-07
-2.269948707125935e-07
-5.465368705694085e-07
-7.812441870005266e-07
-9.338686760649445e-07
-1.0169147846190996e-06
-1.0430854101104586e-06
-1.0169589933859552e-06
-9.338534488704392e-07
-7.813215352724112e-07
-5.464841957951438e-07
-2.2712988106965426e-07
1.62477742931752e-07
5.886723195938116e-07
1.0219844167841212e-06
1.437256218283535e-06
7.172115316297911e-07
4.935887685762752e-07
2.654292746324949e-07
5.214497840466681e-08
-1.3166251994385647e-07
-2.7505257257226523e-07
-3.760275317146039e-07
-4.398164700093049e-07
-4.7383255206978614e-07
-4.844077423384052e-07
-4.738315709969243e-07
-4.398593914560836e-07
-3.7599258862104634e-07
-2.7500381396487056e-07
-1.317762343445994e-07
5.219955596068304e-08
2.653991735775997e-07
4.936239081728029e-07
7.171653194663549e-07
2.216505998950402e-07
1.487105268337119e-07
7.552167315821867e-08
9.73636653418819e-09
-4.448434066592344e-08
-8.50011830143358e-08
-1.1270204150243442e-07
-1.2968528403413393e-07
-1.3847716858438053e-07
-1.4126499139378856e-07
-1.3853149986517432e-07
-1.2965551517488128e-07
-1.1279636302763407e-07
-8.51260961798675e-08
-4.444757522367032e-08
9.731102349266885e-09
7.542467499047426e-08
1.4884948650408826e-07
2.2162158859289054e-07
-2.0944274979617372e-07
-6.996158243011141e-08
6.917405025175238e-08
2.086586290035719e-07
-5.03763592275136e-07
-1.6833883220712664e-07
1.6706474274819083e-07
5.024947626088017e-07
-9.23104527469909e-07
-3.084819117198101e-07
3.065764175684549e-07
9.211993146698849e-07
-1.407711172365933e-06
-4.7034630105274866e-07
4.6797014371935397e-07
1.4053336516994808e-06
-1.903049420708125e-06
-6.356988558262056e-07
6.331156185909737e-07
1.9004710094389088e-06
-2.363238134000384e-06
-7.894546686058879e-07
7.862453292491189e-07
2.3600292088366004e-06
-2.752238334305379e-06
-9.193321456740788e-07
9.158638034252597e-07
2.74877510970592e-06
-3.0454850549962997e-06
-1.0173487959633243e-06
1.013347497844097e-06
3.0414877160364617e-06
-3.2270099574287225e-06
-1.0779637831699607e-06
1.0738054622531912e-06
3.2228546560097993e-06
-3.2883050449065976e-06
-1.0984652126892758e-06
1.0941516404572305e-06
3.2839920626713537e-06
-3.226994691730295e-06
-1.0779330205136495e-06
1.0738524072670397e-06
3.222918528927171e-06
-3.045503599401894e-06
-1.0173623782062935e-06
1.0133373464990547e-06
3.041479694831234e-06
-2.7522232720761375e-06
-9.193284167784144e-07
9.158572239938156e-07
2.748759133103934e-06
-2.363304000971983e-06
-7.895401643552569e-07
7.861385313695513e-07
2.3598991040207906e-06
-1.9031224406940161e-06
-6.357420732489016e-07
6.331018459308779e-07
1.9004866494420902e-06
-1.4079414645193356e-06
-4.705317706750478e-07
4.678271663810518e-07
1.405231482551339e-06
-9.231726316241695e-07
-3.085647822531623e-07
3.064789166513926e-07
9.210873279687226e-07
-5.040376039183725e-07
-1.6857719149776518e-07
1.6685861159090876e-07
5.02317531476254e-07
-2.094513466902037e-07
-6.999866138807098e-08
6.910812798757715e-08
2.0856303318064762e-07
-5.8248114030018394e-08
-1.9346422401589347e-08
1.9220715966744573e-08
5.8121593385362935e-08
-4.2947657010600215e-08
-1.4243122171270217e-08
1.4208331195614265e-08
4.291388342944624e-08
-2.929017262412459e-08
-9.698241338479408e-09
9.714555108258915e-09
2.930788213853508e-08
-1.6643800251209262e-08
-5.519051177876877e-09
5.497633315601491e-09
1.6621984214384988e-08
-5.527992504722468e-09
-1.8548199018364464e-09
1.7779526982619753e-09
5.451434840000879e-09
3.6638181859054153e-09
1.1532026167326848e-09
-1.3409488658355784e-09
-3.854957268331627e-09
1.085529498581761e-08
3.568053000627125e-09
-3.6545188732833855e-09
-1.0944027633782993e-08
1.6008276088400053e-08
5.344857880937304e-09
-5.217261244555571e-09
-1.5879402183796576e-08
1.9002192121891914e-08
6.370346085707301e-09
-6.1388761834341166e-09
-1.876874530098993e-08
1.995386639079555e-08
6.655902681437786e-09
-6.513365832794271e-09
-1.9811794522636705e-08
1.891279842285154e-08
6.2585766014144895e-09
-6.274363315364462e-09
-1.8929900221995033e-08
1.6040184763754795e-08
5.356760294020213e-09
-5.224896805142154e-09
-1.59064217717525e-08
1.10020059061397e-08
3.66857920257313e-09
-3.598579528113488e-09
-1.0931695525358276e-08
3.741546013118213e-09
1.2266543249900286e-09
-1.2706133688603072e-09
-3.786660152972632e-09
-5.553795000279305e-09
-1.879216155950547e-09
1.753649246649669e-09
5.426028642022129e-09
-1.671706047765356e-08
-5.585707327226963e-09
5.436237383860121e-09
1.6564541955969847e-08
-2.9336633993598538e-08
-9.768904543367568e-09
9.618331114642081e-09
2.9184506351084133e-08
-4.310088874844541e-08
-1.4358499747469874e-08
1.4128725107399875e-08
4.2868495430965076e-08
-5.824851059626178e-08
-1.9332524791313213e-08
1.9249560575303887e-08
5.816600229138595e-08
-2.0952634867795134e-07
-7.002889627655707e-08
6.912180428410904e-08
2.0862035796581158e-07
-5.038661801389042e-07
-1.684335057513045e-07
1.669758682395269e-07
5.02409490295069e-07
-9.231699100147733e-07
-3.085384088384255e-07
3.065278243994697e-07
9.211579332616023e-07
-1.4077391005179116e-06
-4.7031705130125626e-07
4.680577863564253e-07
1.4054817179935154e-06
-1.9031035268382915e-06
-6.357088293430097e-07
6.331492386525694e-07
1.9005480248399098e-06
-2.3630510807151964e-06
-7.892692442104318e-07
7.864321463811955e-07
2.3602201129867273e-06
-2.751991999411056e-06
-9.191135606273146e-07
9.160582146181331e-07
2.7489486976849803e-06
-3.0454314571522548e-06
-1.0172659688501007e-06
1.0134595627344506e-06
3.0416292512705154e-06
-3.226865223989947e-06
-1.077845031392452e-06
1.0739007470081038e-06
3.2229287778807666e-06
-3.288293975469564e-06
-1.098428326693282e-06
1.094215179058694e-06
3.2840832151666277e-06
-3.226951615996343e-06
-1.0779441482651475e-06
1.073786386909456e-06
3.2227965229957717e-06
-3.045303049278511e-06
-1.0171634428277065e-06
1.0135387735806661e-06
3.0416877150954424e-06
-2.752244572261711e-06
-9.193353259790565e-07
9.158633935881649e-07
2.7487773272775323e-06
-2.3632622737617542e-06
-7.894636121896087e-07
7.862509860667981e-07
2.360048978754291e-06
-1.903099508137121e-06
-6.357054900107267e-07
6.331524413736439e-07
1.9005519966818624e-06
-1.4078855914076427e-06
-4.704709098846821e-07
4.678936930176819e-07
1.405304225808937e-06
-9.231375499470229e-07
-3.085245433541439e-07
3.065250797160829e-07
9.211400308021395e-07
-5.039166236509018e-07
-1.6844915562419516e-07
1.669954936625584e-07
5.024652609715574e-07
-2.0952261958057106e-07
-7.003342000766466e-08
6.91084337776926e-08
2.0859765017394727e-07
-5.8151893682356626e-08
-1.9232930824342187e-08
1.9352737506278528e-08
5.827359421048395e-08
-4.292996953758621e-08
-1.4187250700625764e-08
1.4302502352597779e-08
4.3046607865054876e-08
-2.9138684853879937e-08
-9.571479629710833e-09
9.818077618267695e-09
2.9389443729349596e-08
-1.6445183884800096e-08
-5.317089931539121e-09
5.705955350571168e-09
1.683972823338098e-08
-5.362249772683514e-09
-1.7004843158585636e-09
1.921418406325426e-09
5.584398457547657e-09
3.909057296608287e-09
1.367005130620269e-09
-1.1555894227632812e-09
-3.6953435381126276e-09
1.1014623369637322e-08
3.6852075141480256e-09
-3.5783619470319827e-09
-1.0908274655080374e-08
1.6131687669701522e-08
5.416247349926406e-09
-5.197410602592045e-09
-1.591117705299072e-08
1.9002732810913248e-08
6.343607965308973e-09
-6.193236985752026e-09
-1.8851484123727502e-08
1.9950466688400947e-08
6.677796145909687e-09
-6.464579867943021e-09
-1.973398481083799e-08
1.8987878630527533e-08
6.324557131481834e-09
-6.215952075977471e-09
-1.8877344871298662e-08
1.594874460622564e-08
5.290632765220238e-09
-5.266737615472472e-09
-1.592471153902264e-08
1.0973723204438235e-08
3.6539095291110435e-09
-3.5990546237707477e-09
-1.0917140372268541e-08
3.779228336525664e-09
1.2697013301865567e-09
-1.2215706397811221e-09
-3.730845819782669e-09
-5.444345793637062e-09
-1.7847606760545975e-09
1.8344434409012234e-09
5.494437755465542e-09
-1.644523284910493e-08
-5.351459445718243e-09
5.6370536329064524e-09
1.6735690205188503e-08
-2.9370721577048897e-08
-9.768313345703827e-09
9.653124754399611e-09
2.925318381627462e-08
-4.3066836926536345e-08
-1.4353298022351524e-08
1.4104722015351179e-08
4.2814301423610424e-08
-5.820635442729816e-08
-1.929529028915633e-08
1.9282606116000078e-08
5.819572443388488e-08
-1.329534050700798e-07
-4.44812127929628e-08
4.364232271056312e-08
1.321159092612656e-07
-8.915049235294625e-08
-2.980252299805697e-08
2.9260360755872794e-08
8.861050360131628e-08
-4.514145763093169e-08
-1.5101205605438928e-08
1.4731695075625995e-08
4.477473650177366e-08
-5.837835877903208e-09
-2.0093641902273196e-09
1.6941757580157812e-09
5.521354335541462e-09
2.6676578009088292e-08
8.906312822659634e-09
-8.897684852793297e-09
-2.6664156542455242e-08
5.1033330419197886e-08
1.7021770843533846e-08
-1.694406574423435e-08
-5.096030254725381e-08
6.781933185526223e-08
2.2736864793704292e-08
-2.2222663518395303e-08
-6.729906599015067e-08
7.799391346999252e-08
2.6153161615527498e-08
-2.5514126967413064e-08
-7.735498691249787e-08
8.341826323796098e-08
2.805862179405816e-08
-2.7089635350890928e-08
-8.243939785337884e-08
8.505198698799399e-08
2.85907265883123e-08
-2.765219807646102e-08
-8.411234081462382e-08
8.333214628411523e-08
2.7995429377480896e-08
-2.713599972503644e-08
-8.247486511445135e-08
7.793550650669889e-08
2.6109132005708302e-08
-2.554673317681222e-08
-7.737905043450621e-08
6.776639309424848e-08
2.27076001960147e-08
-2.223221547484333e-08
-6.729257294099678e-08
5.108983012688806e-08
1.7065968443974455e-08
-1.6912342328673224e-08
-5.0941977948470996e-08
2.665107771276931e-08
8.848162993957409e-09
-8.993705565008003e-09
-2.6804068711111517e-08
-5.863154080298916e-09
-2.0217040402892295e-09
1.6916943575140397e-09
5.52568067690995e-09
-4.5195289784943915e-08
-1.514013484721355e-08
1.4704670852488944e-08
4.475678751225676e-08
-8.919015305475231e-08
-2.9859377959767786e-08
2.9183213491601467e-08
8.850970984602968e-08
-1.3296858311986903e-07
-4.446715404921031e-08
4.3685820710903656e-08
1.3218977855042335e-07
-4.312784138670034e-07
-1.4420383380106538e-07
1.4278906578998884e-07
4.298646146191909e-07
-2.9683492971943615e-07
-9.929403405051218e-08
9.809710116090442e-08
2.956375897526786e-07
-1.5967431935687282e-07
-5.3486602095281777e-08
5.25452156611983e-08
1.587336513654558e-07
-3.14789989248887e-08
-1.0617192805484343e-08
1.0104676460148676e-08
3.096943847896716e-08
7.909772437725282e-08
2.6343195552031018e-08
-2.6505053790648603e-08
-7.925680003961766e-08
1.6531299508459885e-07
5.5225650132800785e-08
-5.489426460267288e-08
-1.6498030525752272e-07
2.262214047372979e-07
7.566097328173815e-08
-7.486608986223553e-08
-2.2542730502075892e-07
2.647502209060515e-07
8.864943685030213e-08
-8.73589220927451e-08
-2.634583476691932e-07
2.8532580899354176e-07
9.560327362059806e-08
-9.398985305678065e-08
-2.837141980724378e-07
2.9177795477647317e-07
9.779214334842967e-08
-9.605270790205567e-08
-2.900447371202708e-07
2.853560250419551e-07
9.56468547141931e-08
-9.39320564594115e-08
-2.836409331852252e-07
2.6480235863074464e-07
8.868144354967633e-08
-8.734709276312855e-08
-2.634673295070361e-07
2.2622763225579878e-07
7.566071089787352e-08
-7.487320671448194e-08
-2.2544194817897267e-07
1.6533674709884316e-07
5.5234993433239676e-08
-5.489963836660672e-08
-1.6500086261889146e-07
7.910436418054334e-08
2.6347580523583547e-08
-2.6503167032537744e-08
-7.925795817223524e-08
-3.143888778131543e-08
-1.0606990841210973e-08
1.0083494539347981e-08
3.0914863398401327e-08
-1.5965198899015043e-07
-5.3459884654522005e-08
5.2574759580592545e-08
1.5876450368268458e-07
-2.9678690714393663e-07
-9.925054164985903e-08
9.813767094107861e-08
2.956767994402587e-07
-4.3134351574575236e-07
-1.4424418241440473e-07
1.4277297877979267e-07
4.2987294746749116e-07
-8.644822151668285e-07
-2.889041759920885e-07
2.869657450207952e-07
8.62541554458307e-07
-6.146824398992057e-07
-2.054783455711362e-07
2.037884690789249e-07
6.129939766584547e-07
-3.541580395720334e-07
-1.1847459823952078e-07
1.1715773877429836e-07
3.528441846339936e-07
-9.796106562043327e-08
-3.292686353434382e-08
3.196361065410658e-08
9.699569084378745e-08
1.362128619931957e-07
4.5320676069632304e-08
-4.574951446845166e-08
-1.3664369998001025e-07
3.2848468712112777e-07
1.0964977026350908e-07
-1.093511657578039e-07
-3.2818510658019773e-07
4.6990850404576845e-07
1.570323564792364e-07
-1.5596733083170222e-07
-4.6884636146701797e-07
5.620069023874741e-07
1.879977894574114e-07
-1.8607967310069196e-07
-5.600889491814975e-07
6.122894939293577e-07
2.049472594030377e-07
-2.0242289528252244e-07
-6.097686202841124e-07
6.28112957316157e-07
2.1033314590718222e-07
-2.0745711676317669e-07
-6.252363558244267e-07
6.122823583143422e-07
2.049779098817206e-07
-2.023531164019321e-07
-6.096577536210401e-07
5.620622730850844e-07
1.8804457580304246e-07
-1.8604040819686363e-07
-5.60056458008551e-07
4.6989547457243486e-07
1.5701593387637547e-07
-1.559874664922023e-07
-4.6887069812470705e-07
3.284537967995771e-07
1.0964433139887264e-07
-1.0933173550872755e-07
-3.2814095433930657e-07
1.363223203591779e-07
4.538532815193119e-08
-4.5727601410278096e-08
-1.3666334746503805e-07
-9.79801881156872e-08
-3.2930151987187184e-08
3.1978188989173484e-08
9.703035879285449e-08
-3.5417414022756444e-07
-1.185047056248556e-07
1.1711186036905685e-07
3.527805695069386e-07
-6.147144434899554e-07
-2.0549935705362066e-07
2.0377522115880287e-07
6.129857492258306e-07
-8.643951911642411e-07
-2.888600921305273e-07
2.8696963852263557e-07
8.625075302703261e-07
-1.374427530932698e-06
-4.5919049421888625e-07
4.5676302571490135e-07
1.3719951945136144e-06
-1.0128972816186854e-06
-3.384846626558295e-07
3.362592643878226e-07
1.0106716354825462e-06
-6.282313520650229e-07
-2.1008791400295435e-07
2.0817414254220568e-07
6.263173608078709e-07
-2.2888464177792112e-07
-7.677600055711054e-08
7.524173060644013e-08
2.2734865275098048e-07
1.6480360609180678e-07
5.476003221704939e-08
-5.552549172185839e-08
-1.65565053857758e-07
5.109430631644596e-07
1.70472974691388e-07
-1.7032386212534334e-07
-5.107907803045264e-07
7.787138480153111e-07
2.601269131971562e-07
-2.5879602224415654e-07
-7.773848223063817e-07
9.58998694580715e-07
3.2067470738528225e-07
-3.179450776963355e-07
-9.562648473140922e-07
1.0591170021903573e-06
3.5439423735211806e-07
-3.5058264088311253e-07
-1.0553023715061116e-06
1.0908182712515702e-06
3.6511583965948e-07
-3.6082547498830775e-07
-1.0865293934361753e-06
1.059089844334532e-06
3.5435507712844316e-07
-3.506384972130905e-07
-1.0553800434132121e-06
9.589084126598868e-07
3.205957838786633e-07
-3.1801800991215767e-07
-9.563374172710803e-07
7.787245658447128e-07
2.6012675538589214e-07
-2.5880877914039035e-07
-7.774122237000358e-07
5.10926680533097e-07
1.7045524492755038e-07
-1.7034541614432963e-07
-5.10818655223913e-07
1.6476407072550658e-07
5.4741781612896445e-08
-5.552465789752936e-08
-1.65546852079132e-07
-2.2893101958576523e-07
-7.678821076911868e-08
7.526388630732517e-08
2.2740591731733317e-07
-6.282481905279386e-07
-2.1008226072476155e-07
2.082039294512561e-07
6.263733910768371e-07
-1.0128863273187183e-06
-3.384792034814843e-07
3.3625899774000767e-07
1.0106654753493788e-06
-1.3743787544949482e-06
-4.591523948358628e-07
4.567923125742973e-07
1.3720173905572286e-06
-1.9044650380536932e-06
-6.361416963994448e-07
6.333264964374086e-07
1.9016547332488531e-06
-1.4520132889245252e-06
-4.851774222693062e-07
4.822875822700634e-07
1.449125016480396e-06
-9.673173225824283e-07
-3.2343261116909994e-07
3.20807414612434e-07
9.646938555034346e-07
-4.433275349498278e-07
-1.48544053033689e-07
1.462962931318701e-07
4.410797037335268e-07
1.1937073813098054e-07
3.933491438123937e-08
-4.0940115998699955e-08
-1.2097854642026395e-07
6.672979210135821e-07
2.2247987116127965e-07
-2.2282399939066444e-07
-6.676428054193384e-07
1.124474040211515e-06
3.7547188606879e-07
-3.7413175075010074e-07
-1.1231362589056437e-06
1.4456449360551737e-06
4.83315777490001e-07
-4.796176970162103e-07
-1.4419455376113444e-06
1.6279325731893834e-06
5.447526724468299e-07
-5.389938834664265e-07
-1.6221713975035634e-06
1.6857325727120953e-06
5.642626112710436e-07
-5.577499390839111e-07
-1.6792110732791708e-06
1.6278948621051281e-06
5.447342605255368e-07
-5.389950801203136e-07
-1.622157243003075e-06
1.4455980150186731e-06
4.832889949919067e-07
-4.796262236851645e-07
-1.4419374807783658e-06
1.1244537495708196e-06
3.754472077711901e-07
-3.7416137070242494e-07
-1.1231715112032525e-06
6.672636780457458e-07
2.2247655087799523e-07
-2.2279694693837226e-07
-6.675856072599351e-07
1.1950542476608927e-07
3.942671190221292e-08
-4.088853349307198e-08
-1.2096513991866065e-07
-4.4338515790484645e-07
-1.4859338223413565e-07
1.462522114786119e-07
4.4103768979605884e-07
-9.67275281722052e-07
-3.2339137374590154e-07
3.208496336670752e-07
9.647388672737872e-07
-1.4519599508093506e-06
-4.851515990143135e-07
4.822862386885673e-07
1.4490962885853331e-06
-1.9045469985649877e-06
-6.362160713101889e-07
6.332568135165167e-07
1.9015871454697297e-06
-2.4034664576691456e-06
-8.028216450135794e-07
7.993464705459419e-07
2.399991597006046e-06
-1.8860860079850106e-06
-6.301958496365834e-07
6.266104346439039e-07
1.8825022046232986e-06
-1.3350634579696596e-06
-4.464005309637309e-07
4.4287935585182736e-07
1.3315408034890452e-06
-7.332301582736733e-07
-2.4558851225223166e-07
2.4235311090262113e-07
7.299950418870882e-07
-4.356737821550882e-08
-1.53781067151193e-08
1.2737238114929328e-08
4.0923723521046895e-08
7.205935015387743e-07
2.398849274741488e-07
-2.413617693000636e-07
-7.220697367214812e-07
1.4515986068823483e-06
4.844936634072761e-07
-4.83512318794066e-07
-1.4506234652829353e-06
2.0065563536356135e-06
6.705951379956665e-07
-6.663834216276421e-07
-2.002346534607513e-06
2.3305754401625745e-06
7.800466391774674e-07
-7.714765042042548e-07
-2.3220013668084905e-06
2.4358041294664234e-06
8.160679458475706e-07
-8.046457705308818e-07
-2.4243859891304176e-06
2.3306022103736224e-06
7.800457613137135e-07
-7.715055491928913e-07
-2.322059969788598e-06
2.0066596816848553e-06
6.706434556857932e-07
-6.6638884984975e-07
-2.002405958366829e-06
1.4516078723162545e-06
4.845002108538887e-07
-4.835073421464997e-07
-1.4506192261183604e-06
7.205711247369739e-07
2.39857435071697e-07
-2.4139508536871745e-07
-7.221097787640796e-07
-4.35688483554908e-08
-1.5379164318776728e-08
1.2736400456861419e-08
4.092272215712456e-08
-7.332256044979141e-07
-2.4561762933424103e-07
2.422877887070518e-07
7.298901257193208e-07
-1.3350978079734038e-06
-4.4640062142956016e-07
4.4291185887467e-07
1.3316050113450911e-06
-1.8861245136368027e-06
-6.302120570400582e-07
6.266153798357293e-07
1.8825278296635828e-06
-2.403497475707327e-06
-8.02840415698022e-07
7.993401375302328e-07
2.3999984552457165e-06
-2.82983229545411e-06
-9.451904162474656e-07
9.41288531834672e-07
2.8259383206413746e-06
-2.271280161333239e-06
-7.589452885592429e-07
7.545504160620664e-07
2.26688679218906e-06
-1.6828774482904874e-06
-5.62720232667735e-07
5.582999796013843e-07
1.678463915553291e-06
-1.0487334645252477e-06
-3.5128989059676763e-07
3.467217778579945e-07
1.0441668139848925e-06
-3.1471813907030244e-07
-1.0647413924841365e-07
1.020198936510508e-07
3.102623412284955e-07
5.821026732716339e-07
1.9309142867268703e-07
-1.9621666814267913e-07
-5.852323588621811e-07
1.6298774451299625e-06
5.42995061230539e-07
-5.449510789637402e-07
-1.6318376714272165e-06
2.5921639023249177e-06
8.665887785176685e-07
-8.605627102517555e-07
-2.586143323799611e-06
3.1977193448769897e-06
1.0713822093371544e-06
-1.0565932406763484e-06
-3.1829336511711437e-06
3.390044872150083e-06
1.135790579479684e-06
-1.1200591192132847e-06
-3.3742992458507537e-06
3.1978125721813383e-06
1.0714266991691118e-06
-1.0565954393845778e-06
-3.1829817828139123e-06
2.5921523002549185e-06
8.665634892643381e-07
-8.60604489111641e-07
-2.5862052236737265e-06
1.6299495674988035e-06
5.430330794527899e-07
-5.449465928161756e-07
-1.6318671632493953e-06
5.821719234050393e-07
1.9314543836176923e-07
-1.9617534101346035e-07
-5.852013910418591e-07
-3.1477420633224673e-07
-1.0650699091077631e-07
1.0200945375904436e-07
3.1027387357128455e-07
-1.0487366006069199e-06
-3.5129649726510503e-07
3.4671334744017235e-07
1.0441580747255763e-06
-1.6829829344328778e-06
-5.627947556700874e-07
5.582526052295977e-07
1.678440615021648e-06
-2.271186335393166e-06
-7.588637209472032e-07
7.546223946153924e-07
2.2669519777439306e-06
-2.829812608511062e-06
-9.451737672267618e-07
9.413032521898151e-07
2.825952410582394e-06
-3.1533530285253464e-06
-1.0532506122921947e-06
1.0489173446238953e-06
3.1490328334417284e-06
-2.5710386392374662e-06
-8.591151671386021e-07
8.541552519204798e-07
2.5660864069118605e-06
-1.96584941837899e-06
-6.575242453392416e-07
6.5184738238383e-07
1.96016986302866e-06
-1.325924604538703e-06
-4.4435221216096443e-07
4.3800585762185373e-07
1.3195745815694493e-06
-6.014779916491131e-07
-2.030176009353013e-07
1.9600630419419618e-07
5.944670187496559e-07
2.7760462832995825e-07
8.988681101870788e-08
-9.760386568413715e-08
-2.8532161353012064e-07
1.4742015942634246e-06
4.90762551579732e-07
-4.932985415255497e-07
-1.4767479477248435e-06
2.986555477939648e-06
9.944911459527223e-07
-9.995986488858973e-07
-2.991649804095012e-06
4.246634119310297e-06
1.422962933993882e-06
-1.4034582119046984e-06
-4.227123845134545e-06
4.700451712889159e-06
1.5852155806177215e-06
-1.5327231478925313e-06
-4.647979745702954e-06
4.246702662275004e-06
1.4230133689608487e-06
-1.4034234320711714e-06
-4.227102568846522e-06
2.9864582114756677e-06
9.944403242343608e-07
-9.996059644520189e-07
-2.9916158959461536e-06
1.4741921479984738e-06
4.907493828965742e-07
-4.933172131731112e-07
-1.4767739696247562e-06
2.776888634870023e-07
8.994236810194733e-08
-9.757690878388348e-08
-2.853236722825947e-07
-6.014606873175343e-07
-2.0300066183934207e-07
1.960239742731379e-07
5.944864703809338e-07
-1.3258844015814203e-06
-4.44338505914757e-07
4.379960185079551e-07
1.3195438489429362e-06
-1.965779300134446e-06
-6.574502608106686e-07
6.519289308098281e-07
1.9602629927461396e-06
-2.5710925107193944e-06
-8.591741151881688e-07
8.540880056147337e-07
2.5660074214131634e-06
-3.1534102792052376e-06
-1.0532917258023605e-06
1.0488899380989292e-06
3.149016855042569e-06
-3.354726561249216e-06
-1.1205876341152665e-06
1.1157453902489733e-06
3.3498830850249572e-06
-2.760550500528064e-06
-9.225500848045187e-07
9.169040644137205e-07
2.754901767137302e-06
-2.1485969781721848e-06
-7.187135510761111e-07
7.123350162022146e-07
2.1422219030134415e-06
-1.5142541718270175e-06
-5.076562429699727e-07
4.998729268256008e-07
1.5064723520447076e-06
-8.112034795386414e-07
-2.739873627040368e-07
2.6400122094330514e-07
8.012258653038173e-07
1.414086940251802e-08
1.9092256595132362e-10
-1.3179963172932352e-08
-2.7135338247219476e-08
1.0630075927484106e-06
3.468917379942371e-07
-3.6886075813549746e-07
-1.0849458079477403e-06
2.7931450142550107e-06
9.34135015420029e-07
-9.260989087336857e-07
-2.7852160708972257e-06
5.251755506512773e-06
1.7663260242582052e-06
-1.7232649103995218e-06
-5.208740160304176e-06
6.577376982027858e-06
2.207944245694385e-06
-2.16710905462901e-06
-6.536331556481617e-06
5.251760990285931e-06
1.7663466752946416e-06
-1.723228107807298e-06
-5.208685865992074e-06
2.793204019871376e-06
9.34159268417209e-07
-9.261083418771882e-07
-2.7852584442607242e-06
1.0629492867893914e-06
3.46874930022556e-07
-3.6883819410846175e-07
-1.0848850660362397e-06
1.4052137757222805e-08
1.311423660638189e-10
-1.3215374641828426e-08
-2.715065203738598e-08
-8.112260949117572e-07
-2.739905729277903e-07
2.640163988092137e-07
8.012587636805485e-07
-1.5143164369870593e-06
-5.076832246611596e-07
4.998798771530671e-07
1.506512736773255e-06
-2.148695988141028e-06
-7.187823873654273e-07
7.122937625558823e-07
2.142206270198954e-06
-2.76049098682854e-06
-9.225120766419292e-07
9.169224226713429e-07
2.7549019369528527e-06
-3.35464596892647e-06
-1.1205226758907033e-06
1.1157984578184094e-06
3.3499276323196298e-06
-3.422843192185665e-06
-1.143307284699746e-06
1.1384696237230763e-06
3.4180074193305987e-06
-2.8251546921737036e-06
-9.441343553941162e-07
9.383816777751297e-07
2.8194078222423813e-06
-2.2119500917780477e-06
-7.399634248880793e-07
7.332275801900934e-07
2.2052187799749545e-06
-1.5794982857579576e-06
-5.296772016688545e-07
5.211243039628111e-07
1.5709516883212482e-06
-8.904210181785721e-07
-3.006851719139503e-07
2.898774043302854e-07
8.795870699608577e-07
-8.893810551913184e-08
-3.653511757364947e-08
1.6644261555814888e-08
6.912663919056428e-08
9.283469214454304e-07
3.03336017878561e-07
-3.2132802937900884e-07
-9.465265482129503e-07
2.192053492975493e-06
6.756152940660259e-07
-8.398257128512665e-07
-2.3558419271693665e-06
5.597238958350917e-06
1.8807134237689566e-06
-1.8400778376975735e-06
-5.556383760823777e-06
8.315524334620919e-06
2.909123820935e-06
-2.5079421773644556e-06
-7.915376504390864e-06
5.597090932256063e-06
1.88061395763571e-06
-1.840134900810489e-06
-5.5564037843396086e-06
2.1920735635873323e-06
6.75631103796287e-07
-8.398144207746178e-07
-2.355835472389947e-06
9.282778652228846e-07
3.033092005663013e-07
-3.2131361503602573e-07
-9.464707696818508e-07
-8.889999209872601e-08
-3.652268475845544e-08
1.6632056764817604e-08
6.909091929303834e-08
-8.903887979416769e-07
-3.0065361346712227e-07
2.8991024272548294e-07
8.796232996589187e-07
-1.5794857208453056e-06
-5.296542414413852e-07
5.211580629705531e-07
1.5709967297831279e-06
-2.2119138469254424e-06
-7.399563060270231e-07
7.332032461032645e-07
2.2051600089747353e-06
-2.825202722992609e-06
-9.441723819430398e-07
9.383513224544421e-07
2.8193825963133967e-06
-3.422801529618172e-06
-1.143308666204032e-06
1.1384262252576993e-06
3.4179224384332796e-06
-3.3547079267108593e-06
-1.1205673739675404e-06
1.1157696134141137e-06
3.349913934299481e-06
-2.7605115283761694e-06
-9.225197757367631e-07
9.169277023109157e-07
2.7549206556669315e-06
-2.148634739154026e-06
-7.18733442768571e-07
7.123340206964535e-07
2.142241209337342e-06
-1.5142736092405018e-06
-5.076627601664774e-07
4.998787039821317e-07
1.5064903475178748e-06
-8.112032713371298e-07
-2.7398145735144097e-07
2.6400931602693634e-07
8.01232772983107e-07
1.4054901607135628e-08
1.3985538248328933e-10
-1.3200063647168803e-08
-2.712802366034925e-08
1.0630084672988427e-06
3.4688966312444725e-07
-3.6886723286597145e-07
-1.084958305154135e-06
2.793169104854318e-06
9.341455632812246e-07
-9.261005668604466e-07
-2.7852288983134382e-06
5.251776889533127e-06
1.766368776013466e-06
-1.7231981488553122e-06
-5.208646267523473e-06
6.5773848804580315e-06
2.2079378036582442e-06
-2.1671285967070353e-06
-6.536362920618599e-06
5.251770173219858e-06
1.7663587517733476e-06
-1.7232131032853676e-06
-5.20866758035865e-06
2.7931564719526486e-06
9.34146950905615e-07
-9.260853530944357e-07
-2.7851997466115525e-06
1.062977410941704e-06
3.4688001718415074e-07
-3.6885561586173787e-07
-1.0849250325177529e-06
1.409747332412059e-08
1.7394389748015548e-10
-1.317433293360204e-08
-2.7110204322763898e-08
-8.112248020154117e-07
-2.7398171860947007e-07
2.640327611269644e-07
8.012831218349309e-07
-1.5143192819006002e-06
-5.076961197073016e-07
4.998577105234242e-07
1.506481931225906e-06
-2.1486451397632195e-06
-7.187653487360224e-07
7.1227700070009e-07
2.1421545352822563e-06
-2.760490190304235e-06
-9.225017855215428e-07
9.169400201122085e-07
2.7549242643983007e-06
-3.3547100873661945e-06
-1.1205627886614472e-06
1.1157804056648873e-06
3.349930242200691e-06
-3.1534536478368402e-06
-1.053325352308454e-06
1.0488632463043213e-06
3.1489947605843616e-06
-2.5710624687660943e-06
-8.591344650768495e-07
8.541385868865436e-07
2.566070823901284e-06
-1.965853024626235e-06
-6.575014536817914e-07
6.518973281917362e-07
1.9602483961253525e-06
-1.3258923782684395e-06
-4.443193040923332e-07
4.380418250661544e-07
1.3196163649309423e-06
-6.014549671744251e-07
-2.03000121067054e-07
1.9601679118047555e-07
5.944692190312795e-07
2.776294729302936e-07
8.990217860785354e-08
-9.75994473191577e-08
-2.8532966898572876e-07
1.4742318299679896e-06
4.907801814061502e-07
-4.932927330277698e-07
-1.4767534050399989e-06
2.986500975360115e-06
9.94450574472519e-07
-9.996262081493623e-07
-2.9916651390505394e-06
4.2466393902935995e-06
1.4229637114483717e-06
-1.4034603466345913e-06
-4.22712729053476e-06
4.700419311474274e-06
1.5851965933042639e-06
-1.532729703218258e-06
-4.647974540456998e-06
4.246655397274063e-06
1.422959655796724e-06
-1.4034866151809572e-06
-4.227178096524384e-06
2.9865142027012126e-06
9.944845019930343e-07
-9.995708619200266e-07
-2.9915872508928104e-06
1.474264968711475e-06
4.908028778203427e-07
-4.932813977166078e-07
-1.4767544543239225e-06
2.7761955898909785e-07
8.989844648560341e-08
-9.759694133935903e-08
-2.853206590141405e-07
-6.015073631983597e-07
-2.0304050347020458e-07
1.959889884307897e-07
5.944546726983913e-07
-1.3258670778851234e-06
-4.443194980170706e-07
4.380175082198748e-07
1.3195687581773335e-06
-1.9657579733416836e-06
-6.574521015326878e-07
6.51903513447169e-07
1.960212482966621e-06
-2.5709963838169494e-06
-8.591096021083947e-07
8.541223197322534e-07
2.5660120676340714e-06
-3.1533843393265204e-06
-1.0532976026959504e-06
1.0488488572605453e-06
3.1489365635486294e-06
-2.829876485668098e-06
-9.452046739223674e-07
9.413031354585377e-07
2.825981232131708e-06
-2.2711878044194556e-06
-7.588696474547518e-07
7.546111093527375e-07
2.2669343222522786e-06
-1.6829900604878323e-06
-5.627991324676229e-07
5.582497118322705e-07
1.6784379776382807e-06
-1.048759844846786e-06
-3.51325358780713e-07
3.46675725744483e-07
1.044108559462159e-06
-3.1473861074847453e-07
-1.0647471756879134e-07
1.0204063144794717e-07
3.103061628206838e-07
5.821248038589272e-07
1.930987692053826e-07
-1.9622441230562893e-07
-5.852557357233917e-07
1.6299177629606337e-06
5.430488833318287e-07
-5.448810026370543e-07
-1.6317484595185228e-06
2.5921803344011035e-06
8.665914524880886e-07
-8.60574221255711e-07
-2.586169717768219e-06
3.1978101279143273e-06
1.0714285183580086e-06
-1.0565877672195911e-06
-3.182966557557093e-06
3.3901016829613467e-06
1.1358295947221098e-06
-1.120037089297199e-06
-3.3742938521409693e-06
3.1977235438636342e-06
1.0713944274126641e-06
-1.056572784758139e-06
-3.182904879812584e-06
2.5921498438604557e-06
8.665579499314569e-07
-8.606133052885961e-07
-2.5862171681659968e-06
1.6299324205985843e-06
5.430302744517668e-07
-5.449347058490706e-07
-1.6318399438611936e-06
5.82118585237823e-07
1.9311459107350382e-07
-1.961842650988893e-07
-5.851885673015256e-07
-3.1476217469180584e-07
-1.065073256959273e-07
1.0199686373887212e-07
3.1024918194233475e-07
-1.0487854134278926e-06
-3.513351461191874e-07
3.4668126890936846e-07
1.0441291800940972e-06
-1.682952266227923e-06
-5.627733524662254e-07
5.58266098328597e-07
1.6784470929301354e-06
-2.2711856103585504e-06
-7.588692423491153e-07
7.546116189381669e-07
2.266936524677153e-06
-2.829839058493891e-06
-9.452012512999389e-07
9.412723216721194e-07
2.825914965021853e-06
-2.4034744007146724e-06
-8.02800495938033e-07
7.993969275005286e-07
2.4000721602530917e-06
-1.886100166437199e-06
-6.302122948810551e-07
6.265913754799346e-07
1.8824805915161613e-06
-1.3351139110592825e-06
-4.464312567779849e-07
4.42867158376159e-07
1.331546193965305e-06
-7.332446116253832e-07
-2.456230402680948e-07
2.422956857815392e-07
7.299109063573818e-07
-4.3497949818449566e-08
-1.531569799977095e-08
1.2796292787539687e-08
4.098281522653402e-08
7.205732929244785e-07
2.39851459634538e-07
-2.414109177995699e-07
-7.22137327126976e-07
1.4516280295844702e-06
4.845137817517664e-07
-4.834999474834928e-07
-1.4506175700298996e-06
2.0066074973897757e-06
6.706360448065912e-07
-6.663504236933959e-07
-2.0023196314559316e-06
2.3305465784474733e-06
7.800047649216685e-07
-7.715334532001211e-07
-2.3220759107853844e-06
2.435834100037587e-06
8.160927063328993e-07
-8.046254879375686e-07
-2.424369483436037e-06
2.3305814809779918e-06
7.800391829473896e-07
-7.714996154584847e-07
-2.322042780800518e-06
2.006624729889925e-06
6.706245055162346e-07
-6.663928822422255e-07
-2.0023957240638407e-06
1.451599306277751e-06
4.844959068436155e-07
-4.835070826006427e-07
-1.4506140839105203e-06
7.205392604401825e-07
2.398396105572631e-07
-2.413994494975674e-07
-7.221009932206063e-07
-4.353788087083782e-08
-1.535640291837337e-08
1.275233055524766e-08
4.093341247728144e-08
-7.332265778182967e-07
-2.455920193296726e-07
2.42341472792007e-07
7.299737467417536e-07
-1.3350649092202377e-06
-4.464015432277882e-07
4.428786102399218e-07
1.3315403119811692e-06
-1.8861377385215317e-06
-6.302138221576242e-07
6.266263621974508e-07
1.882552847072734e-06
-2.4034490180499524e-06
-8.028307631937487e-07
7.993104848141863e-07
2.3999277789076706e-06
-1.9044584982502721e-06
-6.361535730345369e-07
6.332964213699721e-07
1.9016064588713022e-06
-1.4519864031496688e-06
-4.851487714618852e-07
4.823208919410571e-07
1.4491660239208948e-06
-9.673075862769165e-07
-3.234160619210169e-07
3.2083204674557275e-07
9.647279258402641e-07
-4.4333150484021644e-07
-1.4855287936224593e-07
1.4627952405962819e-07
4.4105164811319986e-07
1.1941007281232596e-07
3.9356400463250174e-08
-4.0938567777079604e-08
-1.2099899134032643e-07
6.672153058141783e-07
2.2243362613957873e-07
-2.2283748353155164e-07
-6.676266777454892e-07
1.124507279418041e-06
3.754702540791077e-07
-3.741675665171196e-07
-1.1232062384000652e-06
1.4456246565739544e-06
4.832814028462445e-07
-4.796683353777698e-07
-1.4420149403535781e-06
1.6278838239538324e-06
5.447399070278997e-07
-5.389714254119132e-07
-1.6221139479081353e-06
1.6857416374714551e-06
5.642686050581075e-07
-5.577490995306578e-07
-1.6792175983604274e-06
1.6278533193046785e-06
5.446913250144875e-07
-5.390426159272016e-07
-1.6222126646738e-06
1.4456494449380242e-06
4.833227929355172e-07
-4.796094225049258e-07
-1.4419372881685488e-06
1.1244864690054032e-06
3.754696528376119e-07
-3.7414798577037334e-07
-1.1231663642093104e-06
6.672691380714066e-07
2.2246452574970627e-07
-2.2282573246788784e-07
-6.676304103976974e-07
1.193891077562459e-07
3.9345048539508876e-08
-4.0938532494538826e-08
-1.2098570613839482e-07
-4.4324899693519437e-07
-1.4846634193571573e-07
1.4637554251063084e-07
4.411626562715945e-07
-9.672827186429228e-07
-3.234187182362888e-07
3.2080233467075836e-07
9.646709184657487e-07
-1.4520521520256305e-06
-4.851869531011591e-07
4.823077853948268e-07
1.4491759694531398e-06
-1.9044893196139626e-06
-6.361816756988298e-07
6.332686571190044e-07
1.9015768310502723e-06
-1.374417786931953e-06
-4.591780562897274e-07
4.5678044711255916e-07
1.3720200849297315e-06
-1.0128986497985604e-06
-3.384831673662603e-07
3.362645635378303e-07
1.010681873823971e-06
-6.282299007051573e-07
-2.1008904549715823e-07
2.0817112315538178e-07
6.263133894568451e-07
-2.2893023108976063e-07
-7.67913946736476e-08
7.525603552653581e-08
2.2739281623287977e-07
1.6476201807752444e-07
5.4744890136751434e-08
-5.551642368040177e-08
-1.6553322921414315e-07
5.109031384967211e-07
1.704354079014314e-07
-1.7036414156311463e-07
-5.108385796592785e-07
7.78669514575614e-07
2.601165226476243e-07
-2.5877408916727407e-07
-7.773315076672199e-07
9.589637780874072e-07
3.206422437822959e-07
-3.179776784604377e-07
-9.56300350588024e-07
1.059189547816114e-06
3.5443447529183436e-07
-3.5057370731741977e-07
-1.055324605508945e-06
1.0908314062359897e-06
3.651224054022212e-07
-3.6082521387773014e-07
-1.086535359389601e-06
1.0590978625282799e-06
3.543699990272292e-07
-3.506160324955043e-07
-1.0553491745536603e-06
9.589720634910204e-07
3.206477963597909e-07
-3.179760131588605e-07
-9.56303893960217e-07
7.787481920490044e-07
2.6012908733302753e-07
-2.5882664832655583e-07
-7.774496174053555e-07
5.109256683843988e-07
1.7046219250721473e-07
-1.7032856398230267e-07
-5.107898044288961e-07
1.6475228121516639e-07
5.473404887049865e-08
-5.552742709385994e-08
-1.6554373875963396e-07
-2.289039992926442e-07
-7.679721744473234e-08
7.521850869680186e-08
2.2732297599772217e-07
-6.282495676442415e-07
-2.100941568442677e-07
2.0818082669890603e-07
6.263378327323738e-07
-1.0128858627710471e-06
-3.384822911153655e-07
3.3625300257470597e-07
1.01065725993622e-06
-1.3744274732939085e-06
-4.591672190384921e-07
4.5681229743702034e-07
1.3720740633603977e-06
-8.643922839550455e-07
-2.8885680762938404e-07
2.8697405715649715e-07
8.625137472087485e-07
-6.146857065673916e-07
-2.0545824713086303e-07
2.0383337894468168e-07
6.130655484000436e-07
-3.54199312626452e-07
-1.1852209845855666e-07
1.1710386485161428e-07
3.5278371356486926e-07
-9.797408952183506e-08
-3.293605341930794e-08
3.195984196215085e-08
9.699890925543575e-08
1.3624738983211704e-07
4.5347462564529484e-08
-4.572840578767612e-08
-1.366263205800078e-07
3.2850293836365896e-07
1.0966008479745826e-07
-1.0934919089829187e-07
-3.2819188162946933e-07
4.6987933550839134e-07
1.570387200226092e-07
-1.5592538028449954e-07
-4.6876782622273794e-07
5.620017836781982e-07
1.8800112726313767e-07
-1.8606870518834973e-07
-5.600709874886006e-07
6.12291959987965e-07
2.049750181983001e-07
-2.0236706546952754e-07
-6.096816047330977e-07
6.280804594437084e-07
2.1028345829031403e-07
-2.075242079933176e-07
-6.253213609211383e-07
6.123025749447952e-07
2.0497301421451564e-07
-2.023823041444328e-07
-6.097109021534902e-07
5.619969189948892e-07
1.8800245690352851e-07
-1.8606188048955752e-07
-5.600595495832902e-07
4.698611409280004e-07
1.5700859630745495e-07
-1.5596899139835169e-07
-4.6882702900864076e-07
3.2845876367024185e-07
1.096405652187965e-07
-1.0934461931386141e-07
-3.281633620590835e-07
1.3628599628348614e-07
4.5346526616162064e-08
-4.5770776415515746e-08
-1.367131100557875e-07
-9.800185524991983e-08
-3.2951357107312285e-08
3.19557279014962e-08
9.700458099368842e-08
-3.541826755332732e-07
-1.1849295906800339e-07
1.1714286009094355e-07
3.528299404439647e-07
-6.147127241582472e-07
-2.0550309623749638e-07
2.0376579272247258e-07
6.12969969130718e-07
-8.644479359194192e-07
-2.888767097536035e-07
2.869878956419762e-07
8.625600675690563e-07
-4.31320564157206e-07
-1.4422932129165567e-07
1.4278062212755294e-07
4.298736726096597e-07
-2.967876183597451e-07
-9.926819929950703e-08
9.810246102276432e-08
2.956231078474203e-07
-1.5966788212418148e-07
-5.347283730389174e-08
5.256701813421971e-08
1.5876436734035826e-07
-3.1486660527144106e-08
-1.064797776340054e-08
1.0048845032126219e-08
3.088638784315423e-08
7.908782392353209e-08
2.6350974615882428e-08
-2.647977980808902e-08
-7.9214069474004e-08
1.6531230026886612e-07
5.520184459019417e-08
-5.4940080243884304e-08
-1.650470232844592e-07
2.2620545999524344e-07
7.56598433349076e-08
-7.484976050596559e-08
-2.2539034104374078e-07
2.648152637920592e-07
8.870052383563864e-08
-8.732107150376256e-08
-2.63432990355722e-07
2.853522142100967e-07
9.562140141673725e-08
-9.397967746030411e-08
-2.837117481467588e-07
2.918219344227868e-07
9.783337038236917e-08
-9.600921371290261e-08
-2.899944353453726e-07
2.854449684215263e-07
9.568766392588877e-08
-9.393712952117383e-08
-2.836907402430089e-07
2.647360050709452e-07
8.863499466240515e-08
-8.737608144220727e-08
-2.634805647359212e-07
2.262309789398398e-07
7.568978786526986e-08
-7.481670113822225e-08
-2.2535555063967622e-07
1.65331986933491e-07
5.5231503854821784e-08
-5.490230057126483e-08
-1.6500295683258281e-07
7.907204157067693e-08
2.6316349921277904e-08
-2.653671905741145e-08
-7.929725909152502e-08
-3.148010413369512e-08
-1.0629010563627944e-08
1.0079990133381178e-08
3.092943389121708e-08
-1.596458195419516e-07
-5.345916053974345e-08
5.2569265964613754e-08
1.5875202135327837e-07
-2.9682417608490816e-07
-9.928382942430564e-08
9.810549125291099e-08
2.9564286038643445e-07
-4.3129725219481947e-07
-1.4422142575955428e-07
1.4277195556442607e-07
4.2984697207074443e-07
-1.329596538424127e-07
-4.448172095591896e-08
4.3647996175733006e-08
1.321280005302239e-07
-8.915556437213978e-08
-2.983145629825712e-08
2.9207158143418344e-08
8.853223908145136e-08
-4.513192769506347e-08
-1.5077480007563704e-08
1.477161044871611e-08
4.483314292383356e-08
-5.799062136740973e-09
-1.9778806405190696e-09
1.7196716186468342e-09
5.5421216921258676e-09
2.673382191835383e-08
8.909037330778746e-09
-8.949139504096926e-09
-2.6770382112462077e-08
5.1053546380047665e-08
1.7061627090309006e-08
-1.688109354559819e-08
-5.0870566536964645e-08
6.775934682616558e-08
2.2701322809418056e-08
-2.2236155515845124e-08
-6.729183168151243e-08
7.797982174220786e-08
2.6150042199343804e-08
-2.5506822794521544e-08
-7.733755468669612e-08
8.331762041575985e-08
2.797457492910438e-08
-2.716442542953501e-08
-8.251208903457818e-08
8.50316488210795e-08
2.8569309605541715e-08
-2.7677662640945844e-08
-8.414519622225447e-08
8.339828132426785e-08
2.8019603868015275e-08
-2.7153241755756286e-08
-8.253378122775878e-08
7.796928847957768e-08
2.6149285803529765e-08
-2.5497553026408715e-08
-7.731806707551858e-08
6.77225869029352e-08
2.2655598562112966e-08
-2.2294102083528222e-08
-6.736588287724332e-08
5.107556703097538e-08
1.705346057770396e-08
-1.692348387642706e-08
-5.0951695673359665e-08
2.6730223583182333e-08
8.918429160106878e-09
-8.928723344882317e-09
-2.6740899535492024e-08
-5.8119555201505135e-09
-1.9851760491539083e-09
1.715514478736746e-09
5.538674993036535e-09
-4.512545661661607e-08
-1.509324091750197e-08
1.4731393067207721e-08
4.47659621450984e-08
-8.919053164448999e-08
-2.982303429904798e-08
2.9258374395144116e-08
8.862659816536583e-08
-1.3290590870820157e-07
-4.4448331042797225e-08
4.366080454022979e-08
1.3212000291409117e-07
SCALARS strain33 float
LOOKUP_TABLE default
-2.7222766709300572e-05
-3.2916315748865443e-05
-2.6374364104218145e-05
-2.7918737554033513e-05
2.92597533365635e-05
2.5763159503200406e-05
2.995631678345996e-05
2.669876649774583e-05
-2.1332985042810115e-05
-3.072365271339361e-05
-4.472513636433195e-05
-6.01514543726589e-05
-7.735329333735663e-05
-9.41170253293544e-05
-0.0001066391696787905
-0.00011829495051030037
-0.00012680495203687414
-0.00012806219257510687
-0.00012709166508917402
-0.00011771188005882394
-0.00010756752984919515
-9.25912491377412e-05
-7.699684190509704e-05
-6.014548578170409e-05
-4.595423318853875e-05
-3.2635917668555336e-05
-2.166600842135047e-05
-2.3284371183596164e-05
-3.2882784561705236e-05
-4.499810415814487e-05
-6.120284598187808e-05
-7.818823866728719e-05
-9.359454959717572e-05
-0.00010699735049457537
-0.00011899183193120333
-0.00012494216770775335
-0.0001283071659436974
-0.0001257268071566675
-0.00011756390940181882
-0.00010751828913832528
-9.28210424770981e-05
-7.605394762766338e-05
-6.051905949769343e-05
-4.443265969115984e-05
-3.1784938943651975e-05
-1.9861591418639246e-05
-2.092164191533699e-05
-3.073278269553198e-05
-4.5586440634265424e-05
-6.0549969609330345e-05
-7.814875221529016e-05
-9.316500545900053e-05
-0.00010743518872066704
-0.0001188471280856862
-0.00012741162857587973
-0.00012756300889948946
-0.0001254425583002705
-0.00012026594586417305
-0.0001062641634816397
-9.196772517272578e-05
-7.754819830324555e-05
-6.154217869808187e-05
-4.492010927920065e-05
-3.13139228290682e-05
-2.1338558358618975e-05
-2.130882501671927e-05
-3.029467747572845e-05
-4.292537141303843e-05
-5.9542579848415045e-05
-7.682475040038383e-05
-9.545919150899529e-05
-0.00010814236116574172
-0.00011905279076107611
-0.00012529266348648704
-0.00012908934062916266
-0.0001255224259587573
-0.00011827389642138364
-0.00010680452445799293
-9.552609723739725e-05
-7.79926513003737e-05
-6.237370024675393e-05
-4.612245308099894e-05
-3.033670225194296e-05
-2.08695253157698e-05
2.048209224081443e-05
3.0164356583539664e-05
4.409400759841642e-05
6.203946316496456e-05
7.761090372016e-05
9.467868672052848e-05
0.00010879124142926244
0.00011912618812048859
0.00012603539954625376
0.00012874695738374076
0.00012491012580961858
0.00012090863472991042
0.00011121964240279336
9.480051334598283e-05
7.944964669948096e-05
6.161774309365597e-05
4.4548167249303106e-05
2.876997680789639e-05
2.2288667665182338e-05
2.0750018547177618e-05
3.019707411511252e-05
4.461251085502438e-05
6.034216253386626e-05
7.788497599836575e-05
9.483083210981569e-05
0.00010959359681872449
0.00011850673462587835
0.00012555430326244288
0.00012886069040468628
0.00012685400459966356
0.00012040198673837765
0.00010918736226428472
9.389606246901216e-05
7.764799216927742e-05
6.114951800750834e-05
4.308430154617571e-05
2.9102549194880145e-05
2.205922977397551e-05
2.0776415721280445e-05
3.264070858642609e-05
4.563248476754933e-05
6.041277068269402e-05
7.819628596625328e-05
9.448959936481094e-05
0.00010971556860825404
0.00011950051199405287
0.00012241242728849855
0.00012907087234292902
0.00012590632623366016
0.00011768015224777884
0.00011063630353297382
9.710554595265819e-05
7.765850867186286e-05
5.9621483465832625e-05
4.28521654023406e-05
3.11412326322591e-05
2.001527212736054e-05
2.099991677617652e-05
2.9279704448437194e-05
4.4472271382822726e-05
6.238446209316795e-05
7.903996993519069e-05
9.305823105210109e-05
0.00010659960651315803
0.00011717662116694783
0.0001267814184922056
0.0001274936045112529
0.00012597536403557985
0.00011963460470465481
0.0001078858673296823
9.132677358958396e-05
7.748928164519331e-05
6.0648811089025756e-05
4.584158060627619e-05
3.1243679348258446e-05
2.0138666095959046e-05
-1.5841920085302164e-05
-4.60487414777333e-06
6.591630374974677e-06
1.784655005765412e-05
-2.103255658958414e-05
-9.326598806036479e-06
2.3060573676181306e-06
1.3968402458486295e-05
-1.5036685870604624e-05
-3.83652881977975e-06
7.327793873149191e-06
1.855928540311219e-05
-1.6890134841740512e-05
-6.0139970113892716e-06
4.809842877206982e-06
1.568141567420689e-05
-2.835669493894688e-05
-5.48914466598216e-05
-9.96619848246949e-05
-0.0001512500285019147
-0.00020665278942655352
-0.0002577761117081856
-0.0003027849058346854
-0.00033737301772018835
-0.0003572498703833249
-0.0003653166248716033
-0.00035726130289492897
-0.0003365159123538408
-0.0003027812166734867
-0.0002577862758760263
-0.00020605220392111434
-0.00015151164408699902
-9.961088091414716e-05
-5.548803683230741e-05
-3.0184616943929043e-05
-5.536944252160225e-05
-5.3842860360919786e-05
-7.011878601170807e-05
-9.393382269617945e-05
-0.00012320442315771896
-0.00015418835414993115
-0.00018415358208168087
-0.00020744194655597514
-0.00022175639287025373
-0.0002294888441854992
-0.0002229679480175717
-0.0002086710260031932
-0.00018286065330230805
-0.00015517689933819412
-0.00012451572318972204
-9.41648932550887e-05
-7.047540519444784e-05
-5.2864282229059256e-05
-5.534661623696202e-05
-9.956564237756371e-05
-7.135723456341836e-05
-6.920377229946428e-05
-7.034268399475074e-05
-8.111584641234959e-05
-9.85777515096764e-05
-0.0001185990301214579
-0.0001371387391591039
-0.0001496777078586753
-0.00015362188814183053
-0.00014976107267405947
-0.00013666264923972715
-0.0001180685900358247
-9.737770090911813e-05
-8.221624858850696e-05
-7.129721442689085e-05
-6.99985772445455e-05
-7.05977334803376e-05
-0.0001002107689672127
-0.0001505863916871908
-9.375403353906187e-05
-7.013022408286496e-05
-4.3659936637685526e-05
-2.6288574452415503e-05
-2.0549502666611374e-05
-2.5448067664246565e-05
-3.4242510008275495e-05
-4.21745961636244e-05
-4.558585776714974e-05
-4.158886096827796e-05
-3.4270538980973875e-05
-2.552828392965445e-05
-1.961712935322213e-05
-2.642868375052343e-05
-4.388498566498811e-05
-7.068573820545598e-05
-9.332175261428377e-05
-0.00015107042615647437
-0.00020676695095067643
-0.00012358132667955601
-8.185314469955074e-05
-2.649329685611157e-05
2.202373956705639e-05
5.970987027092978e-05
7.698453653626203e-05
7.896134202023397e-05
7.754151990235769e-05
7.574624442630018e-05
7.6502732346162e-05
8.000411398634277e-05
7.722038816121435e-05
6.005776862921808e-05
2.259801218607027e-05
-2.5625300872578194e-05
-8.157432686778376e-05
-0.00012375053907670575
-0.00020633276283865687
-0.00025813995395107536
-0.00015409679471789506
-9.854544452259084e-05
-1.9620454614233118e-05
5.9057299430564925e-05
0.00013788870562325695
0.0001933513088276939
0.00021758272208460827
0.0002246294496921486
0.00022136099882547056
0.0002247086109301577
0.0002173978252568709
0.00019348885675385397
0.00013795754454265508
5.994712963014459e-05
-2.0280979637299357e-05
-9.864667429071439e-05
-0.00015458606847834622
-0.0002585496565268852
-0.00030333867525866864
-0.00018387899683480757
-0.00011850679730762703
-2.5868792602357082e-05
7.544496109801457e-05
0.0001929723773557157
0.0003116915798196951
0.0003873245804879577
0.00040490880152660447
0.00042052933113523316
0.0004040331271391584
0.0003877645433019161
0.00031253897490857163
0.00019246620269885995
7.721000783050824e-05
-2.566409051935059e-05
-0.00011958734602274257
-0.00018491708339701818
-0.0003024008589032623
-0.00033688106252327543
-0.000207609731118219
-0.00013652899055571766
-3.487546044056433e-05
8.006370948054897e-05
0.00021833314851227303
0.0003863819699038151
0.0005735464479226793
0.0006688276800254078
0.0006320268230948778
0.000667736421694376
0.0005752817392828402
0.00038750822881994385
0.0002172472679140558
8.049677918242626e-05
-3.427706589759216e-05
-0.00013656372880288536
-0.00020755873583372386
-0.00033603369083545775
-0.00035744293056394483
-0.00022330075036913755
-0.00014977909779589904
-4.271768710173429e-05
7.819476803161418e-05
0.00022398342716445363
0.0004032208572005147
0.0006701233836008957
0.0010080262163926768
0.0012252359683085357
0.0010089669945579915
0.0006681214200650043
0.00040470819067622843
0.00022398936778694756
7.780671755786006e-05
-4.176490330043414e-05
-0.00014820330745707322
-0.00022276148869848633
-0.0003574226410749115
-0.00036441589490232573
-0.00022826129835040732
-0.00015270575060377656
-4.5857275870697656e-05
7.540893412083527e-05
0.0002221225008620653
0.0004225916309163469
0.0006317689336713395
0.0012247912597289634
0.001378078143268846
0.0012239729825866963
0.0006323949182783228
0.0004210110336198558
0.00022198750235702391
7.584564251322812e-05
-4.6458971359408796e-05
-0.00015522458029737507
-0.00022817885660159076
-0.00036425177333593295
-0.0003571841977009216
-0.0002229686060363223
-0.00015066218738368775
-4.272980710595675e-05
7.775761259709579e-05
0.00022439794631512466
0.0004040339053714703
0.0006681122498482517
0.0010074772922544217
0.001226315807830114
0.0010086253706716453
0.0006665089393228518
0.0004036778511159467
0.0002243447368739382
7.815001420630185e-05
-4.246281698516707e-05
-0.00014983361370046744
-0.0002238574528633519
-0.00035584237830843524
-0.000338083619064955
-0.0002079600000536308
-0.00013620858006402337
-3.323310158453996e-05
7.986068680992942e-05
0.00021679332617219327
0.000386940679457104
0.0005735213913719006
0.0006693173601878821
0.0006315613160976508
0.0006688577220579361
0.000573430558341359
0.0003867602742949061
0.0002190421144363519
8.047746313910586e-05
-3.449748081124637e-05
-0.00013795329313595617
-0.00020651472436072904
-0.0003364777647363315
-0.0003038153336650806
-0.00018288423132095666
-0.0001196449394977872
-2.5152656321636435e-05
7.643134539997432e-05
0.0001935894062428667
0.00031250545631938964
0.0003863332577173084
0.0004052644587021481
0.0004209806213867351
0.0004028656238575512
0.0003877264571146011
0.00031245487297704155
0.00019366159248901393
7.658735098453606e-05
-2.5096500734594906e-05
-0.00011887421276454702
-0.000185022362942322
-0.0003030056892005528
-0.0002581794549341154
-0.0001538597034476119
-9.775771325848392e-05
-2.0526585375990614e-05
5.938414479400578e-05
0.00013754902345985975
0.00019365570693352652
0.0002169141686656495
0.0002234638840545311
0.00022155647537996925
0.00022446748742871447
0.0002167490447561593
0.0001939854593141499
0.00013814709192766506
5.9295206468745754e-05
-1.9894653892488234e-05
-9.864770586462401e-05
-0.00015363857849448603
-0.0002592190527128113
-0.00020564435803971381
-0.00012375320688551295
-8.219064552195121e-05
-2.696733329882184e-05
2.2909730076847712e-05
5.848424076126957e-05
7.596621088762356e-05
7.92146559815965e-05
7.669606243115856e-05
7.694186316803409e-05
7.703853751611645e-05
8.099865777910775e-05
7.508981209158883e-05
5.9066657403544776e-05
2.3667827851237e-05
-2.7055926843183586e-05
-8.192400017639767e-05
-0.0001236192870902042
-0.00020615786044961282
-0.00015139611964265498
-9.312115616832983e-05
-7.035850144310185e-05
-4.259128539413348e-05
-2.5985052851340562e-05
-2.0442732396097618e-05
-2.4335836244782083e-05
-3.4300122422448176e-05
-4.140347322795224e-05
-4.645038619438546e-05
-4.298217362391776e-05
-3.4136935736006624e-05
-2.4155611516030184e-05
-2.1342698115572878e-05
-2.730156560271091e-05
-4.226630776896223e-05
-7.078235190569049e-05
-9.430834935049426e-05
-0.00015147467676429605
-0.0001001322511284819
-7.133016041238616e-05
-6.858212828880772e-05
-7.021424139391774e-05
-8.188842275452801e-05
-9.920697563570169e-05
-0.00011853907168546396
-0.00013730879726608913
-0.00015055146460690727
-0.00015407949262669085
-0.00015075118371665752
-0.0001374626839291404
-0.00011774056932395416
-9.919722675791331e-05
-8.180615551794945e-05
-7.033992583543869e-05
-6.964330511917416e-05
-7.101148550316128e-05
-9.893644971493976e-05
-5.460562821135717e-05
-5.317518247105468e-05
-7.026842437635183e-05
-9.536968327544804e-05
-0.0001229780148588322
-0.00015473908065166686
-0.00018430179370110267
-0.00020842247228514132
-0.00022268854734325272
-0.00022892409669106328
-0.00022245651863272986
-0.00020768482379937558
-0.00018473480422245836
-0.0001555846980365594
-0.00012202546329273534
-9.355271449995595e-05
-7.212979404636055e-05
-5.163884192301016e-05
-5.6789532512570295e-05
-2.9129779566927638e-05
-5.5059238376897746e-05
-9.959018465843794e-05
-0.0001520376283025704
-0.000206088117547798
-0.0002590910175286343
-0.0003031424233728708
-0.0003360753220418289
-0.00035920162718761084
-0.00036580009014430814
-0.000358750454793777
-0.0003373040384701542
-0.0003020716585550032
-0.00025816511676513
-0.00020630358278950212
-0.0001517459836038737
-9.983870566637743e-05
-5.522471598298079e-05
-3.1183681948092346e-05
2.893238994083891e-05
5.4907748183952165e-05
9.895547823524087e-05
0.00015156606172783693
0.00020665535604302843
0.00025743879108020007
0.000302082457068642
0.00033728425871459855
0.0003583915571677698
0.0003660948550622267
0.00035762117753090905
0.00033748275447453846
0.00030277453935489973
0.0002581827938019643
0.00020582658001544463
0.00015192269276742554
9.989772733853819e-05
5.59306875114185e-05
2.9622354967950848e-05
5.485472274557868e-05
5.3925064684823276e-05
7.011474755047598e-05
9.434668239471922e-05
0.00012316052140892708
0.0001550756663001307
0.0001840267086946623
0.00020792084300569336
0.00022224005349291698
0.00022873467792727809
0.0002236280159220172
0.00020870149304652585
0.00018377349045428648
0.00015481851063747776
0.0001247710896861154
9.432961201005785e-05
7.028085016724805e-05
5.3068391422939065e-05
5.665694845147229e-05
0.00010007430963099306
7.061401729513417e-05
6.951325668180797e-05
7.117180456561734e-05
8.168558074550525e-05
9.766723752580031e-05
0.00011885240660214347
0.0001372409341025005
0.00015096681273518708
0.0001538407777185169
0.00014994979569560307
0.00013695986979767039
0.00011892685700876093
9.783470119284488e-05
8.249648504499163e-05
7.151676584660205e-05
6.960360320318326e-05
7.150752855800135e-05
0.00010030204850536295
0.00015134840084451984
9.573207383284377e-05
6.950523019111365e-05
4.318423295379681e-05
2.678292663638171e-05
2.1105305578306144e-05
2.4892830723377557e-05
3.5151970581237535e-05
4.2570942186515026e-05
4.508256802315813e-05
4.182156540311066e-05
3.3331587052654044e-05
2.5223414102382158e-05
1.9668604555045377e-05
2.6523363669039846e-05
4.2242661759450684e-05
7.060541395437214e-05
9.344424967677734e-05
0.00015068138687790444
0.00020556742428468056
0.00012284845143717416
8.064099932070246e-05
2.6005561478248396e-05
-2.1582003739806233e-05
-5.959908404462588e-05
-7.612607514817515e-05
-8.070264560877671e-05
-7.683044616491053e-05
-7.639029710482248e-05
-7.725739410213706e-05
-7.966126687602992e-05
-7.633789565575366e-05
-5.875656790066408e-05
-2.3175803408714835e-05
2.6765021853392135e-05
8.201963658649447e-05
0.00012415695107426128
0.00020680155168439907
0.000259187577682507
0.00015421571119234034
9.79457469791889e-05
2.0587458024690086e-05
-5.832507716108104e-05
-0.00013770811376634384
-0.0001933263079012537
-0.00021855525977598766
-0.00022480113134071278
-0.0002210682952303311
-0.00022494476562412435
-0.00021692984095628143
-0.00019324598197600906
-0.00013828300061663468
-6.06087658949761e-05
2.0469164005332274e-05
9.814004242730823e-05
0.00015476291936594722
0.00025739197092639055
0.00030358456105405995
0.00018391607188639192
0.00011941333793941133
2.585463996473969e-05
-7.627180283609203e-05
-0.00019231673095032598
-0.0003118294349597761
-0.00038563556028892165
-0.00040467914914799064
-0.00042039182286846
-0.0004050151949906988
-0.0003876842870010333
-0.00031204546294322233
-0.00019381938005907928
-7.649189038699822e-05
2.5251524682967652e-05
0.00011935548685199082
0.00018415635333218772
0.000303223312209
0.0003364411509855225
0.00020735762843659966
0.00013714184023494447
3.4749711661064e-05
-7.984288205520329e-05
-0.0002173563321407057
-0.0003866414094216841
-0.0005745415267711662
-0.0006683319097585683
-0.0006314731939207063
-0.0006682926117680399
-0.0005749867079434812
-0.0003873655982074564
-0.00021689149238551808
-8.000565357468847e-05
3.465202042390869e-05
0.0001372421478968433
0.0002077400120816253
0.0003362002155267163
0.0003577330736856954
0.00022302960547582185
0.0001501015185478849
4.2611945580306454e-05
-7.699716512887811e-05
-0.00022349155138678967
-0.00040371002776340426
-0.0006690363465635674
-0.0010085969414600493
-0.0012256125720916944
-0.001006767646945017
-0.0006680797239299596
-0.0004037589960542709
-0.00022387370817095187
-7.783099984348674e-05
4.2006614142053866e-05
0.0001495230504182654
0.00022377183580929438
0.0003571263293858373
0.0003652000021561186
0.00022940266763826767
0.0001531000853298714
4.746178585079974e-05
-7.705732724583303e-05
-0.0002225829292839543
-0.00042121333477990186
-0.000631522101310733
-0.0012258309447470417
-0.0013816703992889923
-0.0012251614269062072
-0.0006313064886615538
-0.0004201970436316649
-0.0002221166300401256
-7.619981418560684e-05
4.624861563712335e-05
0.00015538826582067733
0.00022898395176790265
0.0003639287878773323
0.00035778912863349
0.0002232935567741956
0.00014968904790646498
4.288085495696148e-05
-7.738943728419212e-05
-0.00022424900743633902
-0.0004043470389590853
-0.0006682334605778717
-0.001007495691747018
-0.0012249958667474026
-0.001007436127847039
-0.0006691740729681817
-0.0004023607366422377
-0.0002243043697142677
-7.891054326747415e-05
4.304305638619388e-05
0.00014970629224392296
0.00022341454478452816
0.0003581011082928187
0.00033673320932303685
0.00020839249292359252
0.00013684945659264702
3.348482969078859e-05
-7.973156157980998e-05
-0.00021715924927007135
-0.00038777673599171836
-0.0005737938680427934
-0.0006686780910236667
-0.0006316357388580496
-0.000668907511806871
-0.0005733022882169481
-0.0003867480635598164
-0.00021744992772981808
-7.950007269375003e-05
3.390628321642275e-05
0.0001387115960770069
0.0002076293224845538
0.00033653277856593444
0.00030286629486819816
0.00018416996458159307
0.00012013288982148929
2.5486274957908783e-05
-7.684671487145911e-05
-0.0001940476083445164
-0.0003115014000104055
-0.00038763015908632736
-0.00040358093178632926
-0.00042112218444573246
-0.00040258162701362066
-0.00038762597568459123
-0.00031210206510640104
-0.0001942182637615364
-7.598672291059261e-05
2.453615892228367e-05
0.00011930538588281192
0.00018387252025961476
0.00030215961817653403
0.0002581031211627005
0.00015404129673080025
9.819343295658367e-05
2.0307785224993324e-05
-5.740703202500308e-05
-0.00013745320934371863
-0.00019350965239067763
-0.00021634931363107013
-0.0002240092610762412
-0.0002205383042583331
-0.00022484686751012006
-0.00021659388412875735
-0.00019394393853383596
-0.00013725434815201054
-5.916353540705299e-05
2.0843727320307703e-05
9.754874298348315e-05
0.0001539543014176803
0.0002595641969802831
0.0002061648009530348
0.00012292657914170224
8.2184840093813e-05
2.6011365491740435e-05
-2.321598217558396e-05
-5.902634539389773e-05
-7.597179237617269e-05
-8.012297653342548e-05
-7.723676265031232e-05
-7.630713125189592e-05
-7.655096126030214e-05
-8.167149020832376e-05
-7.657896123294816e-05
-5.830097642564591e-05
-2.282660792124469e-05
2.5974605385670202e-05
8.225688104199214e-05
0.00012316568123535432
0.00020734111315384718
0.00015157507154217598
9.462808326388128e-05
7.032192795142223e-05
4.2901248845095274e-05
2.5754411581202508e-05
2.0922677811507917e-05
2.4912054712500353e-05
3.487194700102503e-05
4.2370043903783294e-05
4.592994354440938e-05
4.32171064093656e-05
3.404255771094489e-05
2.5813098616295216e-05
2.05029868259321e-05
2.6902410258211606e-05
4.331687063693912e-05
7.063973444018656e-05
9.362956157574209e-05
0.0001509733736174551
9.936343749994414e-05
6.936521770462001e-05
6.899402234045171e-05
7.06031374821392e-05
8.280594043208467e-05
9.908140966918833e-05
0.0001186456669164393
0.0001385647220134567
0.00014978774829410568
0.0001547933316650707
0.00015002385385842754
0.00013787471634196802
0.00011916741313153234
9.876879786235859e-05
8.162932239602627e-05
7.069228882444767e-05
7.008604131249208e-05
7.007242694898053e-05
9.93897579242009e-05
5.391891503681023e-05
5.242639400115934e-05
7.192263089061957e-05
9.501016599189338e-05
0.00012296215497126228
0.00015485726448283277
0.0001839497783397981
0.00020842249272590152
0.0002229430658917675
0.0002297510838845107
0.00022187063973067023
0.00020883203160265706
0.0001835576919716475
0.00015543475254020667
0.00012266946051225913
9.398525706513783e-05
7.101781342290503e-05
5.373344608984587e-05
5.565636990753631e-05
2.9634139962597672e-05
5.6640107783834104e-05
9.859705938075614e-05
0.00015226918859900795
0.00020677559591009143
0.00025837214286078547
0.00030314526405506026
0.0003369553534617875
0.00035854513156857726
0.00036532401090749733
0.0003595865548142174
0.00033698966316639267
0.0003017298141458069
0.00025940560727027995
0.00020583163466605936
0.0001516745662872715
9.998104897755711e-05
5.579773170665686e-05
3.0163655409497225e-05
-1.2765035633077737e-05
-4.495970657769632e-06
3.6708668768037356e-06
1.1932212178877855e-05
-1.8237249890029616e-05
-6.20605547574371e-06
5.669556916498841e-06
1.7693455783285295e-05
-2.6502446717091566e-05
-8.962150553459836e-06
8.345657160790942e-06
2.588207970444234e-05
-3.5122053399727626e-05
-1.1021344873185512e-05
1.2778385633294143e-05
3.692398162513655e-05
-4.55438581183909e-05
-1.4963151064084634e-05
1.5202126234403757e-05
4.578982240166507e-05
-5.5370201102578065e-05
-1.8120484777561785e-05
1.8626299846946637e-05
5.5895158219909646e-05
-6.244175456016077e-05
-1.995630930473613e-05
2.196271019727636e-05
6.449806128949742e-05
-6.953102949958101e-05
-2.268295777352325e-05
2.351384324139616e-05
7.036246545355507e-05
-7.486696349801036e-05
-2.496890914061023e-05
2.4231817901010366e-05
7.412016513108632e-05
-7.535404882841323e-05
-2.4697146910002132e-05
2.527417312492286e-05
7.59676372125151e-05
-7.530985096215748e-05
-2.5572035271648197e-05
2.3461883714270826e-05
7.317647603510835e-05
-6.876682339018725e-05
-2.171347627843989e-05
2.4717615901392875e-05
7.183612346328694e-05
-6.268970120015815e-05
-1.9535383403601614e-05
2.304810563269477e-05
6.624996870974176e-05
-5.4126849326929793e-05
-1.715478555031069e-05
1.9314777768064673e-05
5.630344214391236e-05
-4.4934288096931674e-05
-1.4081236067831071e-05
1.6378757720314496e-05
4.728523983943411e-05
-3.5181580807730484e-05
-1.1155720550770631e-05
1.2559413172352762e-05
3.660925586401742e-05
-2.7375680423769033e-05
-9.49124956606262e-06
8.15164958978265e-06
2.601443441063722e-05
-1.99845320013603e-05
-7.818021081740234e-06
4.160828597443711e-06
1.6256978867201788e-05
-1.2705922687983318e-05
-4.032798599284959e-06
4.556390167387292e-06
1.326389199818312e-05
-1.4250028892770494e-05
-5.532369378169477e-06
3.0707467884028006e-06
1.1764458577312453e-05
-1.9929007870289617e-05
-7.451060652918784e-06
4.857650567458016e-06
1.730561363399996e-05
-2.662101306033504e-05
-8.925249848301675e-06
8.539475892743731e-06
2.623592339678904e-05
-3.6234690892922305e-05
-1.2229466566981984e-05
1.1440969015563685e-05
3.542267106670938e-05
-4.611795981251943e-05
-1.5297682546600022e-05
1.5088195998935738e-05
4.587806995631771e-05
-5.491298676119083e-05
-1.7732387306679254e-05
1.8941047424891888e-05
5.613166610568543e-05
-6.255179800557231e-05
-1.9828669072075034e-05
2.2320246207629957e-05
6.508003167754461e-05
-7.021019171438159e-05
-2.3345520521300678e-05
2.286641503451703e-05
6.972931008841776e-05
-7.348371054521907e-05
-2.4057472369942712e-05
2.467740653866457e-05
7.410224449894143e-05
-7.54883098975645e-05
-2.4743688227746308e-05
2.5295976881889448e-05
7.604168904806752e-05
-7.389020691977999e-05
-2.407067266058105e-05
2.5075864472867693e-05
7.493675279290901e-05
-6.873903847653962e-05
-2.1808613310608793e-05
2.4494108809669513e-05
7.147640237031849e-05
-6.304056749018017e-05
-2.028707755821757e-05
2.1886884124744377e-05
6.466407449967626e-05
-5.4508263566704906e-05
-1.7677621789641274e-05
1.865922218691196e-05
5.552186502710832e-05
-4.451587110487765e-05
-1.419544570677167e-05
1.5719529565833e-05
4.6064611096352515e-05
-3.557499331219294e-05
-1.1566362992335155e-05
1.213053338856851e-05
3.616154449263831e-05
-2.646082701991681e-05
-9.173575209325824e-06
7.876664991066096e-06
2.5147728014582316e-05
-1.92480077647883e-05
-7.190789393936303e-06
4.684605270359465e-06
1.6682810301593687e-05
-1.1317916198905209e-05
-3.0525221620392173e-06
5.1330999736622085e-06
1.3438610041341392e-05
-1.2364861050308262e-05
-4.1149063241367745e-06
4.025673067700047e-06
1.2257806348753286e-05
-1.7773011293222007e-05
-5.262623882014428e-06
7.103114142613387e-06
1.9637312729511858e-05
-2.6885080995006638e-05
-8.869512216222453e-06
8.913991816017486e-06
2.693133178600926e-05
-3.570478238043573e-05
-1.1818811102626281e-05
1.1736488623417807e-05
3.560579716724299e-05
-4.603681135509352e-05
-1.5169918198831844e-05
1.5268392949685516e-05
4.611955610481222e-05
-5.4640220821911e-05
-1.76146990126802e-05
1.8905191937562682e-05
5.5942955171778275e-05
-6.287148060127312e-05
-2.0032868342345633e-05
2.222860404416105e-05
6.509576661328786e-05
-6.991467937911278e-05
-2.2890260422986364e-05
2.3490523064745306e-05
7.053280442240184e-05
-7.601263872092368e-05
-2.6677731310265074e-05
2.192654291477414e-05
7.117746492446564e-05
-7.489965251095132e-05
-2.4281014299465387e-05
2.5656094844672683e-05
7.631894643911341e-05
-7.38451345998481e-05
-2.426259381821394e-05
2.4643970653936975e-05
7.425410096639773e-05
-7.134807982578373e-05
-2.4369757709141737e-05
2.1932683932746055e-05
6.886210654705183e-05
-6.180513216758055e-05
-1.904388511375643e-05
2.3168489378999624e-05
6.601360127556077e-05
-5.324318450583565e-05
-1.5977195302663283e-05
2.0825418498071624e-05
5.818900193971244e-05
-4.569632544398905e-05
-1.5068526666439652e-05
1.514608100255943e-05
4.578458445980704e-05
-3.664741167624941e-05
-1.2714550640668953e-05
1.088277142663463e-05
3.478590964139938e-05
-2.6897662044222947e-05
-9.561571532701318e-06
7.537249735345419e-06
2.4859224267703706e-05
-1.8534365315514556e-05
-6.203055317732797e-06
5.981834966806154e-06
1.832914583921319e-05
-1.2850661694319143e-05
-4.66855090852647e-06
3.405512381760012e-06
1.1568513378024115e-05
-1.2644730962518835e-05
-4.279594049250157e-06
3.984086627828454e-06
1.234608540467974e-05
-1.8078603680415917e-05
-6.311664201619216e-06
5.303549057034118e-06
1.706922127120425e-05
-2.5026757910384667e-05
-7.787183366803063e-06
9.239614624290127e-06
2.6512062179739893e-05
-3.4569165453524064e-05
-1.0522894916875636e-05
1.3225559064911074e-05
3.7319753436237946e-05
-4.4874391940341596e-05
-1.413394393867673e-05
1.6210794520743477e-05
4.6999421534632546e-05
-5.6716176686011366e-05
-1.949303186199458e-05
1.7200739990785863e-05
5.4388064040233886e-05
-6.403520979525457e-05
-2.1659691171405093e-05
2.0125429361139702e-05
6.249837789062962e-05
-7.052839240950792e-05
-2.391666799361758e-05
2.2043709597130423e-05
6.865468613559411e-05
-7.357985350764373e-05
-2.3870151488414315e-05
2.5178091669464386e-05
7.494881641523232e-05
-7.636899692764487e-05
-2.5730284718528118e-05
2.4193260170668474e-05
7.481201437387064e-05
-7.38911468224357e-05
-2.427846746344553e-05
2.4656290510849388e-05
7.429448313833742e-05
-6.94365568916222e-05
-2.250453976360145e-05
2.3788647499634052e-05
7.074749783364531e-05
-6.273918091637132e-05
-2.039219516591917e-05
2.1381134731601747e-05
6.375964735638728e-05
-5.7104314344802454e-05
-2.0205938324191486e-05
1.615774852281593e-05
5.300553263054564e-05
-4.60722389588053e-05
-1.538409587464873e-05
1.4884806795234518e-05
4.557230800861234e-05
-3.710588327043851e-05
-1.2805788575875887e-05
1.1158667603705652e-05
3.5433089860759104e-05
-2.726352064919002e-05
-9.096493608695688e-06
8.8336798629296e-06
2.699583694276697e-05
-1.7734150230097612e-05
-5.577267307210754e-06
6.434796155918576e-06
1.860863580416261e-05
-1.2453065350803705e-05
-4.33792013276868e-06
3.6695537686259883e-06
1.1764895877397485e-05
-1.635034111713285e-05
-5.164545392455366e-06
5.740302597367908e-06
1.692683648302218e-05
-3.2008790904036744e-05
-1.050347046094302e-05
1.0527489532896617e-05
3.2030255235571126e-05
-5.843477373956851e-05
-1.9428936886889403e-05
1.8802716691301846e-05
5.778175559567611e-05
-8.854072760289267e-05
-2.904818256599384e-05
2.9339537372274904e-05
8.884207238002428e-05
-0.00012113247501721602
-3.989718298402778e-05
3.986329396310495e-05
0.00012111097472811139
-0.00015115102664542412
-4.985390946365964e-05
4.9595741561270223e-05
0.00015086774821604365
-0.00017761903687529834
-5.8684851037771324e-05
5.808664093021054e-05
0.00017698573491586878
-0.00019784134117994956
-6.52131107939935e-05
6.50408326550167e-05
0.00019769720584450479
-0.00020930889438364186
-6.86626762342879e-05
6.949810448175775e-05
0.00021024752517906364
-0.0002140884788113251
-7.032656747196775e-05
7.088227388452051e-05
0.00021471978071219144
-0.0002094516523017953
-6.894578427196763e-05
6.906526796979229e-05
0.00020965186857468954
-0.0001971729482114215
-6.470168049776959e-05
6.54232567598445e-05
0.00019797692226353192
-0.00017753328425262893
-5.8489974902542485e-05
5.8418253221947936e-05
0.00017748374922688104
-0.00015103839481644954
-4.960826071920277e-05
4.998787286780715e-05
0.00015142431831038916
-0.00012081760562765442
-3.986547266598972e-05
3.9611643396830765e-05
0.00012057343473315107
-8.870614744704852e-05
-2.9104064450780065e-05
2.9404820304113066e-05
8.904449138746884e-05
-5.8258815251566176e-05
-1.910257122528236e-05
1.930590059306958e-05
5.8490676319800095e-05
-3.2311175377164325e-05
-1.0500268706525873e-05
1.0852026822383287e-05
3.269370399083815e-05
-1.7630991742012547e-05
-5.933323429907489e-06
5.4613444927520405e-06
1.712823176847067e-05
-3.241308573476154e-05
-1.083014273606242e-05
1.0284808596106032e-05
3.1879017141411836e-05
-3.123026168372345e-05
-1.0207853782362442e-05
1.0273178677633332e-05
3.130267251139074e-05
-4.0744276157300696e-05
-1.3354733021775367e-05
1.3354422722211545e-05
4.074390071517886e-05
-5.45793969463082e-05
-1.7795766939943114e-05
1.811599252143914e-05
5.493129934641683e-05
-7.171306982423076e-05
-2.3530322127207626e-05
2.351352480689517e-05
7.168829854731218e-05
-8.962951334912095e-05
-2.913213147814897e-05
2.9974260510545747e-05
9.048716310589011e-05
-0.00010732087470055607
-3.5277464049854323e-05
3.512323357535152e-05
0.00010717630795842314
-0.00012084686067226347
-3.9594416027521895e-05
3.984751661489927e-05
0.000121176358541919
-0.00012917699218750744
-4.2316616364224124e-05
4.260047066828587e-05
0.00012952823748058062
-0.00013390011399705415
-4.42110423853892e-05
4.3451066725541665e-05
0.0001331414875835879
-0.00012985370159634968
-4.2475300341293654e-05
4.2952908549165336e-05
0.00013039300924699848
-0.00012162066674237249
-3.9946681697156095e-05
3.989026431205911e-05
0.00012159368817887817
-0.00010639421251423808
-3.468484645829939e-05
3.541073397639316e-05
0.00010718295320244486
-9.045465136137132e-05
-2.980694504195469e-05
2.9440862473473217e-05
9.00907741465673e-05
-7.244229342839859e-05
-2.368814483522108e-05
2.3928685632723656e-05
7.26884254899085e-05
-5.474616396716758e-05
-1.79142779046515e-05
1.8035681131012282e-05
5.488358917016267e-05
-4.098916738137781e-05
-1.3498135028378044e-05
1.3309955611218172e-05
4.079980163707031e-05
-3.0624431045622735e-05
-9.969680678789672e-06
1.0146850419778808e-05
3.081178519048766e-05
-3.209984807384103e-05
-1.020416528263457e-05
1.1257559529131989e-05
3.3240531815859065e-05
-5.820480307650033e-05
-1.90326455811185e-05
1.940183747295432e-05
5.86211675811521e-05
-4.160465126101798e-05
-1.3857770691072524e-05
1.3191816760849129e-05
4.091315383780714e-05
-4.0229130668478774e-05
-1.3106665722184552e-05
1.3385112825892165e-05
4.0519052393328536e-05
-4.085624136473953e-05
-1.3212805949236461e-05
1.3822191308965337e-05
4.1539535948320605e-05
-4.721674335861348e-05
-1.5371056727109256e-05
1.578720937689404e-05
4.768484101058679e-05
-5.766660859385375e-05
-1.920456935078363e-05
1.8402936538763903e-05
5.682867919176715e-05
-6.921998627840154e-05
-2.269518623476685e-05
2.2857026977685102e-05
6.94121580896434e-05
-8.015112768422483e-05
-2.6402268342051727e-05
2.6258969423986755e-05
8.009005650910783e-05
-8.727560453469785e-05
-2.838698517604321e-05
2.9330709450103853e-05
8.833485715464828e-05
-8.971406767654955e-05
-2.9453338905804927e-05
2.956346172333646e-05
8.986004797040259e-05
-8.74823247044576e-05
-2.8745596779122806e-05
2.8788571789006845e-05
8.757393140712555e-05
-7.979483022202416e-05
-2.6180009489396028e-05
2.6331718037453378e-05
7.99957745162283e-05
-6.882095022253676e-05
-2.2407012758685063e-05
2.305544254366243e-05
6.953991325542308e-05
-5.679291066285064e-05
-1.8594899482859972e-05
1.8809058581314986e-05
5.708849231922386e-05
-4.7935296351386825e-05
-1.571796097832312e-05
1.581136764550184e-05
4.809189360410748e-05
-4.148432845296757e-05
-1.3555605828496908e-05
1.3730752988605488e-05
4.167484229022911e-05
-4.0788067334429634e-05
-1.3463569696614552e-05
1.3199667299401696e-05
4.048098156694824e-05
-4.087520023321467e-05
-1.313271435160468e-05
1.3943044129494098e-05
4.1719791691596786e-05
-5.8668079470525214e-05
-1.9322020629153336e-05
1.928355086067146e-05
5.8674352981735733e-05
-8.81192646319251e-05
-2.882992224950698e-05
2.9386488103355646e-05
8.874547807735667e-05
-5.425741584008659e-05
-1.728545468415721e-05
1.886517727756054e-05
5.597253133171609e-05
-4.095056961916921e-05
-1.364177618201623e-05
1.3024318141208191e-05
4.0331301204843406e-05
-2.5458922621290903e-05
-8.496093458987275e-06
8.039798184422686e-06
2.499668743183303e-05
-1.5209999206011737e-05
-4.875944913940167e-06
5.2195130775256615e-06
1.560471099915084e-05
-1.1909369847074025e-05
-3.7934806769168716e-06
4.162519501305084e-06
1.23415689264883e-05
-1.4996093994246174e-05
-5.1238756658689155e-06
4.550565068206502e-06
1.4428315375902834e-05
-1.9938591656609717e-05
-6.340796760206935e-06
7.036300002205564e-06
2.0705470530235637e-05
-2.469693587292543e-05
-8.077487492430535e-06
8.267731085642716e-06
2.495609941988164e-05
-2.6807778115367498e-05
-8.986243011044337e-06
8.502271192645239e-06
2.6316772446577374e-05
-2.434060319556064e-05
-7.961404652312432e-06
8.12496388724604e-06
2.4526819737302752e-05
-2.023917311078094e-05
-6.947449243233095e-06
6.080225979476772e-06
1.934744527198884e-05
-1.4986945888750824e-05
-5.0280616628040065e-06
4.729414652238084e-06
1.4686026257870743e-05
-1.140326382009782e-05
-3.727568844369422e-06
3.7642015932037864e-06
1.1444227864754186e-05
-1.5337536971082866e-05
-5.007193253303566e-06
5.066701704470322e-06
1.540891535861677e-05
-2.5789793104025183e-05
-8.950824620490572e-06
7.442553478786973e-06
2.4236644899477966e-05
-4.117962145305798e-05
-1.3546970464628494e-05
1.344504394829027e-05
4.1085267110274604e-05
-5.428020436498704e-05
-1.779824978842548e-05
1.7817425475685766e-05
5.433471037280535e-05
-8.855576109662033e-05
-2.9259952003812817e-05
2.8921589697972205e-05
8.820109426649347e-05
-0.000121370043141944
-4.029177302777853e-05
3.927639139611472e-05
0.00012029329375684572
-7.203630925056714e-05
-2.3819085860243838e-05
2.323945451154774e-05
7.140621977796968e-05
-4.79203430444608e-05
-1.6086348102239967e-05
1.5011999335956538e-05
4.680007762536409e-05
-1.5464977643486755e-05
-5.211024287077315e-06
4.7721218026097745e-06
1.5009645421004691e-05
1.2961820029078197e-05
4.385116691540958e-06
-4.0167216132092065e-06
-1.2569007832641255e-05
3.4843437688447665e-05
1.1457855231267189e-05
-1.1412165084490056e-05
-3.477663746687121e-05
4.4949971019447865e-05
1.497358160806872e-05
-1.4278401694212128e-05
-4.420030083041038e-05
4.557538115446125e-05
1.4409805597970227e-05
-1.6011059013165685e-05
-4.7224566859904726e-05
4.508970476235774e-05
1.4938729417934837e-05
-1.4405098906267177e-05
-4.449730773148364e-05
4.384917030519908e-05
1.4188022197547667e-05
-1.4720137594959048e-05
-4.4419688528196666e-05
4.427313676469424e-05
1.429267355645969e-05
-1.4931079959645821e-05
-4.495155147066221e-05
4.6542501167035066e-05
1.5339568102124e-05
-1.5080532718314554e-05
-4.6255794207195056e-05
4.5121705580075666e-05
1.5073576291935176e-05
-1.426282711353144e-05
-4.42873511570796e-05
3.526493211059023e-05
1.196897443034306e-05
-1.0797141263452215e-05
-3.404981263027684e-05
1.3131097141128034e-05
4.147003659971116e-06
-4.676582649520977e-06
-1.3676900024628402e-05
-1.4717969226696326e-05
-4.5354430420752045e-06
5.426647638695492e-06
1.569246618232656e-05
-4.750792584007346e-05
-1.5504801344601304e-05
1.5806170469423453e-05
4.785843275373347e-05
-7.201490602926075e-05
-2.35601484968595e-05
2.3788774121402678e-05
7.230439619887452e-05
-0.00012089286065347649
-3.971474840819278e-05
4.001210270643263e-05
0.00012124892444537183
-0.0001511600805155222
-4.948301966600788e-05
5.037973971533383e-05
0.000152107839119342
-8.971420517578377e-05
-2.9399288586695604e-05
2.9519341517625364e-05
8.983448209631817e-05
-5.76135521833665e-05
-1.9118615095625735e-05
1.853677387064767e-05
5.702583783995241e-05
-1.1288992082247873e-05
-3.4717664058048214e-06
4.196648836884975e-06
1.2095502065045949e-05
3.454606253605608e-05
1.1520131953490775e-05
-1.0974915076178426e-05
-3.3938254557441816e-05
8.045553677360484e-05
2.645903192988186e-05
-2.6348290201760882e-05
-8.032174792960145e-05
0.00011268970862254868
3.69807605822281e-05
-3.702000322380883e-05
-0.00011270823348819015
0.0001265057227367583
4.11959972133058e-05
-4.213857954560307e-05
-0.00012745937924418804
0.0001306543195042087
4.277479928704864e-05
-4.3007271005146563e-05
-0.000130867236232457
0.00012877595722154966
4.232489572997267e-05
-4.2023318545525434e-05
-0.00012847785929692712
0.00013070866004116777
4.279376202304119e-05
-4.303323305826501e-05
-0.00013094776006727926
0.00012663167086035543
4.165514096765577e-05
-4.131915608635017e-05
-0.00012625196979265674
0.00011283814017720717
3.713178210884571e-05
-3.687700342197564e-05
-0.00011258811952064018
8.043584448047536e-05
2.633994047152033e-05
-2.65876196021142e-05
-8.071007709559153e-05
3.486024981785851e-05
1.124887667758312e-05
-1.1860685095899104e-05
-3.548891650262398e-05
-1.1759991324467034e-05
-3.7898409099290653e-06
3.99009689383556e-06
1.1956485577890863e-05
-5.762309437301605e-05
-1.9055407010082348e-05
1.865520347904548e-05
5.7187259339674945e-05
-9.00233202991707e-05
-2.9521185426317764e-05
2.959660200219094e-05
9.0133121440239e-05
-0.00015181502797517732
-5.039524506256221e-05
4.9194489477655257e-05
0.00015062873622601058
-0.00017783091819534302
-5.8530358077901745e-05
5.864233026031673e-05
0.00017798830839355073
-0.00010714160667624206
-3.518542169056449e-05
3.5137228151405075e-05
0.0001071222446480391
-6.90629118463848e-05
-2.246332807498419e-05
2.31784159024917e-05
6.984220253103413e-05
-1.5186178792481186e-05
-5.065047087082775e-06
4.880853784805517e-06
1.5058264406953015e-05
4.374412573404651e-05
1.4070892702666704e-05
-1.4906182258189737e-05
-4.457722255135632e-05
0.00011257004786047187
3.712282653511867e-05
-3.6606548357798196e-05
-0.00011200720240878148
0.00018172908771307839
5.961120133624043e-05
-5.9804619883752075e-05
-0.00018190461177058914
0.00022598974985899023
7.463271884000644e-05
-7.326160503617896e-05
-0.00022451257079725284
0.0002357157186551051
7.73455309315274e-05
-7.729035859299627e-05
-0.00023560272949685324
0.0002449609028263855
8.043338142033063e-05
-8.03028940890016e-05
-0.0002448292392537854
0.00023503877723729527
7.682065385417047e-05
-7.770915143312518e-05
-0.00023595931003889126
0.00022599170292408877
7.417700670131477e-05
-7.420442500111202e-05
-0.0002259836850490582
0.00018233021826441487
5.998966667331018e-05
-5.963223480154323e-05
-0.0001819282121647281
0.0001119178301235424
3.630533665832658e-05
-3.761683612912847e-05
-0.00011324430942161179
4.504944126193511e-05
1.4959854762297553e-05
-1.4401365067306937e-05
-4.443789297248202e-05
-1.5065540339642691e-05
-5.060450209259937e-06
4.730897082694252e-06
1.470786110585598e-05
-6.986979987388953e-05
-2.303566691180814e-05
2.2805863602926024e-05
6.963924282382683e-05
-0.00010787974085696428
-3.565254110121652e-05
3.491861783905259e-05
0.00010713684398544476
-0.0001771897335433592
-5.8161270531209563e-05
5.875691577794662e-05
0.00017786208288528282
-0.0001975530521619584
-6.515585934385726e-05
6.483402755608214e-05
0.0001971917803424983
-0.00012103843795674418
-3.983610254465475e-05
3.952734398782187e-05
0.00012074862040634127
-7.967931450392207e-05
-2.606852524689174e-05
2.6452730707893224e-05
8.014030133773886e-05
-2.0456521303002795e-05
-6.7793464587628804e-06
6.642357334496474e-06
2.0322964552343947e-05
4.654722428409919e-05
1.5292083497486786e-05
-1.5176172370900964e-05
-4.63969607864545e-05
0.00012724603761182784
4.197243252113125e-05
-4.127502419504214e-05
-0.0001264557158973112
0.00022512165394839023
7.379247359307062e-05
-7.41178770078399e-05
-0.00022542558352134368
0.0003344087735052126
0.00010954925411693628
-0.00011041657968380303
-0.0003353201250669291
0.00038993329402958743
0.0001281329228040584
-0.00012777806132086011
-0.00038953192333690545
0.0003675665292538488
0.00012061808100327642
-0.00012029618546655074
-0.0003671677845490384
0.00038909646543999754
0.00012752854325603913
-0.00012816457571773743
-0.0003897069527720176
0.0003356302540269418
0.0001103013832114974
-0.00011009419180119107
-0.00033539435317714306
0.0002258499089398125
7.414611007050542e-05
-7.412472562506878e-05
-0.00022578877735301983
0.00012649820320437266
4.1545064299486345e-05
-4.139610824893669e-05
-0.0001262804641298243
4.682599483357697e-05
1.5436820043845945e-05
-1.5148118847119196e-05
-4.6469841867569084e-05
-2.0059085017343214e-05
-6.5465811611153946e-06
6.7413480806521875e-06
2.0313295497009776e-05
-7.966492155786487e-05
-2.601592821349641e-05
2.6532269459922375e-05
8.023573118326466e-05
-0.00012095347700047387
-3.970229599409292e-05
3.972666600143837e-05
0.00012103094804705172
-0.00019700381158027636
-6.485788861704256e-05
6.49220111613169e-05
0.0001971025847200547
-0.0002095237864621069
-6.893413166420004e-05
6.913518304907385e-05
0.0002097544953172381
-0.00013019638022437885
-4.284797860365508e-05
4.252791001913003e-05
0.0001298923631062321
-8.748038320061102e-05
-2.8716955119634235e-05
2.8850202899333155e-05
8.76767033417547e-05
-2.506761262321966e-05
-8.308366476472706e-06
8.148276485986372e-06
2.492514247365296e-05
4.556903393426737e-05
1.5246257690781917e-05
-1.4263785525825412e-05
-4.4514468637180116e-05
0.0001303395938687668
4.2813188067647445e-05
-4.258527435541115e-05
-0.00013002391819805226
0.00023459855438157096
7.677044155152135e-05
-7.73433922124922e-05
-0.00023514441118521745
0.00039080276270686554
0.00012859332955578173
-0.00012771307048237146
-0.00038985374571109954
0.0005883278900149502
0.00019309811060991278
-0.0001937087620971223
-0.0005889262556724173
0.0007162048855451908
0.00023536930868500727
-0.00023575464253372536
-0.0007165886288898471
0.000589348544080659
0.00019423497291892744
-0.00019240594401714883
-0.000587396113047367
0.00038945624824648917
0.00012786022480520964
-0.00012786595368324827
-0.0003894471510328956
0.00023573111559271887
7.757778712763619e-05
-7.683658075924304e-05
-0.00023492062377949985
0.00013031492620030338
4.273497997819842e-05
-4.274080829375082e-05
-0.00013028027770695116
4.5124401783558366e-05
1.4734018244200175e-05
-1.4860916536130198e-05
-4.5217875232539395e-05
-2.4474646186989357e-05
-8.042493566728925e-06
8.111655097065018e-06
2.4600626217341492e-05
-8.639506014535003e-05
-2.80865907096306e-05
2.9056321202036717e-05
8.748187236312654e-05
-0.00012969950305735667
-4.234981093065304e-05
4.306935876347007e-05
0.0001305170912320186
-0.00020964142264373598
-6.917832881170316e-05
6.877076991079756e-05
0.00020927127837666593
-0.0002135972049021051
-7.021233290493978e-05
7.064364800868361e-05
0.00021414713096290505
-0.00013288383687126704
-4.335454714310405e-05
4.419705058456014e-05
0.00013382689689633853
-8.914256374004115e-05
-2.92131231111048e-05
2.947891230786759e-05
8.945132033089109e-05
-2.6677144248532514e-05
-8.39911215655409e-06
9.610328417619662e-06
2.8020057812216947e-05
4.343536383544233e-05
1.3704258336799668e-05
-1.5269221725788817e-05
-4.5029106597871404e-05
0.00012906387451344647
4.21544270633456e-05
-4.2643514372553426e-05
-0.00012954428321310107
0.0002463658494878951
8.122974206831168e-05
-8.007450178720843e-05
-0.0002451365972974129
0.00036735634639101233
0.00012045307644747982
-0.00012041891434227958
-0.00036725152923111626
0.0007158650372301456
0.00023510395606307632
-0.00023597484973414407
-0.0007167939637716114
0.0008044116404904988
0.00026310122136868896
-0.0002670297304525615
-0.0008082277532943105
0.0007153628798942102
0.00023490129296133144
-0.0002358883212669194
-0.0007164189063343374
0.0003678812469706805
0.00012088287397277186
-0.00012007384263357235
-0.00036697913391264825
0.00024531264110655426
8.068989477533206e-05
-8.01052507244937e-05
-0.0002446521059843443
0.00012901847068513828
4.221319021330272e-05
-4.246445739047866e-05
-0.0001292293067083894
4.3907914232477196e-05
1.4237855595899962e-05
-1.4649960258850125e-05
-4.4301430402182707e-05
-2.7302541485529908e-05
-9.095408386339265e-06
8.793786585914454e-06
2.703114970992182e-05
-9.070273638811521e-05
-2.9831747287156762e-05
2.9803468968248037e-05
9.07386318730885e-05
-0.0001328931903091246
-4.3459177564597606e-05
4.3993506210759925e-05
0.00013351843071740532
-0.00021366611952949865
-7.053394367295684e-05
7.004369121821341e-05
0.00021323235797071627
-0.00020932833847442378
-6.879069346710232e-05
6.92373858227624e-05
0.00020982902023924943
-0.00012989625597181753
-4.25677060609253e-05
4.279647637406292e-05
0.00013015732359356047
-8.815728331723616e-05
-2.9242622086589343e-05
2.8418962244813883e-05
8.728302979010838e-05
-2.5080563766599617e-05
-8.290795646792581e-06
8.225862556110464e-06
2.5087680892044162e-05
4.517005959370213e-05
1.4874436512046785e-05
-1.4623996877460854e-05
-4.4881177618583123e-05
0.00013056467720534704
4.282921442400056e-05
-4.280059691241789e-05
-0.00013049612409871125
0.00023511934310921356
7.700614855971066e-05
-7.739205477158562e-05
-0.00023548170527809553
0.0003894415942288787
0.0001278267472487049
-0.0001279300642164638
-0.0003895521581260275
0.0005880813268740459
0.00019315770471828309
-0.00019332916658831856
-0.0005882022930669972
0.0007171341379691443
0.00023617934633962667
-0.00023503398681534726
-0.0007159312741498725
0.0005890150811294625
0.00019387969340611821
-0.00019282088644589912
-0.0005879133567647798
0.00038807895935644154
0.0001266474743969459
-0.00012898039977182751
-0.0003905249173808967
0.0002351501496939412
7.745205876757977e-05
-7.648951471489474e-05
-0.0002340691520821836
0.00013048864827958084
4.274234433016e-05
-4.288737197238879e-05
-0.00013057211906902788
4.519827394849907e-05
1.4534083955075605e-05
-1.5341533692536657e-05
-4.599051707465662e-05
-2.478037702474678e-05
-7.9857491289137e-06
8.50831193860424e-06
2.5321842145153983e-05
-8.754145085354548e-05
-2.8817446197870744e-05
2.867834525055457e-05
8.74055021349851e-05
-0.00013061938912423132
-4.311221228486817e-05
4.244975255834893e-05
0.00013003072029049711
-0.00020830617662948026
-6.802427117374998e-05
6.980646649257238e-05
0.00021024918055007058
-0.00019845459198775117
-6.576729005436377e-05
6.451240286398097e-05
0.00019716758651111554
-0.00012112031940691992
-3.964956132229691e-05
3.998636662938537e-05
0.00012148945361878383
-7.944096668188738e-05
-2.592885961261171e-05
2.647330738625442e-05
8.001721540851214e-05
-1.9452544205100786e-05
-6.371280655059763e-06
6.483235054477454e-06
1.9610872244557598e-05
4.6392970201203365e-05
1.5197289518265045e-05
-1.5205528515527256e-05
-4.6356159879024084e-05
0.0001261332018051009
4.124337786831633e-05
-4.16607740584829e-05
-0.00012653421527769604
0.00022536383385685088
7.371576549941583e-05
-7.452460014267803e-05
-0.00022618287033632223
0.0003345252776738583
0.00010981092706047191
-0.00011000273628503088
-0.0003347451829761039
0.00039023673384502855
0.0001282578198724127
-0.00012782220701013092
-0.00038973347024912064
0.0003671900062832689
0.00012031599214457067
-0.00012053779957543753
-0.0003673635934645092
0.0003898746092331762
0.0001279648106041198
-0.0001280717172021939
-0.00038996296405746644
0.00033454404017507766
0.0001099353012810611
-0.00010976984058636008
-0.0003343920860917615
0.00022535270548917907
7.390516662497681e-05
-7.409770917538028e-05
-0.00022547731424665818
0.00012776450306684062
4.2323010179257103e-05
-4.10772012598426e-05
-0.0001264032328196496
4.690357326625483e-05
1.561426721291559e-05
-1.4866915427402816e-05
-4.60796437269928e-05
-2.0300441835763294e-05
-6.850890847287516e-06
6.332189667668242e-06
1.97570179312212e-05
-8.047401047114877e-05
-2.6260152993173858e-05
2.684849427159186e-05
8.111905733931835e-05
-0.00012019129275361862
-3.919612704625375e-05
4.000181176821993e-05
0.0001211004159558382
-0.00019729656086062142
-6.500155374930539e-05
6.492994245743677e-05
0.00019726753439330835
-0.00017826932477194024
-5.897485477590614e-05
5.8148099682964194e-05
0.00017740195371751533
-0.00010633102320689591
-3.453864272384699e-05
3.5639474898596646e-05
0.00010749445754931752
-6.981026558305903e-05
-2.2833430397994903e-05
2.317555048469977e-05
7.02010611383086e-05
-1.4662407241350373e-05
-4.742513245115099e-06
4.990119575665197e-06
1.4938574260825455e-05
4.4369725676618454e-05
1.4367281792215802e-05
-1.491448939611173e-05
-4.487321476637218e-05
0.00011271181687905196
3.680103279141145e-05
-3.7388940392790726e-05
-0.00011325644135040669
0.00018240091062088348
6.016597222624487e-05
-5.934476785396381e-05
-0.0001815191491275625
0.00022493249104282853
7.344657148788958e-05
-7.46448626705587e-05
-0.00022616509884143543
0.00023618899071048416
7.794708647312909e-05
-7.654498546472155e-05
-0.00023469313810414727
0.0002451550638481459
8.037959853468557e-05
-8.059413212063715e-05
-0.0002453459324264773
0.00023452180781025067
7.697512452403688e-05
-7.684800119833746e-05
-0.00023434252877257977
0.0002259884786216526
7.41940095289606e-05
-7.417526417391462e-05
-0.00022594301742306921
0.00018226113765346108
5.9931644949884344e-05
-5.968339203205053e-05
-0.00018197811453363189
0.00011274698575380881
3.679992132815668e-05
-3.743259080818406e-05
-0.00011335475480911406
4.4646801073550124e-05
1.4773879729007566e-05
-1.4368506862677544e-05
-4.4176374629334436e-05
-1.4783578459992563e-05
-5.047341654657034e-06
4.489152101161409e-06
1.4224651768673935e-05
-6.937903772044618e-05
-2.272720193999267e-05
2.2968164225006804e-05
6.968418703934276e-05
-0.00010802037766849404
-3.582439377339264e-05
3.4715645892358094e-05
0.00010689727709314867
-0.00017777785927250433
-5.87875068901178e-05
5.803806954210455e-05
0.00017699681404606538
-0.0001513486910788009
-4.984593599322018e-05
4.98126751440342e-05
0.0001513018537181443
-8.956984929253675e-05
-2.9339604494582616e-05
2.94985201200193e-05
8.973653124932923e-05
-5.700246446338486e-05
-1.86494215946853e-05
1.8898875396078374e-05
5.7314996499302495e-05
-1.2011338718087572e-05
-4.040118872450371e-06
3.751793325623698e-06
1.1745885961367275e-05
3.493204791282789e-05
1.1996335431474492e-05
-1.0377921231596865e-05
-3.3193446016321904e-05
8.020747647224935e-05
2.6314671575822235e-05
-2.6374710257681677e-05
-8.021572435656932e-05
0.00011288086800675945
3.706305601136606e-05
-3.703813064470651e-05
-0.00011281592264578144
0.00012634975860126296
4.15720179152701e-05
-4.1198429260091984e-05
-0.00012591271419526429
0.00012990156034897726
4.2412109832024036e-05
-4.2990738568726705e-05
-0.00013047001144450565
0.0001289571161626757
4.252738911358911e-05
-4.175913049075941e-05
-0.00012810566770199427
0.0001305269422572919
4.267374875860375e-05
-4.3087600653968217e-05
-0.00013093022540799915
0.00012619144973902152
4.141444572242081e-05
-4.1366579147605886e-05
-0.00012610833055642923
0.00011304973531622853
3.708070379437878e-05
-3.7168123494135674e-05
-0.00011309442934259728
8.070583311367563e-05
2.6728318562013742e-05
-2.6036778850963005e-05
-7.994727225352216e-05
3.458480604040526e-05
1.1362067360937145e-05
-1.1337628909258157e-05
-3.4524598290397446e-05
-1.1455930211651255e-05
-3.530578552096708e-06
4.244788607193906e-06
1.2249103249206694e-05
-5.7793290288515875e-05
-1.936355867204753e-05
1.8236184387926402e-05
5.667491125377344e-05
-8.944736774380013e-05
-2.9298500027613583e-05
2.947760163155011e-05
8.967313616695116e-05
-0.00015191466976793855
-4.993792656332596e-05
5.020933181892895e-05
0.00015221126890158088
-0.00012044149508416702
-3.951165041993221e-05
3.995330065043046e-05
0.00012091058051655335
-7.217923400359982e-05
-2.392300777509515e-05
2.3184292202271806e-05
7.14111214016322e-05
-4.7946349736815996e-05
-1.5778226237328496e-05
1.56865749596502e-05
4.788353263329714e-05
-1.582565865304586e-05
-5.467993561492079e-06
4.6100947599381215e-06
1.493457295120848e-05
1.3361059222727345e-05
4.299481226710533e-06
-4.596445293103546e-06
-1.3661634040540438e-05
3.401121025836673e-05
1.0995548194836502e-05
-1.1521051069329769e-05
-3.45426797206394e-05
4.4191023313877587e-05
1.4459489244389445e-05
-1.4560473685309994e-05
-4.42606713271787e-05
4.586266016082252e-05
1.4742684126600736e-05
-1.5616958333908304e-05
-4.674930425541124e-05
4.438477770279947e-05
1.4343150966378282e-05
-1.4917931280722385e-05
-4.494892920409166e-05
4.472391917542673e-05
1.4792106331096289e-05
-1.4337482216242314e-05
-4.420926402354253e-05
4.4780648833619985e-05
1.4800198630260386e-05
-1.4392063517110198e-05
-4.434635477490456e-05
4.69758718452673e-05
1.5201197436698344e-05
-1.5810369648205924e-05
-4.7607256274728726e-05
4.3454917245472346e-05
1.3820132151731723e-05
-1.514654057627185e-05
-4.483672145197404e-05
3.4559722166538354e-05
1.1542330433877979e-05
-1.0944714172095305e-05
-3.3905976048270725e-05
1.3960309568267215e-05
4.783550445947027e-06
-4.183218568210023e-06
-1.3278700364494078e-05
-1.5941639960465048e-05
-5.5938985363546134e-06
4.492896746643993e-06
1.4847050516908489e-05
-4.7715085811111946e-05
-1.5583632350546495e-05
1.5842633238366544e-05
4.79995687650836e-05
-7.203154820872859e-05
-2.375760584172326e-05
2.3371186439552494e-05
7.162330806520512e-05
-0.00012061952299655121
-3.936145696295523e-05
4.043264336639485e-05
0.0001217294223687937
-8.867101985454706e-05
-2.9152246665553605e-05
2.9268635584722702e-05
8.880939521138664e-05
-5.3907282991039196e-05
-1.7245762129691755e-05
1.856146004364234e-05
5.528837348012239e-05
-4.0957617382764155e-05
-1.3438412390431864e-05
1.343256060326592e-05
4.0942047925707215e-05
-2.4683046631612804e-05
-7.99742376517143e-06
8.273626706967185e-06
2.4970697723503132e-05
-1.5126424261380222e-05
-5.0307588957410054e-06
4.802972648543236e-06
1.4897811547509576e-05
-1.1822394784755108e-05
-3.7468504489601706e-06
4.149593419933151e-06
1.2250768760768693e-05
-1.416057119840719e-05
-4.531741717384019e-06
4.927537448684571e-06
1.4616456099347808e-05
-2.0044950134912032e-05
-6.4915844686930235e-06
6.842473182555597e-06
2.0468869742551465e-05
-2.4117817688684706e-05
-7.687826752644789e-06
8.466659305261803e-06
2.495847824351971e-05
-2.7336757624341068e-05
-9.182400063700857e-06
8.642334869357615e-06
2.6802386028534908e-05
-2.5145536363457843e-05
-8.207139687577136e-06
8.422372232141928e-06
2.5366785554592486e-05
-2.0024515477556903e-05
-6.6384024853261e-06
6.501490669941212e-06
1.990163373016829e-05
-1.3894512843531936e-05
-4.152362634596285e-06
5.450503834963927e-06
1.531351384079227e-05
-1.2608163342670009e-05
-4.426658950340556e-06
3.567319969671745e-06
1.175505259382037e-05
-1.5955079470469924e-05
-5.376265447415429e-06
4.943414256636247e-06
1.5533636341519275e-05
-2.4400034794175296e-05
-7.730612696127404e-06
8.554608531580188e-06
2.530046806831221e-05
-4.125160826418117e-05
-1.359552754431892e-05
1.3420721410667413e-05
4.108781614459156e-05
-5.494724592869371e-05
-1.8192079788925675e-05
1.765306273963929e-05
5.436147523213419e-05
-8.878903756531775e-05
-2.9340914327519174e-05
2.8975667546504713e-05
8.837905287709114e-05
-5.871815931635105e-05
-1.9532429784252514e-05
1.887428722791018e-05
5.802394796827759e-05
-4.17408920800888e-05
-1.4197612052568864e-05
1.2603710576875038e-05
4.0023551253542955e-05
-3.979757390187855e-05
-1.2877697883884043e-05
1.3391191865663732e-05
4.0277693140244875e-05
-4.080875492956659e-05
-1.3275815128221957e-05
1.3620223605903536e-05
4.116870162490516e-05
-4.763419115061396e-05
-1.543023221295403e-05
1.609678819347593e-05
4.838532147688479e-05
-5.7925381325929504e-05
-1.9086466472639785e-05
1.891751843469125e-05
5.777136168300112e-05
-6.922777474854813e-05
-2.2768494031877307e-05
2.272557025478905e-05
6.923479592529924e-05
-8.006153679035455e-05
-2.6044068831720946e-05
2.6905835154356073e-05
8.105572443045661e-05
-8.810837812561756e-05
-2.9230370295452168e-05
2.8424796465309488e-05
8.731675047174425e-05
-8.9902613482018e-05
-2.9373025020318355e-05
2.9919554624613376e-05
9.050512047603654e-05
-8.81935239222531e-05
-2.9215695802997654e-05
2.8524946819319386e-05
8.748998076585357e-05
-8.027796178261548e-05
-2.633765228710061e-05
2.6511793090794322e-05
8.053125458182264e-05
-6.855719059101206e-05
-2.218782683552356e-05
2.325337263112126e-05
6.974406587120785e-05
-5.7973828013535567e-05
-1.919455267224146e-05
1.8746869950653222e-05
5.7532639706758815e-05
-4.773042836897501e-05
-1.5736682383998835e-05
1.5544260416638922e-05
4.754324740172122e-05
-4.0916694672848974e-05
-1.3351897278940372e-05
1.3588561601773907e-05
4.1193132714778535e-05
-4.049250393545201e-05
-1.3185086273487245e-05
1.3503957540877964e-05
4.085274542066364e-05
-4.1437293290411126e-05
-1.3869076619890675e-05
1.3002330393682704e-05
4.054613069812141e-05
-5.78111363949696e-05
-1.888673092681481e-05
1.9285373742863876e-05
5.822846128152037e-05
-3.197109692620881e-05
-1.0711299604060365e-05
1.0070673064133118e-05
3.131477053652798e-05
-3.096417238046545e-05
-1.0352710199335036e-05
9.701436355480375e-06
3.0281030069301273e-05
-4.056096034110723e-05
-1.2817818717369978e-05
1.427406001752729e-05
4.2084870469250024e-05
-5.5597489732661654e-05
-1.8404660573789755e-05
1.791670239248422e-05
5.515333491651342e-05
-7.166370608657768e-05
-2.361325870037234e-05
2.334541303750104e-05
7.148111653287881e-05
-9.012507430500305e-05
-2.9573201902388657e-05
2.959406842562018e-05
9.017862086690975e-05
-0.00010743504025240158
-3.537099746370176e-05
3.504019710581785e-05
0.0001070972145473803
-0.00012152769963275079
-3.9987342521086156e-05
3.974054932781579e-05
0.00012136393606609897
-0.000129798947018811
-4.262952116684815e-05
4.2605036537690655e-05
0.00012986858047492333
-0.0001332933193853858
-4.3542709273480806e-05
4.420465196119938e-05
0.00013401062625750804
-0.00012974201209747793
-4.278765448906263e-05
4.218830813107477e-05
0.00012914708822525656
-0.00012087586886411206
-3.940808085242664e-05
4.0257382802888486e-05
0.00012182572151198112
-0.00010783092509827896
-3.574444389567444e-05
3.467489883232644e-05
0.00010672489587115752
-9.065316375619914e-05
-2.9804697555979587e-05
2.9641881609643317e-05
9.049463430574334e-05
-7.095889007799339e-05
-2.3149887199036545e-05
2.356657107524529e-05
7.14529582669654e-05
-5.4374188448877425e-05
-1.7751008423202985e-05
1.8013958404686226e-05
5.469461144470833e-05
-4.2119287030767394e-05
-1.4134840981880337e-05
1.3141741140101915e-05
4.1086565854220325e-05
-2.9588058145291196e-05
-9.085690343843544e-06
1.0916098438826238e-05
3.1508486999606844e-05
-3.330882252226136e-05
-1.1252672226264027e-05
1.0295855686667799e-05
3.2293449544903985e-05
-1.6860074345759202e-05
-5.4064029630929156e-06
5.7819112059265265e-06
1.727987369637418e-05
-3.1882041623743085e-05
-1.0048306719356859e-05
1.1355938137280752e-05
3.328260035628805e-05
-5.8472451196556197e-05
-1.9565455494918726e-05
1.857921487508074e-05
5.7484266580254406e-05
-8.903271355487075e-05
-2.924822895838952e-05
2.9431341899144314e-05
8.923254854298346e-05
-0.00012066975799707169
-3.9530437844825794e-05
4.014048048617269e-05
0.00012130685465033819
-0.00015201603295805777
-5.027765804194173e-05
4.9612340893845364e-05
0.00015133322673327454
-0.00017771651808756728
-5.8518598880619166e-05
5.852838175834929e-05
0.0001777245747795475
-0.00019690867249178012
-6.462321095956902e-05
6.530745304494934e-05
0.00019765945204985869
-0.00021071599739169722
-6.959633744779703e-05
6.897690324636496e-05
0.0002100850080589689
-0.000214546489715417
-7.080396629599583e-05
7.034350886064855e-05
0.00021408087653074226
-0.00021024215906662036
-6.905714824112508e-05
6.962799061294156e-05
0.00021090242828841754
-0.00019783083847821348
-6.527113859342015e-05
6.490625585373055e-05
0.00019748305644542996
-0.00017714366191573516
-5.843363556451431e-05
5.8125884040499676e-05
0.00017682482823186407
-0.0001511663632093596
-4.945498328209896e-05
5.045796677985437e-05
0.0001522501573285595
-0.00012102908856520544
-4.003092391227647e-05
3.9498399739906764e-05
0.00012051708820068341
-8.894524120142688e-05
-2.9344445652584872e-05
2.9165317348478492e-05
8.880297126695469e-05
-5.839485514970433e-05
-1.9165905953591467e-05
1.930264687048655e-05
5.853505674578707e-05
-3.2092460314964155e-05
-1.0347143263519931e-05
1.0921991832196776e-05
3.2667269404033916e-05
-1.8275264288214466e-05
-6.2512883130735886e-06
5.446029154539123e-06
1.7398533566054253e-05
SCALARS strain23 float
LOOKUP_TABLE default
-3.4117441306547036e-06
-3.434505376764818e-06
3.390116839738222e-06
3.3999102495574363e-06
-3.3277382804897115e-06
-3.3227103939381664e-06
3.4405187034763918e-06
3.4497125667165562e-06
-4.613948992759909e-06
-1.0968091011642755e-05
-1.9708713328348004e-05
-2.9696921758803896e-05
-3.986999110050515e-05
-4.919679532489063e-05
-5.706559551243995e-05
-6.288482876548596e-05
-6.661623609938161e-05
-6.775600090147549e-05
-6.666171544222887e-05
-6.299239053908501e-05
-5.705533965405518e-05
-4.919527399360746e-05
-3.985211223833662e-05
-2.9759013095875808e-05
-1.97018631294954e-05
-1.0977892606622852e-05
-4.640665630328833e-06
1.2569411322882473e-07
7.485147963670613e-07
8.682923250402652e-07
1.0542575193950299e-06
1.025453520708819e-06
8.592222389136595e-07
6.838994257574171e-07
4.827900494386306e-07
2.6538561065381217e-07
-3.7791825169275484e-08
-1.8146984492872775e-07
-4.5261831604914704e-07
-6.774687824062653e-07
-8.836046398730257e-07
-9.428004316414107e-07
-8.697980651839465e-07
-9.218595709153954e-07
-7.226154142350727e-07
-1.718718893248261e-07
4.649048922809179e-06
1.097028849574716e-05
1.9669658373147603e-05
2.9644878498297222e-05
3.971576688474587e-05
4.909935874297666e-05
5.700670969016608e-05
6.290517748430702e-05
6.654477781997681e-05
6.76923467252677e-05
6.649949188441973e-05
6.295976783177171e-05
5.696188045417605e-05
4.909730567337345e-05
3.987836968760705e-05
2.970065196850058e-05
1.9628337698196496e-05
1.0902095975762194e-05
4.570741568454828e-06
-1.680316983332375e-07
-6.635116096553872e-07
-9.079063053585301e-07
-8.932249652149338e-07
-9.698897683874108e-07
-9.062102551693485e-07
-6.841916234678891e-07
-5.016192613505055e-07
-1.2721647735247643e-07
1.4121766467312113e-07
3.0127720684891557e-07
5.949277729344615e-07
7.327154724068308e-07
9.165529348820201e-07
9.715339248650423e-07
9.441563993961566e-07
9.069097620661992e-07
7.949745011170961e-07
1.6526208368450312e-07
-4.566717597409564e-06
-1.0949202008059267e-05
-1.967551673875967e-05
-2.9806670823528947e-05
-3.988443093672078e-05
-4.922406159468817e-05
-5.709855255342511e-05
-6.28803635415176e-05
-6.651945409241744e-05
-6.771468550537119e-05
-6.66502527493229e-05
-6.29261225845168e-05
-5.7073066633495095e-05
-4.925363259400406e-05
-3.993414863379119e-05
-2.9752131006421934e-05
-1.9792649362249115e-05
-1.1076876609616981e-05
-4.687319212992591e-06
1.519272234684621e-07
8.075895882031503e-07
9.627136948742177e-07
1.021769093556557e-06
9.37572422865518e-07
7.921410115074856e-07
6.336032231657462e-07
3.8244867600623067e-07
2.5440539158649855e-07
1.6328817742383706e-09
-2.4441676110820154e-07
-4.486991305729937e-07
-7.026516692099083e-07
-8.945512768587793e-07
-9.228844715103435e-07
-9.215837027676255e-07
-9.625612997082866e-07
-8.070373864604852e-07
-1.711234029477815e-07
4.684495594105276e-06
1.0950071926044136e-05
1.9718476469227086e-05
2.9870035580803478e-05
3.97800848780383e-05
4.924258259908498e-05
5.708956568106771e-05
6.293323585881971e-05
6.65424978379403e-05
6.768487364022802e-05
6.655106317221549e-05
6.300326184205396e-05
5.700866608415733e-05
4.9058355560349654e-05
3.9837698823042e-05
2.9751454594051374e-05
1.9791446340677865e-05
1.095663572936445e-05
4.611669918386241e-06
-2.2012134714977094e-07
-7.756082014420684e-07
-9.321921621285867e-07
-1.0186458012650945e-06
-9.789554520356347e-07
-8.464519987150254e-07
-6.300715189588857e-07
-4.436112005512527e-07
-1.0118961768501578e-07
5.547824177831728e-08
3.348507200406914e-07
5.890141533404503e-07
7.163009144717236e-07
9.693320186521248e-07
9.710335996393482e-07
9.82834962526269e-07
1.0333301952991647e-06
8.110136819894365e-07
2.4988641977863324e-07
-3.393081580482793e-06
-3.3755567891979865e-06
-3.3588732185618753e-06
-3.3429395225326175e-06
-3.41000607395614e-06
-3.386735463961621e-06
-3.3643828948326515e-06
-3.3430366950248924e-06
3.397718526389898e-06
3.406568622209283e-06
3.41656329925534e-06
3.4278209892161376e-06
3.407435290370131e-06
3.416188421589972e-06
3.4260678846154136e-06
3.4371678094835545e-06
1.4035872680784323e-06
4.169400066755813e-06
4.6298421612078755e-06
5.262106327008631e-06
4.919002318914956e-06
4.354681466645083e-06
3.5594132198335515e-06
2.4508281306623303e-06
1.2382602461169512e-06
-4.135954800865704e-08
-1.2459660684305263e-06
-2.3992346719348134e-06
-3.502674952859941e-06
-4.41454040156497e-06
-4.951698189703535e-06
-5.1859522792740975e-06
-4.624246623396999e-06
-4.189509851482143e-06
-1.426554954719883e-06
-1.9676057327888685e-06
2.1784167638649876e-06
9.967576445335524e-07
1.9677753749780535e-06
1.93392548297755e-06
1.8913369470574537e-06
1.5123800437555346e-06
1.1174483309783767e-06
5.486508259933132e-07
4.2289594825994925e-08
-5.819947184182439e-07
-1.1907193770976932e-06
-1.5604625337450884e-06
-1.867254904364124e-06
-1.9525026965228065e-06
-1.9858728255162106e-06
-1.0019310181519359e-06
-2.190523976430825e-06
1.988905694805254e-06
-4.610511843972098e-06
3.0583298906705636e-06
2.9855222882790855e-07
2.0975592741612203e-06
1.980553946956398e-06
2.1629793255373286e-06
1.8341392414855662e-06
1.3731796575378041e-06
7.324189074120468e-07
-2.433694801240449e-09
-7.331584161995863e-07
-1.3412158660353057e-06
-1.9073316487316916e-06
-2.1217892028913e-06
-2.0168587958613315e-06
-2.092589849844728e-06
-3.1209191364567346e-07
-3.0598811632254197e-06
4.580403427323354e-06
-7.821501134430697e-06
3.496293713656229e-06
-1.310854871316991e-06
1.1536592890992736e-06
1.092518042478119e-06
1.755137489234393e-06
1.6944288099285387e-06
1.37168022429357e-06
6.828434828687335e-07
-1.4786445734493725e-08
-7.136818602759831e-07
-1.3366614930454546e-06
-1.6874785250253765e-06
-1.7634148841150221e-06
-1.0808794318473147e-06
-1.100687016919455e-06
1.2886127054301255e-06
-3.432287074389695e-06
7.746026001897999e-06
-1.0719572720141457e-05
4.169319947733285e-06
-2.6066739866603683e-06
2.027007517391155e-07
-2.339567691800326e-07
1.2802374721454512e-06
1.7716028875014445e-06
1.508777521253002e-06
9.141725632044739e-07
2.1819370976672303e-08
-8.711015745399564e-07
-1.5382100547745026e-06
-1.726849467642566e-06
-1.2819895429672101e-06
2.0904995540194093e-07
-1.968682837860669e-07
2.5932622628177526e-06
-4.204547924602231e-06
1.0695740215949101e-05
-1.3188023854637798e-05
4.924381007964662e-06
-3.7761746969344756e-06
-5.164752403530315e-07
-1.760578553944292e-06
-5.754279166492182e-07
1.6895129137939335e-06
2.020321757223442e-06
1.270686826204681e-06
2.0336121675512686e-08
-1.3170400935402782e-06
-2.035461799498872e-06
-1.642819169367371e-06
4.957237272895654e-07
1.7851037450444807e-06
5.023102387924361e-07
3.7855033073186384e-06
-4.868900194077153e-06
1.3232418475339625e-05
-1.527570026360614e-05
5.516964342922037e-06
-4.5993534334431985e-06
-1.1131495257776791e-06
-2.7334071134310634e-06
-2.881779817331953e-06
-1.7506788622112524e-06
3.909802353985192e-06
1.6773004245518308e-06
2.6731466040708085e-08
-1.6969617868123343e-06
-3.818449482995145e-06
1.6805810665321275e-06
2.893235418466311e-06
2.6781586918156464e-06
1.1288121439245735e-06
4.647075341757123e-06
-5.484489820406502e-06
1.52277962484626e-05
-1.6721282637965906e-05
6.048447456330486e-06
-5.197553044178349e-06
-1.4192828398096324e-06
-3.4834174927889094e-06
-3.2137447647517803e-06
-6.303236203097917e-06
-3.915414058086597e-06
9.977480268208438e-06
-5.2093706182088084e-08
-1.00505568548237e-05
3.911915423981949e-06
6.363364406625216e-06
3.1778683779459804e-06
3.5470750285870878e-06
1.365699867528214e-06
5.156188979560383e-06
-6.070939206181958e-06
1.6647678154402268e-05
-1.7592547830624916e-05
6.365365434302106e-06
-5.430098646841408e-06
-1.605371482749085e-06
-3.612513551520813e-06
-4.944269119899758e-06
-2.5171532668233354e-06
-1.6474883735573265e-05
-5.14538355755878e-06
-5.819052517619383e-09
5.1677195255228625e-06
1.646440618929823e-05
2.5266609816609886e-06
4.908222206556623e-06
3.640963025908217e-06
1.616307366059111e-06
5.5370372722962635e-06
-6.388594131323533e-06
1.7550941539823395e-05
-1.7921927065289722e-05
6.609692339010209e-06
-5.684056401666915e-06
-1.2578307979627112e-06
-5.0531264793596264e-06
-4.774366093585058e-07
-1.7920866420051418e-05
2.7532264239960025e-05
-0.00010131835802401623
1.8565698978179057e-08
0.00010128767205724865
-2.756531936098927e-05
1.7891479509257735e-05
4.3796307630517006e-07
5.020863304505685e-06
1.2972672726596635e-06
5.757869864675413e-06
-6.507575783243347e-06
1.7851951259528764e-05
-1.753312031105292e-05
6.415048887098429e-06
-5.498472377851726e-06
-1.6092582109106246e-06
-3.6302875283666936e-06
-4.931911862626759e-06
-2.5239024592504933e-06
-1.651510366212916e-05
-5.143959240005991e-06
3.1140033884824447e-09
5.138209294486273e-06
1.6500828002086187e-05
2.4743631324430915e-06
4.912618172092653e-06
3.6524948210936437e-06
1.602608335815603e-06
5.485921479086997e-06
-6.403149400979746e-06
1.754825273631022e-05
-1.668023470158264e-05
6.017372362610018e-06
-5.139698829204065e-06
-1.418443649647827e-06
-3.520326529171669e-06
-3.1795996706662777e-06
-6.347891526259364e-06
-3.939709089628707e-06
1.00434775934799e-05
-1.1385940135166805e-08
-9.94835202766664e-06
3.916785585478255e-06
6.334175655320351e-06
3.1942054679046095e-06
3.5748905162780176e-06
1.34717692357178e-06
5.2165359360478725e-06
-6.053810453460207e-06
1.670879649490198e-05
-1.527346314145195e-05
5.527465647414687e-06
-4.582943953779228e-06
-1.0598615401979927e-06
-2.7463922230297477e-06
-2.914491491812221e-06
-1.7269851181889173e-06
3.888204379742799e-06
1.6784332425023862e-06
4.9684111991243896e-08
-1.6630793813199318e-06
-3.845211652919733e-06
1.703286583554231e-06
2.9034974762809362e-06
2.6994018137438403e-06
1.0692752406005201e-06
4.596570886195028e-06
-5.564171792371564e-06
1.5219136697691704e-05
-1.321393273800986e-05
4.9614902061234645e-06
-3.7571949497161583e-06
-5.461429117836758e-07
-1.8368515721789436e-06
-5.261640702025616e-07
1.6737884792616953e-06
2.0481950888107114e-06
1.2606757738287122e-06
2.3385915370877086e-08
-1.2551862150211868e-06
-2.066369577224947e-06
-1.7057736381720368e-06
5.261967448155769e-07
1.7590779735898732e-06
5.803610486354582e-07
3.805292931424731e-06
-4.8692697297569865e-06
1.3203139290679511e-05
-1.060179593836974e-05
4.19160693598819e-06
-2.6391946135184696e-06
2.621992153395425e-07
-1.3304910473355136e-07
1.2788208220704256e-06
1.703707463829307e-06
1.5439254072435737e-06
9.110786158283979e-07
8.419293207051481e-09
-9.14896887971306e-07
-1.519857676657299e-06
-1.72331580500229e-06
-1.2876001589112729e-06
1.423012457590911e-07
-3.147272567560755e-07
2.6605744651297947e-06
-4.20398732078886e-06
1.06837311371899e-05
-7.761518851512328e-06
3.4817458245406385e-06
-1.3219480237136594e-06
1.0671768939096715e-06
1.061001951518925e-06
1.740609433309448e-06
1.7373307577006614e-06
1.3050301050920865e-06
7.039175548007037e-07
1.3235796958444013e-08
-7.581616326968188e-07
-1.3904932000818881e-06
-1.6782801942338832e-06
-1.7763029201145475e-06
-1.0783024904092997e-06
-1.1143495685372873e-06
1.3877186799682306e-06
-3.4545194346757846e-06
7.815347312284393e-06
-4.5898925568055304e-06
3.062115056517989e-06
2.9019514435901783e-07
2.033748630503318e-06
1.938347078844771e-06
2.1662408389855337e-06
1.8900596002735526e-06
1.328120511234765e-06
7.50201947175011e-07
-6.563442700446842e-08
-6.7114233037735e-07
-1.3882313764645993e-06
-1.86737232066303e-06
-2.2140489982502842e-06
-1.9765879493705008e-06
-2.0696804848008288e-06
-2.9975362046685827e-07
-3.0666446075300335e-06
4.593995017787567e-06
-1.9487933748951747e-06
2.2087427757888634e-06
1.0076980397899504e-06
2.0322360871904976e-06
1.9427540970951007e-06
1.9194489605522946e-06
1.518425866042783e-06
1.1501143099001965e-06
6.172877082266659e-07
3.856124586310017e-09
-5.610126223576373e-07
-1.1374488998461274e-06
-1.5987049632459893e-06
-1.9125701864186606e-06
-1.9413669032630754e-06
-2.011443082039488e-06
-1.057260635844992e-06
-2.185020090569867e-06
1.994783605158146e-06
1.4357187110292102e-06
4.1774745612732644e-06
4.6508832386438215e-06
5.171233402656572e-06
5.016687378067708e-06
4.379610153926183e-06
3.4863445281807515e-06
2.4682818808297036e-06
1.2286898488089726e-06
-4.214653970269211e-08
-1.244949866696654e-06
-2.40269798870707e-06
-3.505062744213472e-06
-4.374541456769743e-06
-4.94783733337445e-06
-5.214501837588759e-06
-4.655951976559325e-06
-4.112297532471443e-06
-1.4567459343597933e-06
1.543928328073818e-06
4.1296874895291324e-06
4.620045179426491e-06
5.174700348997696e-06
4.977425580143802e-06
4.382866342966807e-06
3.5021146900238165e-06
2.418508451507151e-06
1.2148425068136959e-06
-1.520593317927421e-08
-1.2627704422119024e-06
-2.4289398966592657e-06
-3.502069124361462e-06
-4.360159656435769e-06
-4.936412229872289e-06
-5.224157199945623e-06
-4.598755795837128e-06
-4.166761294110977e-06
-1.4107852099876084e-06
-1.933146886790027e-06
2.150881569074059e-06
1.010171702509055e-06
1.977206432801637e-06
1.8743621307271141e-06
1.9012959915354344e-06
1.5908328960811957e-06
1.1348352850770738e-06
5.807114483724618e-07
8.44513758924137e-09
-5.866600625292762e-07
-1.107865481464465e-06
-1.617211573989863e-06
-1.867338516148287e-06
-1.9210049300166787e-06
-1.960188246163952e-06
-9.70463951532885e-07
-2.176107724571885e-06
1.9360176537475127e-06
-4.599704415575445e-06
3.0351896574964954e-06
2.873138607029091e-07
2.020315700956843e-06
1.9461493675487773e-06
2.197951250226815e-06
1.8757515521938828e-06
1.3671261895886744e-06
7.667433572500215e-07
-4.910644779698714e-09
-6.877717116937632e-07
-1.410426088366279e-06
-1.8859821339090033e-06
-2.192960629643359e-06
-1.924596100932874e-06
-2.052984470424235e-06
-2.6829138533024377e-07
-3.053078695192113e-06
4.709491309928815e-06
-7.807932089543002e-06
3.4833080637675096e-06
-1.3403373522180573e-06
1.0872810346507222e-06
1.0124512829223775e-06
1.7450295489718215e-06
1.7054969579932688e-06
1.3147421599191134e-06
7.482200274910866e-07
5.5926342557022224e-08
-7.187462444102621e-07
-1.3448639972768461e-06
-1.626683274524865e-06
-1.7474282946183806e-06
-1.040643585747958e-06
-1.1169510965025609e-06
1.397719493700933e-06
-3.4776906602251856e-06
7.73217056626585e-06
-1.0708979883089498e-05
4.240213305362062e-06
-2.6313861284377182e-06
2.2581162661960974e-07
-1.554520880908683e-07
1.2440203258634597e-06
1.7742953400956551e-06
1.5091495935148913e-06
8.919525222861324e-07
-8.922502292563195e-09
-9.177925177628055e-07
-1.606084876759617e-06
-1.7818153212889598e-06
-1.2652428151849193e-06
2.0195311389858972e-07
-2.0503415376627032e-07
2.6619044015130378e-06
-4.19331369311271e-06
1.0722055939049735e-05
-1.3236163998842088e-05
4.87276721505836e-06
-3.7855384648066703e-06
-5.456450091756437e-07
-1.7978474443625103e-06
-4.801449645652767e-07
1.6768153685564613e-06
2.048010244948273e-06
1.310363036965967e-06
-2.4640257501040708e-08
-1.2782254728560538e-06
-2.0437919854843223e-06
-1.6494175161807512e-06
5.569139192584949e-07
1.7224218566425087e-06
5.546643932485829e-07
3.742874057244272e-06
-4.907043758939356e-06
1.3294222613646767e-05
-1.533647881490907e-05
5.574842536049118e-06
-4.583232282251437e-06
-1.058696034950124e-06
-2.741835753550248e-06
-2.8940351101125472e-06
-1.743241411555907e-06
3.710669094769692e-06
1.8543537541049204e-06
1.2545667615881939e-08
-1.8300536562265712e-06
-3.7698673038821795e-06
1.7216547039677899e-06
2.9743239883806005e-06
2.7025903158728326e-06
1.0805081672726757e-06
4.535714466402663e-06
-5.521178287060113e-06
1.5241182407088605e-05
-1.668877258531598e-05
6.0953318602452455e-06
-5.2090337142596255e-06
-1.3497225105352229e-06
-3.5966610220095063e-06
-3.208733675319486e-06
-6.4023206370888985e-06
-3.6071858546815605e-06
9.357169804102838e-06
3.40341269611244e-08
-9.408728448290216e-06
3.6443397394836374e-06
6.416437964007482e-06
3.1754157250318826e-06
3.5629625206867743e-06
1.4251322510983044e-06
5.147329188215366e-06
-6.059984794415385e-06
1.6747505920344796e-05
-1.7546801512113852e-05
6.383896900774566e-06
-5.497905621099086e-06
-1.5988612767081634e-06
-3.5468203954946986e-06
-5.063629084145482e-06
-2.0005037792980573e-06
-1.7988039520966392e-05
-1.622280083934946e-06
-2.3392855375004018e-08
1.625235441005124e-06
1.8038837195755164e-05
2.0328893478027688e-06
5.0859750981846474e-06
3.560129857027583e-06
1.5818976568660048e-06
5.463372713676584e-06
-6.402498623159225e-06
1.7600143514429067e-05
-1.790725072470245e-05
6.5156640474128835e-06
-5.701247673961518e-06
-1.1992391458770513e-06
-5.372763264288594e-06
5.578912261050561e-07
-2.1313960014535116e-05
3.793630940407411e-05
-0.00012741801073551384
-3.5783823959523176e-08
0.00012746492351212169
-3.7928508613171985e-05
2.1369542350935244e-05
-6.148246335380136e-07
5.374998753526761e-06
1.196581704832056e-06
5.72165939616287e-06
-6.536680493496316e-06
1.7824799421306547e-05
-1.756694967558481e-05
6.380410228823408e-06
-5.446492222671573e-06
-1.5870326433020665e-06
-3.6255420045039344e-06
-5.064897968531934e-06
-2.012969122111574e-06
-1.8052274107116517e-05
-1.635966681068357e-06
1.9085967362109102e-08
1.6324047973914624e-06
1.8062157297382697e-05
2.0294068966419943e-06
5.086490709849123e-06
3.5794234964914295e-06
1.5933582561689086e-06
5.4961644425088885e-06
-6.425335702164858e-06
1.7629123758577947e-05
-1.6730642894646763e-05
6.012877425631835e-06
-5.158813988770383e-06
-1.4167819172294926e-06
-3.57666725558925e-06
-3.1793905583277215e-06
-6.360285382811526e-06
-3.6248527336968372e-06
9.343253280225117e-06
-9.014649027250243e-09
-9.395453464122738e-06
3.6158616296133594e-06
6.364569923145158e-06
3.204888615382373e-06
3.5058963602230264e-06
1.4239355193845782e-06
5.169388049786061e-06
-6.059612220582489e-06
1.6673341483475212e-05
-1.5258512595206497e-05
5.541714762191674e-06
-4.615506092875421e-06
-1.0846382828555434e-06
-2.6649379940568707e-06
-2.9641182729411852e-06
-1.7353344222148515e-06
3.7951536016600507e-06
1.8708195413941198e-06
-3.8105048172365485e-08
-1.8695745603314329e-06
-3.8127059358017412e-06
1.7650449590234096e-06
2.868234903641298e-06
2.772346433477235e-06
1.0709294829269744e-06
4.6223532742251106e-06
-5.568656548604611e-06
1.5275153301907984e-05
-1.3323865433734206e-05
4.851155156360143e-06
-3.77569290266333e-06
-5.893957352176571e-07
-1.7863833495224135e-06
-5.412416246297624e-07
1.6537009105421774e-06
2.051070708941616e-06
1.3287830213370988e-06
-2.0011432289024356e-08
-1.2991944057794136e-06
-2.080473816779005e-06
-1.6143666945467317e-06
5.40428945483562e-07
1.7332756621912804e-06
5.457873324399287e-07
3.7589381805813726e-06
-4.841835533092587e-06
1.3304023509408403e-05
-1.0814817776760854e-05
4.154029951686233e-06
-2.6287663981161558e-06
1.936915375866377e-07
-1.3958672828717766e-07
1.299204438087731e-06
1.7840865723095511e-06
1.596635502365551e-06
8.644769600163471e-07
2.173001611982528e-08
-9.303322032749861e-07
-1.536173917515704e-06
-1.7276746683836386e-06
-1.2943395216180598e-06
2.1820522033699774e-07
-1.7438080168741266e-07
2.6126217414490505e-06
-4.131880882662919e-06
1.0688204364506237e-05
-7.781682425433978e-06
3.4529533154969982e-06
-1.3361800689226655e-06
1.0813978275070468e-06
1.0448866955004021e-06
1.7712474281728063e-06
1.6577828721442422e-06
1.3998244619561895e-06
7.535005823178231e-07
-3.3785222952609217e-09
-6.869142067933431e-07
-1.3366751623333784e-06
-1.6837121136481503e-06
-1.7264121414395373e-06
-1.027288965366191e-06
-1.0984772693400924e-06
1.3139630634928512e-06
-3.463929982905345e-06
7.83702983704615e-06
-4.627667428924731e-06
3.048874361533116e-06
2.482982022211644e-07
2.0984420124325887e-06
1.940089096319486e-06
2.1687183903718044e-06
1.8204178752756484e-06
1.408968989535797e-06
7.413762950214675e-07
-6.999158752574175e-09
-7.185010297838801e-07
-1.406404055714905e-06
-1.861740277470103e-06
-2.1397298982650526e-06
-1.952252267761745e-06
-1.9936414772103728e-06
-2.989816836607151e-07
-3.052508228379436e-06
4.6136900898330335e-06
-1.9743136980832077e-06
2.1735869722983026e-06
9.79791181854317e-07
1.9849283402484375e-06
1.8781440173087915e-06
1.8825086496865318e-06
1.5313677425576877e-06
1.1639212330050164e-06
5.631853631227202e-07
5.02260823487255e-08
-6.07218711923263e-07
-1.1071691248809579e-06
-1.6160213959781622e-06
-1.902683465920818e-06
-1.8137441635812657e-06
-2.0501996427779723e-06
-9.272300929563659e-07
-2.1684078525818773e-06
1.992205430165206e-06
1.4516640782780144e-06
4.1516753074288815e-06
4.598126638666322e-06
5.187157627872807e-06
4.933880367596899e-06
4.412300842637773e-06
3.528405394859213e-06
2.4159681381585862e-06
1.286624055629737e-06
-4.9827109105393674e-08
-1.2334539234992725e-06
-2.402009793622817e-06
-3.5155301107703263e-06
-4.406528060274528e-06
-4.968633648128051e-06
-5.214941959832964e-06
-4.577095346042226e-06
-4.134774766129112e-06
-1.5090131329220657e-06
-4.6208119907076295e-06
-4.620074623207238e-06
-4.610840189767096e-06
-4.592921971191544e-06
-1.0850636218528997e-05
-1.079004492954283e-05
-1.0786305504106863e-05
-1.0839466959233768e-05
-1.9423947747898573e-05
-1.9277816321161545e-05
-1.927118545808071e-05
-1.940398465227755e-05
-2.926594826069273e-05
-2.9060444939110752e-05
-2.9082200739383168e-05
-2.933130382842819e-05
-3.9258911239348215e-05
-3.895366430550773e-05
-3.895655551522381e-05
-3.9267392331843176e-05
-4.8452848282032335e-05
-4.808219512453249e-05
-4.808754603435883e-05
-4.8468929537359706e-05
-5.621571804392822e-05
-5.5792488566908105e-05
-5.579897128582534e-05
-5.6235205957877454e-05
-6.19558340616555e-05
-6.148936677519146e-05
-6.148853999365933e-05
-6.195316976376208e-05
-6.562330774928515e-05
-6.511567270472973e-05
-6.509653262398718e-05
-6.556556902204136e-05
-6.676223825330396e-05
-6.625969221829564e-05
-6.625158878736936e-05
-6.673769296938747e-05
-6.568395944117622e-05
-6.519223791401352e-05
-6.518995876658717e-05
-6.56770520103267e-05
-6.204920605401565e-05
-6.156951212055173e-05
-6.155640508109794e-05
-6.200962896663054e-05
-5.6203080618488777e-05
-5.5777183050276236e-05
-5.578066628486589e-05
-5.621353978402244e-05
-4.845564619460063e-05
-4.8090119655008756e-05
-4.810157871237841e-05
-4.8490120032829154e-05
-3.92535181682474e-05
-3.8961030938478025e-05
-3.897714784528716e-05
-3.930204931235082e-05
-2.9304970188936963e-05
-2.9076381698134313e-05
-2.9074937984541194e-05
-2.9300575249524563e-05
-1.943957547678732e-05
-1.9316823842041586e-05
-1.9334709026486152e-05
-1.949352083918665e-05
-1.0882448595150862e-05
-1.0844282364752544e-05
-1.0863804847938141e-05
-1.0941296967770242e-05
-4.663489020506617e-06
-4.679780182703652e-06
-4.689025405957281e-06
-4.691321488614619e-06
5.21200521630405e-08
1.765911183948532e-08
2.2819011347152696e-08
6.770666494126942e-08
5.728938913263093e-07
4.904140910033661e-07
5.021550901762595e-07
6.081868643148525e-07
6.430406238600028e-07
5.392010913318757e-07
5.579402850841575e-07
6.994256703807267e-07
7.705534432744798e-07
6.250128216644946e-07
6.185857290841312e-07
7.513071787479397e-07
7.299079721745372e-07
5.730580400764573e-07
5.556583760335521e-07
6.776366830441027e-07
5.950127064391353e-07
4.5588940300600456e-07
4.4258682579956243e-07
5.550648692342897e-07
4.6874694736853684e-07
3.559822325249762e-07
3.460854728909446e-07
4.3890747852826095e-07
3.1782063986129927e-07
2.2530090199035513e-07
2.054379373284121e-07
2.580563745469e-07
1.8748448210592628e-07
1.4734341641231552e-07
1.4510939799761147e-07
1.809132291752391e-07
-2.9277136492922295e-08
-2.108126145872191e-08
-1.3204039139846913e-08
-5.629843480292607e-09
-1.2045560010554013e-07
-9.604559825238113e-08
-1.0853321807946514e-07
-1.5803725783580802e-07
-3.082519496599989e-07
-2.3545808980340865e-07
-2.3468526555436853e-07
-3.0592348621016896e-07
-4.7675698042204395e-07
-3.7851393699939173e-07
-3.835067722279817e-07
-4.917904441459342e-07
-6.328275529432492e-07
-5.080254066869294e-07
-5.101734735224461e-07
-6.39341754121725e-07
-6.622842249337513e-07
-5.195640374322519e-07
-5.155872528361805e-07
-6.504200730228504e-07
-6.072189369515923e-07
-4.805188263123927e-07
-4.907423991618032e-07
-6.381264785193519e-07
-6.84590354654846e-07
-5.693929248790086e-07
-5.774458805146709e-07
-7.088706873437101e-07
-5.532988640033487e-07
-4.7648132998900916e-07
-4.932269261070932e-07
-6.036961250066586e-07
-9.145501464122296e-08
-5.096446835037294e-08
-5.088248443765875e-08
-9.109215807004412e-08
4.668607100438704e-06
4.682148271612646e-06
4.689194029707661e-06
4.689768230980995e-06
1.0852125231129717e-05
1.0790917131096867e-05
1.0786870177345587e-05
1.0839937241498288e-05
1.940059212114653e-05
1.9270375480315294e-05
1.928003005836898e-05
1.9429525629652278e-05
2.9234634105493318e-05
2.905081161741485e-05
2.9095390101832597e-05
2.9368795986597918e-05
3.911935945544176e-05
3.882634305490962e-05
3.8838985065237086e-05
3.91574175748477e-05
4.837966748583167e-05
4.803250583595986e-05
4.806083338992906e-05
4.846485171372539e-05
5.6167683713914673e-05
5.57547353969845e-05
5.5771047735020396e-05
5.621679528738932e-05
6.198272380347758e-05
6.152257557148766e-05
6.152808362916429e-05
6.199921888866422e-05
6.557219059433184e-05
6.508398928845027e-05
6.50834825824953e-05
6.557068929757826e-05
6.670817146742225e-05
6.621368795972637e-05
6.621219675512213e-05
6.670360675531395e-05
6.553881249077298e-05
6.506176963805288e-05
6.507189047055828e-05
6.556926940548546e-05
6.203760860046259e-05
6.157912860604853e-05
6.158771296443932e-05
6.206337673358986e-05
5.61177081675468e-05
5.569877693345493e-05
5.570806067844991e-05
5.614555950278488e-05
4.8343788719762415e-05
4.796182968530571e-05
4.795403049712155e-05
4.832026441364823e-05
3.925641278179626e-05
3.894033233886596e-05
3.8932283726367256e-05
3.923201210853655e-05
2.9257655093040125e-05
2.904032877676377e-05
2.905039877543203e-05
2.928783520256273e-05
1.938083055319506e-05
1.9272464846120663e-05
1.9304679061526997e-05
1.9477736283080027e-05
1.0799990333376641e-05
1.0754171490212627e-05
1.0764977517507823e-05
1.08324532208659e-05
4.5946198233837166e-06
4.610818920669502e-06
4.618919074661498e-06
4.6189720857015e-06
-9.718603277697468e-08
-6.674156827202182e-08
-7.714314664841737e-08
-1.2838904617229474e-07
-5.010323017584639e-07
-4.303972419572588e-07
-4.526206823785017e-07
-5.679636033706359e-07
-6.684560315273202e-07
-5.505170523889547e-07
-5.552880213421929e-07
-6.82842018817631e-07
-6.44496559232266e-07
-5.318759428440956e-07
-5.566297928139008e-07
-7.19226373457893e-07
-6.951663977794453e-07
-5.58194322208827e-07
-5.599499718345058e-07
-7.005962211481531e-07
-6.428362989696623e-07
-5.049061709838654e-07
-4.931201956770437e-07
-6.073406692008732e-07
-4.689232641075236e-07
-3.556585986830285e-07
-3.4497196066407554e-07
-4.367543534611329e-07
-3.454398721514096e-07
-2.6146911691338204e-07
-2.4999790670943156e-07
-3.10966374872379e-07
-5.166473915352299e-08
-1.1244308928404223e-08
-6.098366367446317e-09
-3.617934341004769e-08
1.2125097326176615e-07
1.0279947959546121e-07
8.57627928674276e-08
7.006416435917373e-08
2.319337857326076e-07
2.0046015958286034e-07
2.0713431803098814e-07
2.5204174469717344e-07
4.450109298836935e-07
3.692512402508896e-07
3.681148205147977e-07
4.415741372554294e-07
5.237248661416061e-07
4.172848631078807e-07
4.1405981476838605e-07
5.140027330430286e-07
6.735332999108223e-07
5.56771201809525e-07
5.672568461623229e-07
7.050877368630637e-07
6.951225767215519e-07
5.563637881511596e-07
5.56188023526083e-07
6.947711687077529e-07
6.772339670169103e-07
5.470989123956826e-07
5.548012654843504e-07
7.003832942498178e-07
6.860128777264052e-07
5.87483090397356e-07
6.125357479014326e-07
7.614746933004568e-07
6.108385413039485e-07
5.197967841708007e-07
5.229615812618604e-07
6.203418293493357e-07
1.0075364154094046e-07
7.648040933894151e-08
9.317305882383664e-08
1.5101730788114054e-07
1.1056135525988608e-06
9.680511541265702e-07
9.953968100884225e-07
1.188398504603505e-06
3.2804107508166425e-06
2.827118636639092e-06
2.8192144659877627e-06
3.256718721478258e-06
3.5088414491735165e-06
2.941667347600152e-06
2.9397325757019033e-06
3.5030798722912593e-06
3.9645587317505004e-06
3.300854629961769e-06
3.2836707546390898e-06
3.912761769364614e-06
3.6541259198497045e-06
3.021091699695333e-06
3.032578181016987e-06
3.6888953696134763e-06
3.1989821628330972e-06
2.618099995244094e-06
2.6235495939053166e-06
3.2154924203275925e-06
2.5933076656103893e-06
2.100082050482399e-06
2.0887478360265277e-06
2.559215907416146e-06
1.7716184137483992e-06
1.4258078425699594e-06
1.4195388576832002e-06
1.7526364238795722e-06
8.913218464412509e-07
7.140001344607683e-07
7.093940644908869e-07
8.774595910976402e-07
-3.448625607305189e-08
-2.8374957716792437e-08
-2.315071201408614e-08
-1.87916349148054e-08
-9.040023153383814e-07
-7.330679587802535e-07
-7.364349183802688e-07
-9.140736761947821e-07
-1.736353139936142e-06
-1.4047770884317856e-06
-1.4107443478961201e-06
-1.7542633343747838e-06
-2.55063641574349e-06
-2.0701108606191454e-06
-2.0700480376500963e-06
-2.5504505224427376e-06
-3.2415639624749915e-06
-2.6442933941384084e-06
-2.6336865842635504e-06
-3.2095168008838826e-06
-3.6735014505850927e-06
-3.026634214586821e-06
-3.02361629811454e-06
-3.664449730766961e-06
-3.917978356526852e-06
-3.2811506525121104e-06
-3.2885440450769465e-06
-3.940490970300026e-06
-3.504113403995923e-06
-2.93587092459191e-06
-2.930873614581664e-06
-3.4890378046714687e-06
-3.3023240915142082e-06
-2.8516687293755894e-06
-2.847201414524214e-06
-3.2888711485323796e-06
-1.1036715912293715e-06
-9.388633789297884e-07
-9.357711643342981e-07
-1.0943748939284959e-06
-1.6283513253334547e-06
-1.45369718917987e-06
-1.4471061827725507e-06
-1.6082260508865076e-06
1.787728261093413e-06
1.587528525748283e-06
1.5821645947822205e-06
1.7715732623102554e-06
5.194927069629429e-07
2.8045044353497417e-07
2.8314589717304273e-07
5.277272585590964e-07
1.2515987148908891e-06
8.915137904574877e-07
8.934452558895245e-07
1.2574222988392947e-06
1.110372385704217e-06
6.896335724704272e-07
6.779479021501444e-07
1.0751330076219645e-06
1.0725438769343398e-06
6.607434335226259e-07
6.625700947893165e-07
1.0782866318725937e-06
8.099971113839644e-07
4.6344397874875654e-07
4.787217012802714e-07
8.563052845689256e-07
5.904043148818872e-07
3.264300896255179e-07
3.297530721813047e-07
6.005744503934096e-07
2.771520729583088e-07
1.4345303922524977e-07
1.4975538464856442e-07
2.9618890484695015e-07
3.4194960418787446e-08
2.689627232044245e-08
2.030731893754023e-08
1.419884620990075e-08
-3.006462856447456e-07
-1.594460384835017e-07
-1.6045031792089048e-07
-3.0361881653284684e-07
-6.39243418198987e-07
-3.534427730489398e-07
-3.3720245018464823e-07
-5.901877218050799e-07
-8.487982590121845e-07
-4.95639944309012e-07
-5.068390757090313e-07
-8.82550900582757e-07
-1.0473831059121252e-06
-6.342061392716758e-07
-6.342172663709178e-07
-1.04748681351019e-06
-1.1323764801396408e-06
-7.161212245421211e-07
-7.100328848208548e-07
-1.1139987613484337e-06
-1.2626031702378526e-06
-8.956474319976593e-07
-8.90723244273417e-07
-1.2477195143745234e-06
-5.172673250841697e-07
-2.70164789872851e-07
-2.640967765588087e-07
-4.988822300822093e-07
-1.800699377052517e-06
-1.6021494863016628e-06
-1.599333809720882e-06
-1.792244007758903e-06
1.6430039423420695e-06
1.4628674617211956e-06
1.4523253312193063e-06
1.6112522727151912e-06
-3.5095170148879973e-06
-2.952550310575397e-06
-2.9505489608228075e-06
-3.503257683390437e-06
3.1193429015363705e-06
3.1464313607898475e-06
3.141930149164196e-06
3.1057928986388816e-06
4.6773116602061293e-07
5.520081792775855e-07
5.499938129371884e-07
4.6151035970609655e-07
1.941723890008795e-06
1.855268964567891e-06
1.8401595442973928e-06
1.896136480383781e-06
1.652970162413503e-06
1.4842247139101872e-06
1.4775295349434003e-06
1.63276326170525e-06
1.6993076210614078e-06
1.4685503758604668e-06
1.4754501896918626e-06
1.7201070428018994e-06
1.3495907608129798e-06
1.1090165024096876e-06
1.1171352555239267e-06
1.37416258982892e-06
9.665350132470607e-07
7.607094997252872e-07
7.59382304482692e-07
9.627058159544788e-07
5.090419603615004e-07
3.9950811936417807e-07
4.06119443185915e-07
5.291264165707688e-07
-1.3206353788319802e-09
-9.382503662891395e-10
-1.3753331806753977e-09
-2.6771432848349264e-09
-4.951166486799607e-07
-3.7065361613297654e-07
-3.616679841167425e-07
-4.68066917447274e-07
-9.458942369366952e-07
-7.531918843062257e-07
-7.668602048926942e-07
-9.871298009000995e-07
-1.4046691856339777e-06
-1.1488809212867324e-06
-1.1445868146608973e-06
-1.3918272494528594e-06
-1.6671033612469799e-06
-1.4444147534709018e-06
-1.4584744415513384e-06
-1.7095041818793177e-06
-1.6768191497540386e-06
-1.4962704385501624e-06
-1.4782167369054022e-06
-1.6223222508715551e-06
-1.94036509448825e-06
-1.859391887348849e-06
-1.851760329962815e-06
-1.917241094329114e-06
-4.744184696203746e-07
-5.520595260932737e-07
-5.4355741385681e-07
-4.4873494131625336e-07
-3.1231834670686354e-06
-3.152944503592714e-06
-3.151604541673514e-06
-3.119284246122511e-06
3.503901613854943e-06
2.972341357931896e-06
2.9975473031518263e-06
3.580016556981036e-06
-5.91349435852262e-06
-4.948679830807379e-06
-4.945994776295315e-06
-5.9052872100062714e-06
4.022587795637911e-06
4.284187008485318e-06
4.281527416938324e-06
4.01472560818128e-06
-4.0121448208196853e-07
5.4414223460419464e-08
4.8721169543242127e-08
-4.184349289282352e-07
1.742932332682301e-06
2.0328644261269346e-06
2.0199721798563885e-06
1.7039243837002616e-06
1.4546014550642639e-06
1.628776608586513e-06
1.6130847406703452e-06
1.4072241726337253e-06
1.8064296730679885e-06
1.8304490775333804e-06
1.828353858868148e-06
1.8002530004501693e-06
1.5400989661351616e-06
1.46272845202855e-06
1.4648696925467775e-06
1.5466405824948737e-06
1.1412243619002282e-06
1.019248265454742e-06
1.0080802849143922e-06
1.1075352777112357e-06
5.469054962237152e-07
4.844543791682199e-07
4.973280189890517e-07
5.857175706669437e-07
-1.6271887171015464e-09
1.1804567989770476e-08
2.5705521378149854e-08
4.0355885411180736e-08
-5.655707762119988e-07
-4.912362648878954e-07
-4.922579840416219e-07
-5.686256269177292e-07
-1.1192078478439171e-06
-1.009887770964113e-06
-1.0113904803654705e-06
-1.1238737609442495e-06
-1.5247517954897205e-06
-1.4362341166362924e-06
-1.4242037186251721e-06
-1.4885762555927329e-06
-1.816222777506482e-06
-1.840598814806249e-06
-1.8375292287764466e-06
-1.8069232741169117e-06
-1.4518041987487962e-06
-1.6342678931247079e-06
-1.6263924307313715e-06
-1.428049787866037e-06
-1.7076798122794834e-06
-2.0143772936909166e-06
-2.01766902924172e-06
-1.7175619798082131e-06
3.938476583198458e-07
-4.6742105408448253e-08
-2.5412384863088278e-08
4.582308127387691e-07
-3.974028315312239e-06
-4.249224435870502e-06
-4.258258830824868e-06
-4.0012452325877135e-06
5.8428877625082976e-06
4.880500503845475e-06
4.8777280208800455e-06
5.834483264632873e-06
-8.079477056832651e-06
-6.745448915101981e-06
-6.7433770446490016e-06
-8.073149168508209e-06
5.0955338836145e-06
5.565946775587527e-06
5.579897631169395e-06
5.137680980871195e-06
-1.0116938949922272e-06
-2.1043815068289007e-07
-2.1530778127054617e-07
-1.0262925814741308e-06
1.5985511657712337e-06
2.303089863486818e-06
2.3076663281385024e-06
1.6124073443091191e-06
1.0597217828811623e-06
1.718421805962933e-06
1.7338919214848758e-06
1.106440285725263e-06
2.0909995191997766e-06
2.494806159214491e-06
2.487549211172002e-06
2.069320191533386e-06
2.1065607056502955e-06
2.274439892868685e-06
2.2749609591699027e-06
2.108221956564904e-06
1.550266199967787e-06
1.5704342553046757e-06
1.5705968994250696e-06
1.5506783802576862e-06
8.572043390664419e-07
8.259022274970107e-07
8.214979569931558e-07
8.439766880918853e-07
1.4205416176693575e-08
7.422936154632964e-09
1.3657220909735202e-09
-4.0475214291291195e-09
-8.285598324109245e-07
-8.110985971754303e-07
-8.202374000010337e-07
-8.561917003158115e-07
-1.5868862567325337e-06
-1.616948108407179e-06
-1.6301699101717304e-06
-1.6269599192320072e-06
-2.074918650396551e-06
-2.254461002992869e-06
-2.2653093173508054e-06
-2.107667243567146e-06
-2.0973658985123933e-06
-2.5055390339145944e-06
-2.5023246320032833e-06
-2.087618003576708e-06
-1.0699608455344567e-06
-1.7143267433405995e-06
-1.715680733038738e-06
-1.0741293986482603e-06
-1.5898786301926648e-06
-2.2915790362509902e-06
-2.2932389028840205e-06
-1.5949010683802278e-06
1.0075633384842853e-06
2.1505918523789802e-07
2.2841414049068476e-07
1.04795603683705e-06
-5.116250452130711e-06
-5.571553428729281e-06
-5.5694216307689e-06
-5.10982038698371e-06
8.06460746100024e-06
6.738596611488568e-06
6.743772885287047e-06
8.080109970165505e-06
-9.954864815919784e-06
-8.32701815967063e-06
-8.336427707700267e-06
-9.98324026513231e-06
6.108563204487716e-06
6.696400067895958e-06
6.686257341792512e-06
6.078015672872361e-06
-1.621799414874836e-06
-5.373394361685158e-07
-5.391711737079419e-07
-1.6272959842966728e-06
1.5514708446850989e-06
2.589130557839603e-06
2.583354911545044e-06
1.5341355873443874e-06
4.852256337839478e-07
1.6123758722619286e-06
1.604987571401928e-06
4.6305003098545683e-07
1.4242585862911383e-06
2.439950289478965e-06
2.4587348765869876e-06
1.4809229318402117e-06
2.8886448126819175e-06
3.489828262925876e-06
3.487283943726105e-06
2.881062637793974e-06
2.4727623423315137e-06
2.7018113535337562e-06
2.7073492674389854e-06
2.4893956213078994e-06
1.3807822543121517e-06
1.438951726107085e-06
1.446545420336065e-06
1.4038958456863426e-06
1.1281377942928827e-08
2.382077757268064e-09
-6.460770585192677e-09
-1.543260286229753e-08
-1.4104682348747843e-06
-1.4526377462575901e-06
-1.44474192853572e-06
-1.3869181219039461e-06
-2.4842224839449756e-06
-2.709502397835184e-06
-2.711151236012288e-06
-2.4892206200721745e-06
-2.8494531113532062e-06
-3.456451728389709e-06
-3.457845655641112e-06
-2.8536363625430994e-06
-1.4721404340001243e-06
-2.456933114236559e-06
-2.4450805043985113e-06
-1.4362157662040076e-06
-4.756620936574585e-07
-1.6200169352109661e-06
-1.6323825905439904e-06
-5.129902289624511e-07
-1.5588432298874189e-06
-2.5908255612550057e-06
-2.5804829076880864e-06
-1.5277086603537882e-06
1.6204580605139185e-06
5.256880629134209e-07
5.173714089923287e-07
1.595241191920671e-06
-6.071937904139624e-06
-6.67786072450216e-06
-6.685315806442826e-06
-6.094577833570813e-06
9.99988155059306e-06
8.37367435546632e-06
8.385828392520889e-06
1.0036425220849576e-05
-1.1577110239358035e-05
-9.715618593642006e-06
-9.72755413408688e-06
-1.1613130135423866e-05
6.902797684227302e-06
7.601995920092364e-06
7.613351954094405e-06
6.937102862814015e-06
-2.0491757483087625e-06
-7.630673142244859e-07
-7.599647660061493e-07
-2.039629314332103e-06
1.4581393916746066e-06
2.756999955111361e-06
2.767697184324902e-06
1.4904969076745544e-06
2.661808186088521e-07
1.7755330651292311e-06
1.7739343443068378e-06
2.6134757391549357e-07
3.97770070215131e-07
2.048089097095307e-06
2.0456658800238614e-06
3.905159439154815e-07
1.2010764812719898e-06
2.6882260030225424e-06
2.6898485306903197e-06
1.2058590469488095e-06
5.258844042677069e-06
5.916216040735556e-06
5.876939474180887e-06
5.140459678254494e-06
2.0765040681380853e-06
2.293401046182808e-06
2.328834856069051e-06
2.1827860365863927e-06
2.282104888395864e-08
1.941279548223207e-08
1.6563437232886002e-08
1.4268659087601776e-08
-2.086433529002729e-06
-2.294190136364893e-06
-2.320969950952989e-06
-2.1666006415621553e-06
-5.199957178625425e-06
-5.888014777521988e-06
-5.8782461813677855e-06
-5.170683375022023e-06
-1.2574156476596876e-06
-2.732980504016602e-06
-2.7250920177634974e-06
-1.233437922021352e-06
-3.7501864541544805e-07
-2.0133567346647396e-06
-1.997679303700206e-06
-3.274984403667247e-07
-3.1290830510011247e-07
-1.816402426857433e-06
-1.8116420626990148e-06
-2.985620726203564e-07
-1.4425298646703055e-06
-2.740788575650299e-06
-2.750221316516477e-06
-1.4711473931838803e-06
2.0760164882172027e-06
7.703187805407907e-07
7.485387457650816e-07
2.010117524375854e-06
-6.86920692427595e-06
-7.565840968282167e-06
-7.57297110071109e-06
-6.890915090151939e-06
1.1525116260624468e-05
9.656982329853125e-06
9.659559634445092e-06
1.1532913041789605e-05
-1.2686953854368355e-05
-1.0647067353208861e-05
-1.0640732777789097e-05
-1.2667669965438222e-05
7.529845943876623e-06
8.275620866027289e-06
8.28473980929445e-06
7.5575522978654774e-06
-2.4066120331012186e-06
-1.0019381881942735e-06
-1.0041872884336556e-06
-2.4133895799582916e-06
1.4480039395303734e-06
2.896969957588702e-06
2.9105716120580993e-06
1.489165378121271e-06
-5.482403020451443e-08
1.6600149658207997e-06
1.6376906758486243e-06
-1.220907004384486e-07
8.371373489968192e-07
2.876917691629899e-06
2.878126554750615e-06
8.405514204667952e-07
-1.3510191785304215e-06
1.134367862976049e-06
1.11474287634028e-06
-1.4101149287126802e-06
7.022967541958636e-07
3.0592422509689854e-06
3.1209639392848487e-06
8.874236234746036e-07
1.0968876380523795e-05
1.1399976866055539e-05
1.1275281343425814e-05
1.0595385622813591e-05
-3.152936839390108e-08
-1.2901453572133903e-08
4.030831779466837e-09
1.9566481657129486e-08
-1.1028350046626834e-05
-1.145074680813929e-05
-1.132206074655473e-05
-1.0642557290885257e-05
-6.966519762174883e-07
-3.0451125028752024e-06
-3.0988835146850136e-06
-8.577233360784753e-07
1.4001114392314662e-06
-1.0952759284532654e-06
-1.084707118792494e-06
1.4318799163026696e-06
-8.697053887618544e-07
-2.9076365902214185e-06
-2.908397151391018e-06
-8.7172919388534e-07
9.980208603987961e-08
-1.6340086916311058e-06
-1.6310245022355119e-06
1.0889558504922903e-07
-1.4755451481773818e-06
-2.899032762015974e-06
-2.8872770458931996e-06
-1.4401804727115497e-06
2.3629162888005872e-06
9.55286692916335e-07
9.536961245726339e-07
2.3579036391163655e-06
-7.5438456327847625e-06
-8.279852627524065e-06
-8.277660774880236e-06
-7.537389278333695e-06
1.2640779350592268e-05
1.0627301048282689e-05
1.064682800205885e-05
1.2699772527380304e-05
-1.3368438835814622e-05
-1.1231577518255875e-05
-1.1222693371726322e-05
-1.3341489398688289e-05
7.892072874771117e-06
8.65768780522469e-06
8.66129031895646e-06
7.903053715563324e-06
-2.5254485085390854e-06
-1.0689359531967924e-06
-1.082186149803377e-06
-2.5654973990762997e-06
1.390877161222548e-06
2.898500411463445e-06
2.8996682940318763e-06
1.394566408019493e-06
4.972959577465019e-08
1.899151350959194e-06
1.9122013251715586e-06
8.9009586923261e-08
-5.17560174828624e-07
1.698899818936006e-06
1.6752252447460592e-06
-5.887799725545761e-07
3.0821006502534942e-06
5.950594172521306e-06
6.053347070267279e-06
3.39098010537775e-06
-8.346004088555237e-06
-4.3942500557170305e-06
-4.694353216705416e-06
-9.248985791965314e-06
3.9513382390499174e-06
8.888494510639333e-06
9.595044194676827e-06
6.0693472649919755e-06
-7.63035673534418e-09
-1.030138757629473e-08
-1.3831524148244512e-08
-1.820869016677662e-08
-3.933456828808524e-06
-8.874878419273813e-06
-9.585396320344053e-06
-6.063265143518848e-06
8.346659731595096e-06
4.4063151071194184e-06
4.718368227130121e-06
9.285834712102758e-06
-3.0700901713087703e-06
-5.935273036994371e-06
-6.033660107651606e-06
-3.3656568318995994e-06
4.942318329037576e-07
-1.710216983974444e-06
-1.6750582531033231e-06
6.001067692773532e-07
-2.6480882875379308e-08
-1.8799229214438995e-06
-1.895888605274454e-06
-7.461500656225084e-08
-1.3863698711813477e-06
-2.8999265166418375e-06
-2.906598554397455e-06
-1.4066551733971089e-06
2.597406666471347e-06
1.1097908204638074e-06
1.0953569545835151e-06
2.5537494956484608e-06
-7.915068389374724e-06
-8.68006397275467e-06
-8.682738240339827e-06
-7.923240484486449e-06
1.334902669275495e-05
1.1232201507560546e-05
1.124176797523413e-05
1.3377936849079397e-05
-1.3641305791511904e-05
-1.1478825798216796e-05
-1.1476061242521318e-05
-1.3632731862722736e-05
8.121958973372756e-06
8.869476503914342e-06
8.851084010053079e-06
8.066376941506803e-06
-2.7231577585107303e-06
-1.2333803651731756e-06
-1.2366415031994649e-06
-2.733082712480517e-06
1.7715476228197247e-06
3.3009645356019135e-06
3.31271830378288e-06
1.806813627491799e-06
-1.333402776748649e-06
5.076284431693168e-07
4.4415386390994627e-07
-1.5243155329081048e-06
3.994806152984864e-06
6.345047406819404e-06
6.550623446899273e-06
4.613135956343939e-06
-1.1902414665698746e-05
-9.198194945880811e-06
-9.870336141026836e-06
-1.3925691116911665e-05
3.51754956145478e-05
4.001677205028864e-05
4.2072701291806514e-05
4.136934315629448e-05
-8.311609565703204e-05
-7.638052172725951e-05
-8.149604833629365e-05
-9.85704112268504e-05
8.72744487789845e-09
-1.5521156582209983e-09
-1.2351792477716117e-08
-2.375183688618776e-08
8.31001343136184e-05
7.637927941023248e-05
8.150992984401473e-05
9.860021291002719e-05
-3.520164533599157e-05
-4.003562711324404e-05
-4.208364481389504e-05
-4.137148131655444e-05
1.1888006974603016e-05
9.199419293393074e-06
9.88821322406297e-06
1.3961568676779113e-05
-4.031140608540262e-06
-6.381539583266704e-06
-6.590621262958507e-06
-4.65998183096783e-06
1.3111290350087401e-06
-5.215082464760101e-07
-4.5119474190169484e-07
1.522605525883236e-06
-1.7419196773338363e-06
-3.2802455985914136e-06
-3.3002310461105466e-06
-1.8020561615705866e-06
2.77818068100677e-06
1.2740802391442152e-06
1.2671038125411371e-06
2.756960829297661e-06
-8.049566901258132e-06
-8.823663635748602e-06
-8.829289382839e-06
-8.06666489089336e-06
1.3578224879406964e-05
1.1417948303282799e-05
1.1412560638246472e-05
1.3561974295306367e-05
-1.3327450322120349e-05
-1.1207384073674831e-05
-1.1214032929918183e-05
-1.3347450694034535e-05
7.92953142836339e-06
8.683916317142604e-06
8.677107538712647e-06
7.909042911147246e-06
-2.5686054926365998e-06
-1.0879509201311421e-06
-1.0777256034266713e-06
-2.5377024350792254e-06
1.3925992914387564e-06
2.9046491736295366e-06
2.9089937536586064e-06
1.405782870445016e-06
2.588604619546686e-08
1.8664417701375058e-06
1.8675117815503128e-06
2.9020050251737928e-08
-5.0761674830202e-07
1.7062894260289063e-06
1.6799201458805868e-06
-5.869634265298629e-07
3.0746129781045184e-06
5.94225735611742e-06
6.0439454038774265e-06
3.380234988192843e-06
-8.387052395864014e-06
-4.438001401319003e-06
-4.742813748348507e-06
-9.304284408873098e-06
3.950672360142349e-06
8.885320298801513e-06
9.588884945843645e-06
6.0596989051586725e-06
4.564822408958946e-09
6.8533342889587345e-09
1.0036217246156554e-08
1.4107634727089646e-08
-3.9564428858107625e-06
-8.89096274930834e-06
-9.59417396345641e-06
-6.064315160536626e-06
8.377966739636644e-06
4.4337285540763105e-06
4.7431942103437486e-06
9.309313984684486e-06
-3.108039530186346e-06
-5.961333309711936e-06
-6.050176096172866e-06
-3.3747300949849013e-06
4.996296291137625e-07
-1.7046222355321383e-06
-1.6701715032652054e-06
6.033190465548621e-07
-1.3956080402444115e-08
-1.866120029558882e-06
-1.8804999493693408e-06
-5.737890645951538e-08
-1.396164336975314e-06
-2.90543037173574e-06
-2.9072471422475488e-06
-1.4016932868843313e-06
2.5650009201627633e-06
1.094836108439523e-06
1.0968694484358998e-06
2.571064899259401e-06
-7.927577004018804e-06
-8.692324433901e-06
-8.696672495700497e-06
-7.940712758003343e-06
1.3351156572749545e-05
1.123994762730618e-05
1.1255898340278847e-05
1.3399160353810835e-05
-1.2662942132868338e-05
-1.0639561310199497e-05
-1.0649437250154214e-05
-1.2692752300202947e-05
7.494997154799954e-06
8.234063870737884e-06
8.233234545906853e-06
7.492473383718945e-06
-2.353079330608132e-06
-9.513741616729021e-07
-9.551513203698292e-07
-2.3644354850693716e-06
1.4381834247956249e-06
2.875450191397455e-06
2.875870461216401e-06
1.4393999757666975e-06
-7.867907070302493e-08
1.6483175281356566e-06
1.6373261197966116e-06
-1.1191997706383461e-07
8.701087773621552e-07
2.9088081421324574e-06
2.909028589070939e-06
8.706133614033718e-07
-1.3781122972789106e-06
1.1244327148829392e-06
1.1218242118582467e-06
-1.3857943316208932e-06
6.794516917429938e-07
3.0376955021949037e-06
3.1006411586043114e-06
8.683617940263844e-07
1.1015278802484207e-05
1.1428876876551364e-05
1.1288498614425713e-05
1.0594431046062613e-05
-1.0486398915876549e-08
-9.574515791310745e-09
-8.88302936763452e-09
-8.641763582506456e-09
-1.0952851456080825e-05
-1.1396919885831025e-05
-1.1285386008530462e-05
-1.0619148626878072e-05
-6.966141318232033e-07
-3.050687002736918e-06
-3.1109778165228086e-06
-8.774193673288799e-07
1.371567656838213e-06
-1.1257828581578977e-06
-1.119793484272158e-06
1.3896110624411762e-06
-8.513371014262638e-07
-2.886830057446943e-06
-2.8848187874630504e-06
-8.452309754880538e-07
1.0991698901063884e-07
-1.6406819928760363e-06
-1.654159838437863e-06
6.912079003607019e-08
-1.4906399740111098e-06
-2.9107749879853095e-06
-2.8956274679137195e-06
-1.4450746317895558e-06
2.411605997676425e-06
9.942739274682033e-07
9.849862360744588e-07
2.383560139762597e-06
-7.530225402202495e-06
-8.269553933348828e-06
-8.270665835613533e-06
-7.53362027067217e-06
1.2676621816531952e-05
1.0637425634202335e-05
1.0630328571181735e-05
1.2655310948850307e-05
-1.1562352325800163e-05
-9.68708575488364e-06
-9.683955601968997e-06
-1.155304875410934e-05
6.905185282235493e-06
7.596384576369353e-06
7.599394752477728e-06
6.91410939279713e-06
-2.041820012843587e-06
-7.648241524549348e-07
-7.711139621280338e-07
-2.060894662481161e-06
1.4962775145566098e-06
2.7799882481582827e-06
2.775192528114978e-06
1.4817434967895338e-06
2.705095544230929e-07
1.797144984216903e-06
1.8131427962919666e-06
3.1889084373126764e-07
3.6092813077148733e-07
2.0056177915672713e-06
1.995840241075797e-06
3.3151010042642426e-07
1.2208399819968463e-06
2.7044204844450803e-06
2.7028843370691114e-06
1.2161174740565883e-06
5.2567072506559676e-06
5.933929667856219e-06
5.915395748568031e-06
5.201021896883429e-06
2.0792762935872844e-06
2.2983880098026432e-06
2.3367740664692604e-06
2.1945329631845034e-06
3.010522964252971e-08
1.1943527333801995e-08
-5.193707686146354e-09
-2.174232033302914e-08
-2.0695468285758523e-06
-2.2927163679797857e-06
-2.3337196260464488e-06
-2.1928692175432474e-06
-5.224727386177186e-06
-5.913347454977735e-06
-5.906772891473011e-06
-5.205054151635746e-06
-1.2314446546368707e-06
-2.7032761137357753e-06
-2.6912176756543893e-06
-1.1949700308155897e-06
-3.8321683026865117e-07
-2.0417774382330833e-06
-2.0487938990898513e-06
-4.043477033754961e-07
-2.8512048017015346e-07
-1.7806013423160572e-06
-1.7662253119499205e-06
-2.418401592318986e-07
-1.4877900628151863e-06
-2.7742100646155343e-06
-2.77397749651187e-06
-1.4870402371969238e-06
2.052341478125941e-06
7.733091391126656e-07
7.785081172773101e-07
2.0678252305450506e-06
-6.936549607317044e-06
-7.623851013105476e-06
-7.624679641521359e-06
-6.939171658976173e-06
1.1525313003052373e-05
9.665509766526581e-06
9.676305697037257e-06
1.1558016438928398e-05
-9.989059788884092e-06
-8.37094213768097e-06
-8.392153099223698e-06
-1.005338000337197e-05
6.133284480958068e-06
6.709497888723881e-06
6.688019308032089e-06
6.068382331969602e-06
-1.605312378916146e-06
-5.228584091243604e-07
-5.263394273757882e-07
-1.6159186637665357e-06
1.521948465810219e-06
2.5584696395908324e-06
2.5500566632752353e-06
1.4965057281157712e-06
4.284303009582935e-07
1.5738776626972317e-06
1.5837736246915313e-06
4.5838735018843835e-07
1.4512306549252507e-06
2.445027376118958e-06
2.442031014682211e-06
1.4422500526634074e-06
2.8727568491260236e-06
3.473180340662907e-06
3.469204185535535e-06
2.860834604934137e-06
2.4931392035298927e-06
2.7159478261928882e-06
2.7165042738030998e-06
2.4948637343813473e-06
1.3749112257044338e-06
1.4379856753676812e-06
1.4512616833273206e-06
1.415094332601896e-06
1.3637706630653668e-08
4.614122750545846e-09
-3.841997497922023e-09
-1.199089061376668e-08
-1.3679401371091693e-06
-1.427730881631284e-06
-1.4360530758983359e-06
-1.3933828669765447e-06
-2.514335834757908e-06
-2.73975952080896e-06
-2.742558687152119e-06
-2.5227863778010118e-06
-2.8911928391384123e-06
-3.478061114059461e-06
-3.4601478493545557e-06
-2.8371341981858755e-06
-1.4517031271810144e-06
-2.445883020979478e-06
-2.4430658801533056e-06
-1.4433093801502483e-06
-4.941244673706269e-07
-1.631221215270262e-06
-1.6364142504665669e-06
-5.097321292557577e-07
-1.5017325947497273e-06
-2.5527441513684135e-06
-2.5596138889250053e-06
-1.5224291417537117e-06
1.6370368865481488e-06
5.40261058751268e-07
5.311615073610998e-07
1.6095199360244283e-06
-6.0634653170077435e-06
-6.658808085008294e-06
-6.653523241362258e-06
-6.047487075999669e-06
9.978736295684909e-06
8.360151912939484e-06
8.379744302122738e-06
1.0038017634800278e-05
-8.00850069582193e-06
-6.719033908919592e-06
-6.760504109970533e-06
-8.133962693723795e-06
5.099695421395545e-06
5.5508718630470355e-06
5.543783219708054e-06
5.078043778694585e-06
-1.035187826126105e-06
-2.259240039492738e-07
-2.2378675434975293e-07
-1.028770525435263e-06
1.6373815442394246e-06
2.32269151856368e-06
2.30927547362203e-06
1.5968727732351695e-06
1.1372607001125523e-06
1.775962861660929e-06
1.774669099174897e-06
1.1334246170502382e-06
2.101005428079006e-06
2.515992728435723e-06
2.5198739120879665e-06
2.1129165084787793e-06
2.057455119164331e-06
2.2422282087153356e-06
2.257992692988875e-06
2.1051170940311614e-06
1.589502185317393e-06
1.6164752501546253e-06
1.6266587976043745e-06
1.620458946416381e-06
8.502335884230661e-07
8.146088782412519e-07
8.053995703694028e-07
8.225074915602093e-07
8.177435451006687e-09
9.380660748181668e-09
1.2048935960073948e-08
1.6174711625627225e-08
-8.665047462330655e-07
-8.43141730211272e-07
-8.461899042022658e-07
-8.75683019929685e-07
-1.5633628501765529e-06
-1.5859865518108585e-06
-1.5891954092128735e-06
-1.5730780492106966e-06
-2.063010128894316e-06
-2.2335419259666978e-06
-2.23448578723362e-06
-2.0658314509036657e-06
-2.1061832379543066e-06
-2.5183060378408673e-06
-2.519778668663708e-06
-2.1105460323023184e-06
-1.1186192059864375e-06
-1.7461603637747292e-06
-1.7314499029530417e-06
-1.0740444347789868e-06
-1.6755425221448572e-06
-2.3466879925937434e-06
-2.3191029770164295e-06
-1.592328968763601e-06
1.04650804183537e-06
2.2855754169825993e-07
2.1908633179856807e-07
1.017847661044513e-06
-5.107246197316728e-06
-5.552601780062227e-06
-5.53862858782006e-06
-5.064926155651239e-06
8.051082481363991e-06
6.721917382990217e-06
6.722535968561871e-06
8.05310381665758e-06
-5.861224523506792e-06
-4.9033870594961115e-06
-4.907164818712673e-06
-5.872756102864862e-06
4.009345331401626e-06
4.27032508742986e-06
4.264815664289934e-06
3.992587616852283e-06
-4.0840267212516324e-07
5.066750574655998e-08
4.796975472398657e-08
-4.1656717719718017e-07
1.6780621501233384e-06
1.9864469002484064e-06
1.9892501725293776e-06
1.6865566291879297e-06
1.4379862227631435e-06
1.6257504841798998e-06
1.622555586222596e-06
1.428433526295958e-06
1.8018161166422075e-06
1.8348113138277888e-06
1.8407957341204373e-06
1.8199791386175335e-06
1.5668842683891349e-06
1.472631018017978e-06
1.456861187243419e-06
1.5194881850533193e-06
1.1035022176031362e-06
1.0104298238111653e-06
1.0288859056961641e-06
1.1594197247277727e-06
5.639937294965591e-07
4.979784731795611e-07
5.076612409893322e-07
5.933125321044841e-07
7.547600877622074e-09
3.0692079988625665e-09
-2.1696294760786827e-10
-2.3504699298015908e-09
-5.941354227489981e-07
-5.045484799959254e-07
-4.906223250444874e-07
-5.520462816321903e-07
-1.154995173835438e-06
-1.030746748564848e-06
-1.0201867264303388e-06
-1.1231349092977183e-06
-1.523647382400961e-06
-1.4457408115398085e-06
-1.4469201895517259e-06
-1.5271089448265496e-06
-1.8196511222534628e-06
-1.8361187174853466e-06
-1.8264475940277247e-06
-1.790403742901736e-06
-1.4469136823958006e-06
-1.62730512623388e-06
-1.6174519908707108e-06
-1.4170516568767777e-06
-1.715382397682319e-06
-2.0160614246089725e-06
-2.013095962899447e-06
-1.706322715788744e-06
4.5222201017214303e-07
-2.6206889880420192e-08
-4.068207790086653e-08
4.084808913895621e-07
-3.991204010511673e-06
-4.260363163532954e-06
-4.262323963666326e-06
-3.997042228115477e-06
5.910132878206298e-06
4.949902466550027e-06
4.953978634369971e-06
5.922475875802524e-06
-3.4977106627698262e-06
-2.9495632274390005e-06
-2.956866158254634e-06
-3.5197843348822033e-06
3.124280667288204e-06
3.153019916712907e-06
3.1505685045285503e-06
3.116856125529033e-06
4.5555640182382007e-07
5.349160062673164e-07
5.268093937749185e-07
4.3101075364315733e-07
1.905006530966702e-06
1.8458260693798856e-06
1.8586282161114909e-06
1.9436535614869577e-06
1.61947049859279e-06
1.4585464615524124e-06
1.458877465609909e-06
1.6205631822585609e-06
1.6961082588418108e-06
1.459007891335684e-06
1.4595283021612282e-06
1.6976633627208138e-06
1.3818066875725954e-06
1.1187544883273226e-06
1.1051008708129473e-06
1.3406415716454845e-06
9.361941763486037e-07
7.462243547529113e-07
7.620763193827429e-07
9.841141982436241e-07
5.170413937549689e-07
3.9852772665271985e-07
3.967191402054482e-07
5.116536560545448e-07
-5.052526758086984e-08
-3.7260703356079006e-08
-2.5738086328885856e-08
-1.5728819580118625e-08
-4.5347645905025047e-07
-3.4836840906438127e-07
-3.5781837925963345e-07
-4.818361392655568e-07
-9.807582495025002e-07
-7.770851569444126e-07
-7.807776619128681e-07
-9.918151167020994e-07
-1.3696856062395124e-06
-1.1181385597969218e-06
-1.117099139025246e-06
-1.3665607853929895e-06
-1.7260406408869944e-06
-1.4726943799170389e-06
-1.4582200285884195e-06
-1.682261729085699e-06
-1.6508708352847012e-06
-1.4842444503171404e-06
-1.479752188088268e-06
-1.637049839658955e-06
-1.915336581059801e-06
-1.829821649534935e-06
-1.8150238368097593e-06
-1.8705869100632544e-06
-4.6979523810053436e-07
-5.554240500166285e-07
-5.554332282581287e-07
-4.6968216693699105e-07
-3.127910551611879e-06
-3.155960322936968e-06
-3.1532003495343686e-06
-3.119678269408732e-06
3.4993233866131845e-06
2.948255088564e-06
2.9520659427934026e-06
3.5107624864333387e-06
-1.6200444954428406e-06
-1.4560561395482452e-06
-1.4608804718152513e-06
-1.6347657031401397e-06
1.8151485069450857e-06
1.6127406614607764e-06
1.6059483085584247e-06
1.7945613343117728e-06
5.22996107643614e-07
2.762763485764097e-07
2.7094415366857305e-07
5.068318101875136e-07
1.2991673437046103e-06
9.251295203238641e-07
9.158894822003383e-07
1.271359793497684e-06
1.1174014042381053e-06
6.953833471823323e-07
6.828121979496338e-07
1.079413764759618e-06
1.0923435949106164e-06
6.720069365973025e-07
6.647953139093943e-07
1.070598778463161e-06
8.074170992911078e-07
4.503967312996515e-07
4.529456749668981e-07
8.151495345387616e-07
6.192823646111734e-07
3.530949366781222e-07
3.5578074475406396e-07
6.274588453814012e-07
3.2165628116587186e-07
1.674337343771093e-07
1.5667574049249566e-07
2.8935205903524164e-07
1.0049448662119431e-08
1.751551326201195e-08
2.6565073363293834e-08
3.740496939963478e-08
-2.895708869909974e-07
-1.5726314311903522e-07
-1.663954289354841e-07
-3.170528511953208e-07
-5.999508127796371e-07
-3.2627524759742954e-07
-3.2036753611075497e-07
-5.821207269829376e-07
-8.798608506499495e-07
-5.19278733540629e-07
-5.226822484272198e-07
-8.90159697897186e-07
-1.0897108100316188e-06
-6.741129293386106e-07
-6.722264410952139e-07
-1.0839940738083254e-06
-1.1073315520915283e-06
-6.748803259570835e-07
-6.499257876324549e-07
-1.031949472624083e-06
-1.2944041315743338e-06
-9.368629400041684e-07
-9.447547106022913e-07
-1.3180197412088202e-06
-5.515503695568968e-07
-2.844672169766138e-07
-2.590302925487009e-07
-4.7476507890331643e-07
-1.7966981127048864e-06
-1.5987405305728508e-06
-1.5955248365839836e-06
-1.7869971279116381e-06
1.657590766548922e-06
1.4868291248471e-06
1.4862940077506326e-06
1.6559849247699265e-06
1.1177878537216301e-06
9.585340239315343e-07
9.617276853779444e-07
1.1273527458222077e-06
3.290528007071636e-06
2.8396937966634894e-06
2.8346115009680872e-06
3.275253913970211e-06
3.522656991439277e-06
2.947747298032155e-06
2.937403452363263e-06
3.491448800296837e-06
3.898350103004322e-06
3.2570822214306183e-06
3.2603567341471518e-06
3.908080793646462e-06
3.719766859311413e-06
3.0571980895177653e-06
3.041008214632601e-06
3.670966968349898e-06
3.221673727626939e-06
2.6403128955410082e-06
2.646878396461716e-06
3.2413376422901763e-06
2.5426742269463176e-06
2.070529189268644e-06
2.0789273012522536e-06
2.5679695785929546e-06
1.7840310859718045e-06
1.433760119573524e-06
1.4235557509456598e-06
1.7531816986493531e-06
8.912303997021809e-07
7.264258083949926e-07
7.377631424110298e-07
9.255132472074656e-07
-4.0573688298017885e-08
-4.0561420222573474e-08
-4.2202654426670705e-08
-4.532455855077444e-08
-8.958684709625686e-07
-7.184784627245477e-07
-7.160806564376898e-07
-8.888319209532369e-07
-1.7336390036593041e-06
-1.3958644681788535e-06
-1.395695819278453e-06
-1.7331905984296903e-06
-2.5547234345224545e-06
-2.075945435942028e-06
-2.077897390040384e-06
-2.5607665968541138e-06
-3.218023989309815e-06
-2.6372578654509926e-06
-2.643538996593975e-06
-3.2370350187271857e-06
-3.673800048648035e-06
-3.032605903757757e-06
-3.0368212687315044e-06
-3.6864068246877935e-06
-3.9350178233782396e-06
-3.2888957952059705e-06
-3.2890252575634715e-06
-3.935429206722296e-06
-3.5235625335111598e-06
-2.9440002710379165e-06
-2.9285213254820475e-06
-3.476819753642224e-06
-3.238597806147492e-06
-2.799043730995765e-06
-2.8034527419368294e-06
-3.2518988912835778e-06
-1.1433811615557676e-06
-9.89857613611922e-07
-1.0001352216404413e-06
-1.17439453870688e-06
SCALARS strain13 float
LOOKUP_TABLE default
-3.429838064450408e-06
3.4297203235222895e-06
3.45443305925508e-06
-3.5845921704247274e-06
-3.4295741438983285e-06
3.4362226394302198e-06
3.510854481164616e-06
-3.5249806490389446e-06
2.0940497169608108e-07
7.36881505147835e-07
8.849538766231291e-07
9.631652984065653e-07
9.512436818237546e-07
8.862667483233722e-07
8.256142928209087e-07
5.956767040737887e-07
1.7709322119863202e-07
7.723118045088739e-08
-2.79393006508144e-07
-5.260249599237099e-07
-7.062046846195713e-07
-7.980855536438014e-07
-9.53767145150941e-07
-9.82761867773796e-07
-8.325728210190064e-07
-7.412746798607373e-07
-1.8238720400631792e-07
4.719109365614038e-06
1.0916917451808672e-05
1.963918593239633e-05
2.9637440613461408e-05
3.977801266907832e-05
4.914245206583123e-05
5.6980334784018094e-05
6.29282933879427e-05
6.648239862350191e-05
6.775142183768068e-05
6.657319478026169e-05
6.28664414102642e-05
5.6973444967439724e-05
4.91906048598334e-05
3.983164151627472e-05
2.963635962875688e-05
1.9679681600437426e-05
1.0892164346007482e-05
4.588618649589704e-06
-2.545072865511866e-07
-6.306393856916892e-07
-8.417961504386673e-07
-9.02988354548051e-07
-8.862343913729198e-07
-7.986355961830949e-07
-7.619465086650123e-07
-4.646160536303512e-07
-3.0268123540899694e-07
4.627901506459864e-09
2.0954142249118846e-07
4.367490156198528e-07
7.052549081398851e-07
8.017423168693583e-07
9.933119156091408e-07
9.50059085735866e-07
8.158071435060421e-07
7.693010046772031e-07
1.0367323544091533e-07
-4.6456362686742025e-06
-1.099917059099731e-05
-1.9736632343447802e-05
-2.9711537109067265e-05
-3.982111313005632e-05
-4.913060124700497e-05
-5.69904513458841e-05
-6.291693522431085e-05
-6.656195957832622e-05
-6.773947907978695e-05
-6.651934246415525e-05
-6.283154307151761e-05
-5.703160349579406e-05
-4.92182711531175e-05
-3.97922679545859e-05
-2.9688688704121446e-05
-1.9587739577109353e-05
-1.0991422849770949e-05
-4.66342787275309e-06
1.576270963754567e-07
7.461786646345558e-07
8.757746947640754e-07
9.902624072966049e-07
8.888747318192003e-07
8.401540606550739e-07
7.390242164895255e-07
5.942745406883887e-07
2.498298138364774e-07
4.322314628435464e-08
-3.409895625861026e-07
-4.4306991831000175e-07
-7.117564726488723e-07
-7.925726895896545e-07
-9.432681398191534e-07
-1.0417219324931892e-06
-8.451703132905664e-07
-7.854694467068768e-07
-2.0870193850885954e-07
4.686473601300811e-06
1.1015451885199035e-05
1.9619956451610854e-05
2.9659584036056952e-05
3.97545777716668e-05
4.92036853089739e-05
5.699027402661372e-05
6.289060604924845e-05
6.654707927783443e-05
6.780231446695817e-05
6.664009893431189e-05
6.295511191914405e-05
5.699811103002106e-05
4.916916793878956e-05
3.9877998838616646e-05
2.9718230321898464e-05
1.970109426151223e-05
1.0977589410599009e-05
4.638360922792906e-06
-1.54809126601263e-07
-7.953557511208853e-07
-9.196575075504088e-07
-9.368024322387036e-07
-9.277826056586225e-07
-8.762748513746477e-07
-6.662341262841931e-07
-4.666522369356496e-07
-2.3327396631023234e-07
-3.901570150288691e-08
2.7283598358351924e-07
5.597843225624288e-07
7.27542224576716e-07
8.097589054845145e-07
8.718949442432233e-07
9.257082896341196e-07
7.997947256699334e-07
7.147063242340934e-07
1.5339082237719737e-07
-4.651933141475162e-06
-1.0943239246441472e-05
-1.9709517440458235e-05
-2.974094256491533e-05
-3.982444694539122e-05
-4.9165106201121134e-05
-5.7022831645325844e-05
-6.294570352760598e-05
-6.650139206920702e-05
-6.783869571325152e-05
-6.653749812679521e-05
-6.289327987307747e-05
-5.7056800853549916e-05
-4.9208888208140955e-05
-3.981346428982846e-05
-2.9695828019260517e-05
-1.9651879198279154e-05
-1.1011263412408212e-05
-4.69843057337993e-06
-3.426994344413181e-06
-3.425600022866071e-06
-3.4254748689788173e-06
-3.426761953084778e-06
3.428309394593043e-06
3.4283359384712497e-06
3.4296055383409296e-06
3.4321901901668284e-06
3.462584259983359e-06
3.4723383523366236e-06
3.483559791558899e-06
3.4963550623740014e-06
-3.5683596588675925e-06
-3.554416129203375e-06
-3.54250133394185e-06
-3.5327011699282096e-06
1.4612795027346692e-06
-1.9338480963249083e-06
-4.616468790685779e-06
-7.755384633711948e-06
-1.0714364323538561e-05
-1.3283737825386943e-05
-1.5221602021942005e-05
-1.668891281658702e-05
-1.7554703666378124e-05
-1.786145607218792e-05
-1.75911058877265e-05
-1.6681779536731334e-05
-1.5220274454108562e-05
-1.3245836592234994e-05
-1.066646017000572e-05
-7.766799970831961e-06
-4.656024796934055e-06
-1.934914383827646e-06
1.4976793830667745e-06
4.154086048702155e-06
2.221753420461603e-06
3.0691654817616154e-06
3.4956458728752082e-06
4.2151915259358574e-06
4.861608484008073e-06
5.514299039943715e-06
6.059852681317146e-06
6.396055169721748e-06
6.5154707029613235e-06
6.395630042010936e-06
6.061719224570439e-06
5.539111382790729e-06
4.935048005250131e-06
4.185976549275772e-06
3.457495573178093e-06
3.102088938389258e-06
2.189975184085924e-06
4.123051918658582e-06
4.667305639305397e-06
1.0039217697155323e-06
2.577145793436486e-07
-1.2609600608115556e-06
-2.6694527939241652e-06
-3.7811184888658644e-06
-4.569309092095075e-06
-5.198838734066236e-06
-5.507754473166315e-06
-5.695062355370872e-06
-5.463300181807185e-06
-5.164478570907072e-06
-4.643517713787126e-06
-3.7524704079583415e-06
-2.600736515812052e-06
-1.290106531937063e-06
3.6277325998756993e-07
9.567435551582903e-07
4.657640947258734e-06
5.2326014644554775e-06
1.9937649405887825e-06
2.038035111784353e-06
1.117437791631204e-06
2.0703922520848295e-07
-5.044602919834773e-07
-1.031776414750496e-06
-1.3932254657733623e-06
-1.5762245170192202e-06
-1.264066611716963e-06
-1.5832126816217595e-06
-1.3191891244934695e-06
-1.125265144619192e-06
-5.398451542459881e-07
2.5459255115212187e-07
1.0971544486815255e-06
2.0879951468932845e-06
1.961458777732794e-06
5.213809999016217e-06
4.974358939091594e-06
1.944985787316611e-06
1.9752862168154195e-06
1.0851988314630745e-06
-1.4557847149987424e-07
-1.75755358733376e-06
-2.7634008391563825e-06
-3.5395063169296748e-06
-3.6640399107001898e-06
-5.040197223693532e-06
-3.6530014358993057e-06
-3.5212376182647276e-06
-2.7358727414106276e-06
-1.7626822205185633e-06
-1.5776874956463516e-07
1.0491031227632952e-06
1.9929224752690544e-06
1.9079857991322058e-06
4.968053213150192e-06
4.396084516744558e-06
1.8953364908647075e-06
2.138565013076743e-06
1.7619400816126785e-06
1.2769666437595362e-06
-5.001769474155537e-07
-2.932979054737217e-06
-3.1769584685203967e-06
-4.908479013798761e-06
-4.043416104160258e-07
-4.890176840133265e-06
-3.2271128931893323e-06
-2.8787892177306595e-06
-5.631099050940058e-07
1.2339017181339784e-06
1.7682093095272577e-06
2.1853625599699278e-06
1.9141776716469217e-06
4.425482120817836e-06
3.5156813583681057e-06
1.604157811585516e-06
1.8750211336904243e-06
1.7060344881247858e-06
1.7166860479811419e-06
1.6593969095479721e-06
-1.7207141497221912e-06
-6.295475625917035e-06
-2.5954238742631475e-06
-1.797694351085566e-05
-2.537206124586522e-06
-6.340655814840446e-06
-1.7535622741648993e-06
1.6067620126070103e-06
1.7759746805956489e-06
1.641463476642624e-06
1.889357096773736e-06
1.59620345241418e-06
3.47272527889686e-06
2.409617611665027e-06
1.1428820742009904e-06
1.4108508320509472e-06
1.3446144419004824e-06
1.5657417938852447e-06
2.0261748282512926e-06
3.857420743935691e-06
-3.9137894982665955e-06
-1.6491297171239427e-05
2.7599589227988996e-05
-1.645700033003905e-05
-3.831901586426323e-06
3.8348834598966874e-06
2.0447168586623654e-06
1.5408458738375153e-06
1.3867795439215236e-06
1.3603038694909309e-06
1.0990225106644047e-06
2.39876895347102e-06
1.222341526774251e-06
5.505379163661672e-07
7.710339244848541e-07
7.268521504677494e-07
9.201636995692652e-07
1.3191026603243117e-06
1.6414054774260833e-06
9.972456080087344e-06
-5.182165075390266e-06
-0.00010130765148758103
-5.101342676838705e-06
1.0037692062536685e-05
1.6782881454013854e-06
1.3409170084854871e-06
8.516530105029396e-07
7.522226829204115e-07
6.842844270105175e-07
5.569146961925675e-07
1.2831165893678609e-06
-2.9560015990526267e-08
1.3799303477668445e-08
2.9828728376202207e-10
-1.1532155008708855e-08
-6.495574855769348e-09
2.1595124577444835e-09
9.034660797269112e-10
-4.660530017464026e-09
8.970276410558142e-09
2.574298180180179e-08
1.905127167134424e-09
-3.560569999949692e-08
-2.1419149232038137e-08
-1.6183721807117024e-08
6.164508181694117e-09
-6.19961143533132e-09
1.931927173792758e-09
1.164170476686266e-08
-1.7251957140640428e-08
-1.2794707368035674e-06
-6.240887424624475e-07
-7.10309702389722e-07
-7.644018911179273e-07
-8.822539980801736e-07
-1.2392873612321331e-06
-1.6450515867294513e-06
-1.001536629463562e-05
5.09347779326097e-06
0.00010139839375605808
5.144761610897941e-06
-9.992190218244268e-06
-1.6077701383010456e-06
-1.311749239119031e-06
-8.820464262315753e-07
-7.33266096453189e-07
-6.983895844969723e-07
-5.802674665766894e-07
-1.1700884740006856e-06
-2.3940961193513743e-06
-1.181083255419324e-06
-1.3740847145671253e-06
-1.3519547051865644e-06
-1.5447902617093945e-06
-1.9987794491194144e-06
-3.862022783851504e-06
3.8845367031914435e-06
1.643885458701977e-05
-2.754739318977517e-05
1.6446293732597095e-05
3.9279128741798175e-06
-3.904060430937051e-06
-2.030731127367069e-06
-1.4695218571447732e-06
-1.3755019642180955e-06
-1.4054645850192227e-06
-1.1345118698657952e-06
-2.422340523389188e-06
-3.5069202840576352e-06
-1.5849729588790495e-06
-1.8786794574454646e-06
-1.6685343982025813e-06
-1.7236955044963587e-06
-1.672285972198484e-06
1.715389503942344e-06
6.302593277496271e-06
2.494675539033153e-06
1.7906655816357642e-05
2.579622746912147e-06
6.294863501732362e-06
1.7448904102712604e-06
-1.6652196674349362e-06
-1.7780266042266568e-06
-1.6599367132774656e-06
-1.8686658345978824e-06
-1.5590982193336433e-06
-3.532893841556861e-06
-4.393897548027326e-06
-1.9047052924880958e-06
-2.2108814412558075e-06
-1.7715996963874048e-06
-1.2970095177866625e-06
5.376935296452778e-07
2.9000726353700657e-06
3.1502780390435525e-06
4.928653067781674e-06
4.557774842539608e-07
4.953018220898997e-06
3.2466532084995947e-06
2.901345854233739e-06
5.643575976543858e-07
-1.2923208980164524e-06
-1.659740851478464e-06
-2.205889787498805e-06
-1.857346384637193e-06
-4.415219294784389e-06
-5.004054627777421e-06
-1.9397816202193496e-06
-1.949590872296625e-06
-9.936711976576973e-07
2.162020603657666e-07
1.737911672183845e-06
2.685177808270378e-06
3.593629250620012e-06
3.6554565096547087e-06
5.078872639008303e-06
3.627029589226005e-06
3.5382024532459866e-06
2.700199045968521e-06
1.7893055060669294e-06
1.5746526010884665e-07
-1.0428754652902494e-06
-1.9810258612418252e-06
-1.8839626979016977e-06
-4.94809639303706e-06
-5.181974066292838e-06
-1.9972972142845435e-06
-2.1169321573477617e-06
-1.119468379495725e-06
-2.0757745722299603e-07
5.176915001126048e-07
1.0777696708985651e-06
1.3987537038628872e-06
1.5662872830946029e-06
1.2420015591541045e-06
1.592828930363499e-06
1.381732727845364e-06
1.0664858506870267e-06
5.401447615294153e-07
-2.1982059059122427e-07
-1.1245599593201483e-06
-2.044430611580772e-06
-2.024975573944321e-06
-5.197161343256651e-06
-4.637240938021314e-06
-9.887231247063255e-07
-2.458071677313711e-07
1.3146761952409491e-06
2.594627116436765e-06
3.754218701246259e-06
4.640213013717975e-06
5.2494884784093365e-06
5.4779370867730215e-06
5.673912889025967e-06
5.530142813958694e-06
5.228090839443089e-06
4.591638562867484e-06
3.755299390645339e-06
2.6205976686732857e-06
1.3391573875365381e-06
-2.943214428424712e-07
-1.003178968256302e-06
-4.6316144567959405e-06
-4.133183072685398e-06
-2.1697306993306853e-06
-3.09120160180143e-06
-3.4143544218601107e-06
-4.224436750466243e-06
-4.847943307295655e-06
-5.52714894269668e-06
-6.043325665061605e-06
-6.305917133242467e-06
-6.555527615859091e-06
-6.4144819936773345e-06
-6.099151728611307e-06
-5.5696539446592475e-06
-4.885411793414951e-06
-4.165869526229216e-06
-3.504495844214306e-06
-3.018594452328105e-06
-2.1811838691876417e-06
-4.185344812446257e-06
-1.4869805007311498e-06
1.950586718257874e-06
4.669940934509675e-06
7.732450829855964e-06
1.0687933280739692e-05
1.3224592229077459e-05
1.5229430463503668e-05
1.6637688296572417e-05
1.7581416745682255e-05
1.7915860379802417e-05
1.7537903521824827e-05
1.6721542020259328e-05
1.5186086029850276e-05
1.3227260841491839e-05
1.0727109364117027e-05
7.782979422513159e-06
4.641598941354519e-06
1.9565448035885336e-06
-1.4383862103894973e-06
1.4631271789689038e-06
-1.9742119471422015e-06
-4.6357559282395044e-06
-7.80603520456058e-06
-1.0716841066349403e-05
-1.3217074146365526e-05
-1.5261369110119993e-05
-1.6748718198456025e-05
-1.7563171182732873e-05
-1.7891001273362406e-05
-1.7563679980403535e-05
-1.675638961851078e-05
-1.5284059763920332e-05
-1.3288991653870319e-05
-1.07104525378654e-05
-7.816511111591318e-06
-4.639616969837057e-06
-2.000437284599421e-06
1.4694280566773799e-06
4.110663001988257e-06
2.1304067342464705e-06
3.054172118543974e-06
3.4276785950693167e-06
4.15625122307528e-06
4.910852819506317e-06
5.519521512287184e-06
6.035510979551795e-06
6.407540614428164e-06
6.549854915216535e-06
6.417944494740979e-06
6.07267536056888e-06
5.515107565634558e-06
4.894425469692543e-06
4.156200403948596e-06
3.445446467242874e-06
3.0337477462394347e-06
2.1598535693279075e-06
4.1899434257697266e-06
4.642763801410155e-06
9.480556271146412e-07
3.1451774362700746e-07
-1.3402606577894716e-06
-2.6166801836424725e-06
-3.772301645055265e-06
-4.641938817218083e-06
-5.14062691192585e-06
-5.46118124944428e-06
-5.74928802965502e-06
-5.478573654071894e-06
-5.181883802274356e-06
-4.6042024226533584e-06
-3.7449611158812957e-06
-2.6569396267550616e-06
-1.3022730515066527e-06
2.286746931812189e-07
9.866725989571279e-07
4.621220349276811e-06
5.159261690534933e-06
2.047139183058988e-06
2.056096618519021e-06
1.0671967272113392e-06
2.1979488196155472e-07
-6.270824041143541e-07
-1.100816631849355e-06
-1.3959542045638429e-06
-1.5994807937014244e-06
-1.1588069912527033e-06
-1.6175230097559279e-06
-1.4117879251207555e-06
-1.0815449201784233e-06
-5.446943057707543e-07
2.095161454884753e-07
1.0909605240305709e-06
2.0492138961825113e-06
1.96854255840595e-06
5.20875130577414e-06
4.989127727839104e-06
1.8033035603659542e-06
1.9973287415098184e-06
1.0272430479574268e-06
-1.9596716305247952e-07
-1.7662050820765884e-06
-2.664930681572919e-06
-3.547563732664294e-06
-3.597432967739067e-06
-5.41310603296985e-06
-3.595517207966026e-06
-3.5448662291104327e-06
-2.740128709710632e-06
-1.7734163593741137e-06
-2.1792306287293783e-07
1.0448291226650142e-06
1.9557453614371667e-06
1.9410986832890664e-06
4.9616302444377425e-06
4.374789269401269e-06
1.8381192665728463e-06
2.1715582425585467e-06
1.7532853543444915e-06
1.2077421597256333e-06
-5.363448147832628e-07
-2.9173770758061934e-06
-3.113921795194763e-06
-5.084914226682891e-06
6.151280174115925e-07
-5.096778311342032e-06
-3.1675406295117448e-06
-2.930703866810269e-06
-5.416713251826799e-07
1.2964967449069498e-06
1.746501179289428e-06
2.1427603263957096e-06
1.9039037575940831e-06
4.348220577210515e-06
3.4556503738514266e-06
1.5979061454007848e-06
1.8893093870486766e-06
1.6768815706003082e-06
1.7679553396821035e-06
1.6923878272123716e-06
-1.7341736896492321e-06
-6.348124064525784e-06
-2.0340459988554827e-06
-2.1301739802304098e-05
-1.9883690155486633e-06
-6.44752975020868e-06
-1.731210007183126e-06
1.710853532566059e-06
1.7345464199403082e-06
1.6719916329233087e-06
1.88602510164948e-06
1.5050453844311917e-06
3.478637541021179e-06
2.3941715445729983e-06
1.1504641040938068e-06
1.3821338455954901e-06
1.3130178287967809e-06
1.5431886579708731e-06
2.043866692336138e-06
3.786696101348852e-06
-3.6476349613012715e-06
-1.80474806281139e-05
3.789165075768208e-05
-1.806761662126455e-05
-3.668435781145618e-06
3.830141133254195e-06
2.04816479038028e-06
1.5343802036160703e-06
1.3756012773313842e-06
1.3569497172571943e-06
1.1120713124257442e-06
2.420879202491566e-06
1.3043826463388086e-06
6.141828188255261e-07
7.240397934538123e-07
7.449295909012221e-07
9.206297003627739e-07
1.2354586842455717e-06
1.8443180880289844e-06
9.391867866359593e-06
-1.6207768939735523e-06
-0.0001274577976923541
-1.719426898860732e-06
9.360278787118315e-06
1.7658277128296263e-06
1.314897747906052e-06
9.064632637278969e-07
7.177292314364259e-07
7.362826215939755e-07
5.536562799890454e-07
1.2301763721578318e-06
1.7044436417812392e-08
-3.9501640736183674e-08
-4.4523492670478504e-08
-2.556764844285908e-08
-7.959043979433034e-09
5.565283078823313e-08
-1.472512284328431e-08
1.0736537159328208e-08
3.006078408418489e-08
4.7497299815457694e-08
4.27525526092154e-09
-6.787362172300249e-09
4.773422435100372e-08
-2.3804884785594282e-08
-5.240728129241035e-09
1.9820485475108285e-08
4.66023847289776e-08
-7.539530777478376e-09
4.652554264072961e-08
-1.2003629702439511e-06
-5.749732302495758e-07
-7.355080440252237e-07
-6.612752835311042e-07
-9.267769057741404e-07
-1.2813278716383714e-06
-1.8290081300609273e-06
-9.386257308563462e-06
1.6101399969992158e-06
0.00012739053129617872
1.6461257998923173e-06
-9.378425239237043e-06
-1.870114607449569e-06
-1.286921389231921e-06
-9.043665517016741e-07
-7.497597916961141e-07
-7.231947848906906e-07
-6.055334412224944e-07
-1.249937699454584e-06
-2.415655420584528e-06
-1.0867502554523512e-06
-1.3441772787059492e-06
-1.3998146478622076e-06
-1.5618800535133204e-06
-2.0861820741457926e-06
-3.8779791842746825e-06
3.6857352800900856e-06
1.808638439432242e-05
-3.79659486392514e-05
1.8087996871529732e-05
3.6741278454099913e-06
-3.7517196210257175e-06
-2.0594755341107884e-06
-1.557787584927084e-06
-1.3876030929838024e-06
-1.3497814329022084e-06
-1.1697356377682322e-06
-2.4148673893054085e-06
-3.5222945703461406e-06
-1.5811466418380604e-06
-1.8195917920182936e-06
-1.6803638441809099e-06
-1.7513062906537868e-06
-1.692972168509943e-06
1.712508970463933e-06
6.458253803742764e-06
2.0072762582090675e-06
2.134654552210513e-05
1.9957451646290814e-06
6.3829914141444455e-06
1.712497392614143e-06
-1.704734207852443e-06
-1.7611382641113948e-06
-1.7049545882608097e-06
-1.8404905852975606e-06
-1.547450217964652e-06
-3.528646281919512e-06
-4.387178138554049e-06
-1.8742256192583184e-06
-2.1700295581572604e-06
-1.77087436081802e-06
-1.2532823079336453e-06
5.590915570508059e-07
2.9564970625006737e-06
3.165497541479656e-06
5.080655596290118e-06
-6.627014720317348e-07
5.070933100870256e-06
3.10396264791013e-06
2.925638263595598e-06
5.260528987138802e-07
-1.2937854125261161e-06
-1.7779093064440588e-06
-2.1771418249327823e-06
-1.9124293912098356e-06
-4.414379172035243e-06
-4.941757882459541e-06
-1.889310302649605e-06
-1.997349893256839e-06
-1.0459978254662161e-06
1.2571477708833712e-07
1.7750579194286686e-06
2.7386172748444793e-06
3.5423530256317726e-06
3.5969317136452794e-06
5.359334502463842e-06
3.5574734983945255e-06
3.5774900540852528e-06
2.725049902785326e-06
1.7350891700351756e-06
1.662394268353573e-07
-1.0766399375916613e-06
-1.9486884517139202e-06
-1.893928801371958e-06
-4.984772800531445e-06
-5.197748833896121e-06
-1.998957104398791e-06
-2.028252984120904e-06
-1.1028616236363753e-06
-1.716890856151565e-07
5.669121745932593e-07
1.0910002344322045e-06
1.3571143988033718e-06
1.603935165794823e-06
1.1962178382840527e-06
1.6168156791174226e-06
1.3785411087097188e-06
1.106234517711524e-06
5.290229879717501e-07
-2.2612069427996317e-07
-1.0753674515862066e-06
-2.0550106444028327e-06
-1.9758147302428863e-06
-5.160812575344398e-06
-4.7052228695498854e-06
-1.020785748262476e-06
-2.911171740338503e-07
1.3788535127567947e-06
2.6223460183327774e-06
3.7271390526671944e-06
4.596091181530149e-06
5.150636946227305e-06
5.523321696565553e-06
5.7615135161670494e-06
5.504759619801014e-06
5.1255552843132435e-06
4.582077278186825e-06
3.823856696810735e-06
2.639857126396361e-06
1.3292931898556404e-06
-2.5376800608101213e-07
-9.833163026329306e-07
-4.619504231889726e-06
-4.152746019614462e-06
-2.1043406523979513e-06
-3.0401103895405512e-06
-3.4843433991404993e-06
-4.090613637708351e-06
-4.84315029475324e-06
-5.526568456593051e-06
-6.037592221175281e-06
-6.4508101119131744e-06
-6.564492948002432e-06
-6.354287085064136e-06
-6.039104331112544e-06
-5.524628669345555e-06
-4.85581408227187e-06
-4.216442732046799e-06
-3.4028435776656263e-06
-3.0057104444952687e-06
-2.1314837888725124e-06
-4.205117729763619e-06
-1.4592455449546904e-06
1.9380788637279878e-06
4.616059668505201e-06
7.851693301641482e-06
1.0660432210429782e-05
1.3216522015913057e-05
1.5254083785387618e-05
1.6735447487703503e-05
1.7557954944791287e-05
1.7834496279511836e-05
1.7592783026987302e-05
1.6681108781085863e-05
1.528091866029313e-05
1.3203094668096105e-05
1.0723888485497657e-05
7.775829812456392e-06
4.593891024487484e-06
1.963343638833326e-06
-1.4807666912086681e-06
1.1782664033344048e-07
6.671933239221772e-08
5.6470619846926695e-08
8.697749809272182e-08
5.532935331009625e-07
4.6204162629237544e-07
4.6398909570033453e-07
5.590343923334018e-07
6.397512191114174e-07
5.157494109564453e-07
5.139450478530705e-07
6.343259574270732e-07
6.929341893613383e-07
5.599524094401787e-07
5.65304755895113e-07
7.091660325642124e-07
6.639395127017167e-07
5.136887170076321e-07
5.013225614636241e-07
6.268156421684878e-07
6.257776931084535e-07
4.906221245937203e-07
4.815235904453985e-07
5.984327602348571e-07
5.993774563339826e-07
4.774430639731264e-07
4.6034618250700987e-07
5.478583706697293e-07
4.4635425056060996e-07
3.712451025483787e-07
3.7094020854944176e-07
4.454703593781417e-07
1.1843302327729788e-07
9.611097240291855e-08
1.1045042425106288e-07
1.6172724703888974e-07
6.802478003109513e-08
6.009679764940046e-08
5.339356812239515e-08
4.781077356241781e-08
-2.14409840104679e-07
-1.8781796662370454e-07
-2.0003048872840878e-07
-2.511536609794973e-07
-3.6487715182609293e-07
-2.75937705573881e-07
-2.595055906828847e-07
-3.154314237585609e-07
-5.006300957122178e-07
-3.980776750456272e-07
-3.991955874749209e-07
-5.040515748122587e-07
-5.476364755008234e-07
-4.214752928888288e-07
-4.2044195347479274e-07
-5.444704623824848e-07
-6.744589076124186e-07
-5.333280664876483e-07
-5.31292933203531e-07
-6.683276314589648e-07
-7.173002093407987e-07
-5.897967269019588e-07
-6.014319758884668e-07
-7.524442654505137e-07
-5.929743847055136e-07
-4.737916216024374e-07
-4.76241391544896e-07
-6.003596707548908e-07
-5.638094108251224e-07
-4.789497543011834e-07
-4.876913165530183e-07
-5.901719628553792e-07
-1.0563177743616592e-07
-6.962090681739141e-08
-7.488706987857086e-08
-1.2140107508162856e-07
4.724770133357481e-06
4.724660071842024e-06
4.718124107072619e-06
4.705217698242059e-06
1.0823081458832817e-05
1.0785765469867314e-05
1.0805299467619989e-05
1.0881849923038978e-05
1.935798282515222e-05
1.921501765844713e-05
1.921118139425193e-05
1.9346393861585653e-05
2.9190890683150617e-05
2.8968980561705493e-05
2.897335882257046e-05
2.92039410965117e-05
3.916221980032608e-05
3.8850933883449734e-05
3.884626803635216e-05
3.9148064849947595e-05
4.840623593771465e-05
4.8042823525440426e-05
4.8054929991658835e-05
4.844262721964698e-05
5.6129285895656356e-05
5.570329233334226e-05
5.5705316265364235e-05
5.613522923908487e-05
6.199183050448198e-05
6.151834546314072e-05
6.151085081962382e-05
6.196927924750906e-05
6.552503165202506e-05
6.505103801962564e-05
6.506388812127506e-05
6.556353821635108e-05
6.677497406526456e-05
6.629010459735518e-05
6.630023473108704e-05
6.680533536901345e-05
6.561273154009895e-05
6.51373204925143e-05
6.515051751593282e-05
6.565243949729904e-05
6.1956752098552e-05
6.150903711821254e-05
6.152664105577021e-05
6.200959800545247e-05
5.612645679664574e-05
5.570390382733659e-05
5.570877455476908e-05
5.6141048332292165e-05
4.8437393857125866e-05
4.805737924060138e-05
4.805313604686057e-05
4.842450487499428e-05
3.922730481503711e-05
3.892863118157286e-05
3.8937896618740364e-05
3.925493291304094e-05
2.9201614049484403e-05
2.8991478545167815e-05
2.9007711222064914e-05
2.925034833682616e-05
1.940399888700206e-05
1.9267800612815522e-05
1.9272010288423624e-05
1.9416683059575446e-05
1.0795589208884016e-05
1.0755551893074089e-05
1.077245026868956e-05
1.0846429521121914e-05
4.614476663139522e-06
4.6325521561585425e-06
4.642399091203675e-06
4.644104652312686e-06
-1.5179780235574647e-07
-9.033920483902946e-08
-7.04983858235142e-08
-9.216546975610029e-08
-4.783690934692664e-07
-4.178999016626883e-07
-4.504745699240864e-07
-5.765127807436099e-07
-6.140216833594447e-07
-5.071847111598471e-07
-5.225310620998735e-07
-6.603236092500575e-07
-6.370912376540971e-07
-5.06990317006295e-07
-5.136924668414089e-07
-6.573499333750732e-07
-6.204788311203746e-07
-4.911443540478455e-07
-4.992884933829878e-07
-6.451891699787993e-07
-5.631270516837095e-07
-4.5258055722530166e-07
-4.67963542499783e-07
-6.094679813606341e-07
-5.356960354196971e-07
-4.1272571274508785e-07
-3.9367952664459693e-07
-4.784992364281759e-07
-3.205875105938283e-07
-2.485349483161148e-07
-2.4891032265883517e-07
-3.2179582878932855e-07
-2.1366059915761682e-07
-1.6220307497150088e-07
-1.484432528564561e-07
-1.7228458065732255e-07
-4.011635856837614e-09
-1.2723610942622088e-08
-2.1463192556581134e-08
-3.0208237078444e-08
1.4759686528531546e-07
1.2270176313888825e-07
1.3524317193924773e-07
1.8535776408201698e-07
3.165754890455119e-07
2.6829933641447923e-07
2.9264101369941287e-07
3.898765325027753e-07
5.042670321309117e-07
4.0554375074774995e-07
4.098931119522753e-07
5.174762814363909e-07
5.538649460179457e-07
4.3033622404431426e-07
4.319865951063484e-07
5.587847961563419e-07
6.932099736456365e-07
5.307571110391152e-07
5.066430329714322e-07
6.208196649537534e-07
6.710410020982494e-07
5.287159050570978e-07
5.239585536553903e-07
6.566962519882757e-07
5.71163877083336e-07
4.46853585800433e-07
4.437413295699244e-07
5.617753071618381e-07
5.716478745920739e-07
4.6695453803646814e-07
4.5614245169911527e-07
5.390925528203638e-07
3.378149759925009e-08
3.525863045972244e-09
1.341895883300026e-08
6.348081582618903e-08
-4.661314647047554e-06
-4.670107992210681e-06
-4.671361904740046e-06
-4.66515801655909e-06
-1.0873561690605271e-05
-1.0805113585643511e-05
-1.079398518843977e-05
-1.0840071956730313e-05
-1.945122209878747e-05
-1.9305416512294116e-05
-1.930002499506145e-05
-1.9434943026142015e-05
-2.9263842846960486e-05
-2.904208561127497e-05
-2.9047880668264803e-05
-2.9281240252032603e-05
-3.920893407671766e-05
-3.890201613410138e-05
-3.890257205929615e-05
-3.921062266698527e-05
-4.838865217937638e-05
-4.801964485456889e-05
-4.802639711043444e-05
-4.8408929487098185e-05
-5.614299676603984e-05
-5.5720972123474155e-05
-5.572738670422961e-05
-5.616218080084501e-05
-6.199312956256531e-05
-6.153244690099147e-05
-6.153815679166286e-05
-6.201021367846504e-05
-6.557821188302171e-05
-6.507870083494183e-05
-6.506668241990088e-05
-6.55419774564514e-05
-6.677278247946283e-05
-6.629751266451489e-05
-6.631715629679125e-05
-6.683188927447681e-05
-6.555191532586768e-05
-6.506834761565994e-05
-6.50719312531578e-05
-6.556267589830078e-05
-6.191685579326478e-05
-6.14639773546255e-05
-6.147621124863445e-05
-6.195359989014104e-05
-5.6181618756756535e-05
-5.575759033249472e-05
-5.5762564218131416e-05
-5.619651792698743e-05
-4.846631169930227e-05
-4.80881057109972e-05
-4.808628316821384e-05
-4.846066318464626e-05
-3.918399502855774e-05
-3.8880973931787466e-05
-3.888528444628836e-05
-3.919673565022652e-05
-2.923796116516275e-05
-2.9012461396193956e-05
-2.9013792026244545e-05
-2.924198877074513e-05
-1.9324851797786202e-05
-1.9199234495781425e-05
-1.921191221831986e-05
-1.9362934936206777e-05
-1.0880230358778498e-05
-1.0826468665792177e-05
-1.0830350936630317e-05
-1.0891980732008477e-05
-4.68312702739393e-06
-4.696724670627539e-06
-4.7036509880360455e-06
-4.704056014492863e-06
1.1386217597664228e-06
9.756744367983572e-07
9.761282719900066e-07
1.1398893795533382e-06
-1.6084220679779548e-06
-1.4476437912858131e-06
-1.4554944876010723e-06
-1.6321522108286857e-06
-3.5213894696850545e-06
-2.969927814344686e-06
-2.9735087627713597e-06
-3.5322967666395755e-06
-5.861495181558318e-06
-4.909820255138975e-06
-4.919662319857743e-06
-5.891175049899111e-06
-8.076703606252345e-06
-6.745124271678726e-06
-6.745609494318572e-06
-8.078080499851481e-06
-1.002551037398991e-05
-8.374070272210155e-06
-8.360942625795786e-06
-9.985871317064188e-06
-1.1523834948512501e-05
-9.660656083765318e-06
-9.66841724681089e-06
-1.1547216347551625e-05
-1.2672581566564034e-05
-1.0650478754703485e-05
-1.0662129300120782e-05
-1.270777748318963e-05
-1.334529799779105e-05
-1.122084330151818e-05
-1.1222433129787213e-05
-1.3350109064780291e-05
-1.3594502554448162e-05
-1.1443004788946887e-05
-1.1448754506759862e-05
-1.3611832200055574e-05
-1.3372451449278344e-05
-1.1239908720095393e-05
-1.1234428737960656e-05
-1.3355993010111256e-05
-1.2668008539384878e-05
-1.0648677473468204e-05
-1.06632783477556e-05
-1.2712107378409776e-05
-1.1526944629025593e-05
-9.66825828585538e-06
-9.680689777247231e-06
-1.1564476788739064e-05
-1.0008855998444588e-05
-8.378448974388775e-06
-8.386746254029909e-06
-1.0033988353197465e-05
-8.040961614441677e-06
-6.719313488279255e-06
-6.7278442720253295e-06
-8.066652892435577e-06
-5.871609910501618e-06
-4.919277749260154e-06
-4.92900692805609e-06
-5.900895277299867e-06
-3.5512209277666074e-06
-2.9915574329963945e-06
-2.9882803531666724e-06
-3.5412604957318905e-06
-1.6128907239787438e-06
-1.4563191519378904e-06
-1.4691690619628162e-06
-1.6517007025429464e-06
1.1666575552293779e-06
9.96502467320859e-07
9.908929419211177e-07
1.1498341987437044e-06
3.2666719264051736e-06
2.8141345569387965e-06
2.805749230172516e-06
3.2413082876603383e-06
1.8155802715691394e-06
1.6015478266906413e-06
1.58375879055761e-06
1.76177717303716e-06
3.130188260813682e-06
3.158148043969078e-06
3.1553650884363904e-06
3.121700470343214e-06
4.013931730884046e-06
4.2664866196640006e-06
4.25324807151739e-06
3.9739556556561695e-06
5.116739047017482e-06
5.562415575477431e-06
5.550972268841825e-06
5.0821214430119e-06
6.067901227702066e-06
6.6766072779334e-06
6.686317408965969e-06
6.097252895131966e-06
6.892602302799311e-06
7.58313436444169e-06
7.584252895709298e-06
6.895949695384651e-06
7.531418014572466e-06
8.265564774623257e-06
8.26086209382293e-06
7.517221509933947e-06
7.920359478719163e-06
8.684092046795655e-06
8.68635479600588e-06
7.927218880099396e-06
8.057113447312858e-06
8.831738600001415e-06
8.838589200754754e-06
8.077723792299096e-06
7.920276491102385e-06
8.685245257877838e-06
8.68960620636905e-06
7.933573588969622e-06
7.539169117554145e-06
8.279579038705798e-06
8.281728569592417e-06
7.5457508258436334e-06
6.910164993989554e-06
7.594292407153702e-06
7.589744434599588e-06
6.896318997307027e-06
6.116826077651183e-06
6.704627719456013e-06
6.696740326050943e-06
6.093030724407811e-06
5.094268863636842e-06
5.5460858031652904e-06
5.540325817676717e-06
5.076852587326819e-06
3.988368234120188e-06
4.25264566217276e-06
4.250385922777156e-06
3.981548309051064e-06
3.152386491733772e-06
3.169833749594453e-06
3.156570739126785e-06
3.1122722055076935e-06
1.7979134431245214e-06
1.596872545861494e-06
1.5911302237991976e-06
1.78046394017084e-06
3.2545031922737166e-06
2.8219707329801835e-06
2.83525356281622e-06
3.294503679862615e-06
3.5411559802245307e-06
2.9701052743913436e-06
2.9653905249116264e-06
3.5269309484053935e-06
5.140271432946264e-07
2.6194800539780516e-07
2.510650681797344e-07
4.811458261810841e-07
4.4037992308343377e-07
5.378436072067672e-07
5.490123738960406e-07
4.7420716442481137e-07
-3.642570887141261e-07
8.004845331033295e-08
6.453802647854445e-08
-4.111282473351352e-07
-1.0560532400782918e-06
-2.3796089854144498e-07
-2.2745628913689586e-07
-1.0244314287977119e-06
-1.6208292167307903e-06
-5.315811441031215e-07
-5.297390168745864e-07
-1.6153812862906847e-06
-2.0346019635741897e-06
-7.646408065609123e-07
-7.788394672525456e-07
-2.077453102988791e-06
-2.394746501321876e-06
-9.767544572047981e-07
-9.6529911886023e-07
-2.3601416224705574e-06
-2.577225116096038e-06
-1.0967885464285843e-06
-1.087658889398213e-06
-2.5496154959503414e-06
-2.737256120988185e-06
-1.2527639634551946e-06
-1.2634950251610988e-06
-2.7695347127876246e-06
-2.546101577349802e-06
-1.078282156452559e-06
-1.0812912429880583e-06
-2.5551175661941983e-06
-2.3740420673767915e-06
-9.701717711418922e-07
-9.735678817568427e-07
-2.3842735086265776e-06
-2.0842943475596343e-06
-7.913045453333822e-07
-7.835092802332966e-07
-2.060806859272013e-06
-1.5973691149806513e-06
-5.108333988035341e-07
-5.092149505392385e-07
-1.5926083697381799e-06
-1.0108012253873255e-06
-2.1501100899712355e-07
-2.2595132709302135e-07
-1.043886361129509e-06
-3.7960615584253787e-07
7.815174640768419e-08
7.58878890838588e-08
-3.8650362854664166e-07
5.071519803001578e-07
5.672180387605863e-07
5.410679856376888e-07
4.281176165799039e-07
4.855130392167339e-07
2.5113522372777197e-07
2.572148306567712e-07
5.037213874903301e-07
3.530858298850248e-06
2.9583174926406386e-06
2.9512520378638385e-06
3.509529570511205e-06
3.939827057042322e-06
3.2799796871874065e-06
3.2655808290815713e-06
3.896483133813966e-06
1.2833354013919163e-06
9.304260925047103e-07
9.410939930676321e-07
1.3154030427120489e-06
1.9007803067072615e-06
1.8327854734989657e-06
1.8363756077999227e-06
1.911633902396126e-06
1.71124094527908e-06
2.005006625505068e-06
1.9953131497052468e-06
1.6818409011021274e-06
1.601278946439244e-06
2.3040636950577564e-06
2.30667114020644e-06
1.609106078048761e-06
1.5475487231686458e-06
2.5683304222257064e-06
2.544284292249621e-06
1.4749661521040736e-06
1.5139219677884341e-06
2.788196789338393e-06
2.774777596803446e-06
1.4733134576783158e-06
1.4595234989478456e-06
2.8942814912502612e-06
2.89374578310575e-06
1.4579044693707743e-06
1.4138682377096146e-06
2.915519298762881e-06
2.9108319070658695e-06
1.3998813498394824e-06
1.7727618114582455e-06
3.3103400635114966e-06
3.331214031732088e-06
1.8356151475495963e-06
1.4056715764709793e-06
2.905835608246754e-06
2.89918198981276e-06
1.3854994599382664e-06
1.5132572083187412e-06
2.929278691499171e-06
2.9111524284530788e-06
1.4585188313764874e-06
1.4465190828483188e-06
2.7445481932675264e-06
2.753087246953889e-06
1.4723843761998978e-06
1.534207536013632e-06
2.5773852819765963e-06
2.5765064453064923e-06
1.5314985329917263e-06
1.6350980144297367e-06
2.3254578888631805e-06
2.316727525764062e-06
1.6086915327617746e-06
1.6988761469827196e-06
2.00083224588532e-06
1.9997467111676492e-06
1.6955424696485366e-06
1.9364204690841547e-06
1.8558817970748542e-06
1.848413358429557e-06
1.9138218466663304e-06
1.2450850507828015e-06
8.845302024718116e-07
8.858471928219203e-07
1.2492346545545097e-06
3.934102015767937e-06
3.2873904856622893e-06
3.286468655661068e-06
3.9313334161961144e-06
3.69789248977348e-06
3.0550165157627873e-06
3.0580980244776512e-06
3.707115127760119e-06
1.1071828759368074e-06
6.714475314639756e-07
6.436633055439955e-07
1.0233337794929298e-06
1.657441534685944e-06
1.4990871621822777e-06
1.5035526695905688e-06
1.6708547669885832e-06
1.4512294042035023e-06
1.629696023908167e-06
1.6184739393132475e-06
1.4172925781874568e-06
1.1170829469220322e-06
1.7479389536889656e-06
1.7382339789762113e-06
1.0876335359011335e-06
4.899172725281176e-07
1.6207803973378176e-06
1.6191587582925493e-06
4.850090344898916e-07
2.5564028716118514e-07
1.7850148925635523e-06
1.8044355976076787e-06
3.1422319868301685e-07
-8.948172114386921e-08
1.646210252892466e-06
1.64456542595115e-06
-9.438233261604978e-08
5.120107116063366e-09
1.858149784705887e-06
1.871412125376004e-06
4.4987322311840217e-08
-1.3305983370681673e-06
5.003342988807447e-07
4.2644456743623493e-07
-1.5529444633566314e-06
1.2009759187137092e-08
1.862160746379793e-06
1.873699905341475e-06
4.6639392126124335e-08
-7.581695649072628e-08
1.6562136999631605e-06
1.6516350719308903e-06
-8.964962461277537e-08
2.6576004141798393e-07
1.7765022765625638e-06
1.7756748321162696e-06
2.6331608027341247e-07
4.866025341554447e-07
1.6182242487117193e-06
1.6162364205318802e-06
4.805193795087703e-07
1.1072824550040217e-06
1.738309159227125e-06
1.7265681417910628e-06
1.0718317824398582e-06
1.4273068029146962e-06
1.6169856666969906e-06
1.6162817640386073e-06
1.425092951534701e-06
1.6629077447816165e-06
1.4926355733635432e-06
1.4853511496881744e-06
1.6409918990323291e-06
1.1008009297430732e-06
6.971679069600611e-07
7.036496508239232e-07
1.120505918050796e-06
3.688056395001471e-06
3.0411877683933497e-06
3.0399529967195527e-06
3.68435030312364e-06
3.228080803108213e-06
2.6365234579994734e-06
2.632464925711453e-06
3.215738536677115e-06
1.065855606441346e-06
6.425150961275605e-07
6.314262063211729e-07
1.0322896262238146e-06
1.6764296844051785e-06
1.4464132478408942e-06
1.4530183207739356e-06
1.6963078985909874e-06
1.8149810446788095e-06
1.8402330159705826e-06
1.8386546971616013e-06
1.81013986888523e-06
2.0831706938340133e-06
2.481684578836685e-06
2.4681257931868927e-06
2.0422519538820794e-06
1.470051451013532e-06
2.4583176467807277e-06
2.4512833001200107e-06
1.448769482936818e-06
3.53356354398926e-07
2.009766958077641e-06
2.0128169558875086e-06
3.626186184657598e-07
8.784445371112781e-07
2.925947702570042e-06
2.9384418214206676e-06
9.160632683524739e-07
-4.952252634637944e-07
1.7088574333357087e-06
1.6738623979106748e-06
-6.005223813776439e-07
4.0575897904959746e-06
6.401224429852803e-06
6.60383166295464e-06
4.666784975904115e-06
-4.829705056996758e-07
1.715233607535449e-06
1.674334529910837e-06
-6.060860303636062e-07
8.340642584370173e-07
2.884223102461725e-06
2.896079668968099e-06
8.697514671807127e-07
3.9349767916307954e-07
2.0363348381402524e-06
2.026077932315573e-06
3.6264626440685177e-07
1.4233844327082856e-06
2.425283610274498e-06
2.4294555840409515e-06
1.4360833090476532e-06
2.066861889471472e-06
2.4914356064331677e-06
2.5037770413072202e-06
2.1041042975733504e-06
1.8198027556537433e-06
1.8429380761464387e-06
1.8386317389151863e-06
1.8069021951450104e-06
1.7065433995933077e-06
1.4608033136465082e-06
1.4525180009328231e-06
1.6814826724886878e-06
1.0898466306086263e-06
6.735585100225983e-07
6.71735719937061e-07
1.08414594657269e-06
3.2481947772056152e-06
2.646513940829376e-06
2.63139126238654e-06
3.2025123866685767e-06
2.5523182043407644e-06
2.0604785957445415e-06
2.048896325601568e-06
2.517142053348742e-06
8.797416531924895e-07
5.142420468340347e-07
5.131524992707526e-07
8.763578799309002e-07
1.3810158590032984e-06
1.1332270881680984e-06
1.1361188876346517e-06
1.3897288765329918e-06
1.5463620156586089e-06
1.4624993517342588e-06
1.4567648168872793e-06
1.529103104358498e-06
2.064247893174276e-06
2.2430803237050156e-06
2.2530788544861124e-06
2.0945774343861245e-06
2.8672043144162274e-06
3.477157804687714e-06
3.4836028000029273e-06
2.886761043652264e-06
1.2244127366445312e-06
2.7061182366061587e-06
2.7035426481969438e-06
1.2166046883255177e-06
-1.3376693084321545e-06
1.15493394503563e-06
1.144379119133454e-06
-1.3692890721284101e-06
3.0180118282263635e-06
5.898001818493981e-06
6.009563752407132e-06
3.3534659529266264e-06
-1.19429638821833e-05
-9.22441953493669e-06
-9.88319620681688e-06
-1.3925835456063407e-05
3.069212539230648e-06
5.9444574810885165e-06
6.053600764832634e-06
3.397312775377248e-06
-1.3875353178094407e-06
1.0976584941535528e-06
1.0765540810475649e-06
-1.451099009175394e-06
1.2013424384726967e-06
2.691450987080124e-06
2.695929020357646e-06
1.2148174092230235e-06
2.832157275700631e-06
3.457683213747842e-06
3.4780090529817898e-06
2.8936805428481094e-06
2.1044580562068482e-06
2.2647057524305403e-06
2.2564117977408316e-06
2.079632569762513e-06
1.4968041816554312e-06
1.4262209390158986e-06
1.4322056593463195e-06
1.5149446507822795e-06
1.3910714022902226e-06
1.139443860598277e-06
1.1388578300963736e-06
1.3893211370241687e-06
8.60189203533146e-07
4.806457745698545e-07
4.6282115739870733e-07
8.063247307066312e-07
2.5249785485792486e-06
2.0472314107289336e-06
2.0484007994814313e-06
2.528616174446441e-06
1.7366972796528657e-06
1.3955838376045193e-06
1.392553562462595e-06
1.727565364983974e-06
6.106217981249884e-07
3.4307259655363964e-07
3.444741853986244e-07
6.14989341451988e-07
9.95582586593713e-07
7.83414253358039e-07
7.777933248576119e-07
9.786619096230353e-07
1.120442046809167e-06
1.0041264925098048e-06
9.979866923970349e-07
1.1018927645878307e-06
1.5992891043703494e-06
1.613069918304788e-06
1.60853316322207e-06
1.5857443004252403e-06
2.47503247008396e-06
2.7012670963388885e-06
2.704743818360278e-06
2.485583440403616e-06
5.2322144716843155e-06
5.914813757335047e-06
5.900730563612733e-06
5.18990459064117e-06
6.977719395617754e-07
3.047521128896058e-06
3.1009120817770963e-06
8.578056153174529e-07
-8.366234033219122e-06
-4.4204753940069175e-06
-4.728977359591546e-06
-9.294650453961495e-06
3.5219318032519986e-05
4.0038082243287754e-05
4.207207935980062e-05
4.1346881083592635e-05
-8.346005146930846e-06
-4.41230468073428e-06
-4.731276464220446e-06
-9.306233439643208e-06
7.532496725803917e-07
3.0801731659146903e-06
3.1137303387884785e-06
8.530655534744191e-07
5.222488025369287e-06
5.918085552558683e-06
5.917186443937794e-06
5.219744835804896e-06
2.491906795187848e-06
2.715765264171832e-06
2.7163291770326836e-06
2.4937444744743686e-06
1.5781903505152073e-06
1.5953793950918005e-06
1.5939392930541807e-06
1.574081891719814e-06
1.1611568639380287e-06
1.0460257603428502e-06
1.0439208407708733e-06
1.1547089416863443e-06
9.515894096590038e-07
7.451568265759434e-07
7.44529729257426e-07
9.497006266956376e-07
5.72328426595714e-07
3.0817556989637396e-07
3.1075265327640267e-07
5.800647394083036e-07
1.734146437892825e-06
1.4006829127111153e-06
1.4048913281605735e-06
1.747005922758671e-06
8.912728346466281e-07
7.318409837031581e-07
7.47773818310371e-07
9.395526204825089e-07
2.823038900423569e-07
1.5319670221281e-07
1.6563651084045006e-07
3.1993212501468804e-07
5.308169128692697e-07
4.0516244614874353e-07
3.9594729028813447e-07
5.029590517402482e-07
5.805211239495733e-07
5.083759793134135e-07
5.119914895379551e-07
5.913885189334778e-07
8.655303621596389e-07
8.376289531986103e-07
8.377780584822858e-07
8.659215604556181e-07
1.4019293906875063e-06
1.4345441375906987e-06
1.4179141341053025e-06
1.3519237385128946e-06
2.0471688376710873e-06
2.269865484016975e-06
2.3103885011810377e-06
2.1688073114090045e-06
1.0971322040698173e-05
1.141001331017577e-05
1.1293136716716834e-05
1.062141497726321e-05
3.9257298541928165e-06
8.87220920137155e-06
9.586300367292466e-06
6.0664853932523854e-06
-8.311439453156932e-05
-7.638796561049155e-05
-8.151320838328813e-05
-9.85982185798262e-05
3.971853309636675e-06
8.884006768239416e-06
9.563156230740777e-06
6.006812414194318e-06
1.1015922615043028e-05
1.1435281683069842e-05
1.1299724157531887e-05
1.0609272766026745e-05
2.0620037401997138e-06
2.262584500978271e-06
2.2804778431750883e-06
2.1152905686494528e-06
1.433223817293161e-06
1.4762144747715311e-06
1.471013526488374e-06
1.4176001828514195e-06
8.124217189542371e-07
7.974560780610318e-07
8.082312764057242e-07
8.449413033129183e-07
5.949740596311592e-07
5.121832635235357e-07
5.053913638697338e-07
5.744722897382815e-07
4.6803162112585284e-07
3.6398159997119706e-07
3.742007369522682e-07
4.989171717428853e-07
2.7765176435767813e-07
1.3661914149976084e-07
1.3593012959667305e-07
2.7564527937951055e-07
9.250043646047423e-07
7.391429016623263e-07
7.286342099677157e-07
8.934518462289098e-07
-2.042922619960308e-08
-1.1407591649081894e-08
-2.323891745703577e-09
7.09783587460322e-09
4.593260549690115e-09
-5.191410301641497e-09
-1.573862040693541e-08
-2.713181346258864e-08
-5.69605262956685e-09
-1.3008975341399776e-08
-2.181584335403386e-08
-3.227065126232276e-08
-1.0134597161481906e-08
-1.0820078055751026e-08
-1.3647574181874234e-08
-1.8610260221763042e-08
-6.2931063693483225e-09
-6.192602097776501e-09
-6.360861948273566e-09
-6.915759520609299e-09
7.957450809392697e-09
1.6087298826406027e-08
2.6708236178230038e-08
3.989558250427905e-08
-2.8718470934663287e-09
-6.346855485617198e-09
-9.491167907160758e-09
-1.230177176791969e-08
-9.007736223587415e-10
2.3974175977770074e-09
5.344184594857637e-09
8.074385937639761e-09
1.192156445783965e-08
1.5336639014318365e-08
1.9397477735161317e-08
2.4253724639766716e-08
2.5730857944328278e-08
2.784199781835639e-08
3.216871924394127e-08
3.87288029979338e-08
3.705154960620405e-09
4.9118268341530325e-09
5.462333252381768e-09
5.264233882140701e-09
-2.488389155841375e-08
-1.6591556850631406e-08
-1.0794280747017382e-08
-7.54525314450305e-09
-9.49083073242818e-09
3.3153869094526556e-09
1.7106339178507568e-08
3.190035446909434e-08
-1.6908253186453948e-08
-1.80433674112912e-08
-1.9582201860046666e-08
-2.1507505221229906e-08
3.5084890548375824e-09
1.0862902244390682e-09
-1.1198522109623354e-09
-3.2209188649545695e-09
-1.982073227768666e-09
2.6708579237144647e-09
7.800716350647718e-09
1.3508021923236413e-08
1.0041169729024801e-08
1.8398012224807303e-08
2.7174767935900235e-08
3.653895758182202e-08
9.287914048972112e-09
6.266495988782594e-09
2.5141440596065934e-09
-2.0643867171266095e-09
-5.496509858371468e-09
6.551523379361157e-09
1.9094899605942572e-08
3.2356639145803e-08
-9.182608314839413e-07
-7.284260875595194e-07
-7.128825160185315e-07
-8.713617775102378e-07
-3.309870431067452e-07
-1.788205902242268e-07
-1.6940042735225092e-07
-3.023143226865699e-07
-4.859861939543464e-07
-3.754610629069788e-07
-3.806157523600362e-07
-5.013508591611426e-07
-5.935634878051488e-07
-4.973577119038453e-07
-4.770439514523162e-07
-5.32314848533666e-07
-8.386612098121304e-07
-8.204891165375372e-07
-8.292493628436759e-07
-8.650602885129643e-07
-1.353204380105666e-06
-1.4134802806542446e-06
-1.4214911026044774e-06
-1.3776328845471753e-06
-2.048855213321321e-06
-2.2686676556804564e-06
-2.305366884614024e-06
-2.1590800285964384e-06
-1.1001091295870236e-05
-1.1428681007785713e-05
-1.1302444649863297e-05
-1.0622757699974006e-05
-3.993641337352027e-06
-8.922283614321014e-06
-9.621142080140643e-06
-6.088328424802558e-06
8.317022042320099e-05
7.641116516898805e-05
8.150546859259089e-05
9.856055668289176e-05
-3.949627035870762e-06
-8.883392045078153e-06
-9.585228443687033e-06
-6.053341232048481e-06
-1.0982732684738927e-05
-1.1414080461624732e-05
-1.1290741142255811e-05
-1.061324035805944e-05
-2.0259565262636947e-06
-2.260507481366414e-06
-2.3125993189876404e-06
-2.1826563556537337e-06
-1.4062000527892415e-06
-1.4502819483674934e-06
-1.4451836389817174e-06
-1.3910346974843613e-06
-8.358520380835621e-07
-8.14187621767104e-07
-8.18466251939487e-07
-8.489445366133275e-07
-5.850344972357924e-07
-5.115808493494356e-07
-5.147019236373396e-07
-5.945922250116809e-07
-4.7585317181075837e-07
-3.65954213765729e-07
-3.70760715628915e-07
-4.904597197263882e-07
-3.0173074844208614e-07
-1.6371734845588293e-07
-1.6853953144213563e-07
-3.1648115439431024e-07
-8.426255662108417e-07
-6.850599073016106e-07
-7.008273019692979e-07
-8.901167649066899e-07
-1.731124991355415e-06
-1.3987650777647076e-06
-1.4031502334477253e-06
-1.7442446004212186e-06
-6.307525052262619e-07
-3.445287564129984e-07
-3.2608598199423966e-07
-5.750398145432101e-07
-9.608386305481886e-07
-7.496410672214182e-07
-7.438356958155978e-07
-9.433044194651075e-07
-1.1373892160326804e-06
-1.033429249508444e-06
-1.0428643986148955e-06
-1.1658689440530168e-06
-1.586003840592376e-06
-1.6072975936864964e-06
-1.6104168502062421e-06
-1.5956914005688105e-06
-2.4622810849694865e-06
-2.7023598545006244e-06
-2.7193769029376647e-06
-2.513800650805198e-06
-5.2486221214786966e-06
-5.945363721004959e-06
-5.948257060850448e-06
-5.257589967222476e-06
-7.125117761352939e-07
-3.0486849980637665e-06
-3.0890340848577225e-06
-8.329791517103224e-07
8.334814243504685e-06
4.408314486004095e-06
4.734688050955782e-06
9.317238178596643e-06
-3.519324770112631e-05
-4.003728967233444e-05
-4.209611128330737e-05
-4.139580181650171e-05
8.340232598325059e-06
4.412236279838222e-06
4.737554423095425e-06
9.31936866482852e-06
-6.811559640773623e-07
-3.02864951695625e-06
-3.0798031769307954e-06
-8.342358908119962e-07
-5.260720697453092e-06
-5.926307725501179e-06
-5.8961174280725e-06
-5.169884888578391e-06
-2.4825690582708226e-06
-2.7112162751530278e-06
-2.7167485265322533e-06
-2.499409093192906e-06
-1.5273675044724655e-06
-1.5640180877074528e-06
-1.5812560236749817e-06
-1.5795399595508464e-06
-1.1518897868323386e-06
-1.0398265968269982e-06
-1.0420860152571265e-06
-1.1588880846624683e-06
-9.847494986114924e-07
-7.672143434722667e-07
-7.562502311597719e-07
-9.517216251753169e-07
-6.081942024172005e-07
-3.464492443483458e-07
-3.5345317578316937e-07
-6.29279994029952e-07
-1.7505967594977356e-06
-1.4107781657335394e-06
-1.4092344710892046e-06
-1.7460658910672944e-06
-2.556191960989551e-06
-2.077786201648557e-06
-2.080803110149354e-06
-2.5653821170701363e-06
-8.636954861307444e-07
-4.999307766651029e-07
-4.992456756891528e-07
-8.615858360094819e-07
-1.3728846591787303e-06
-1.1120376057771608e-06
-1.1004447100226855e-06
-1.3378835066468753e-06
-1.5177074125238832e-06
-1.4421817908782941e-06
-1.444452382148853e-06
-1.5246571519744734e-06
-2.0676063627877994e-06
-2.2422350889339526e-06
-2.247504456820426e-06
-2.0837244741334082e-06
-2.8792883929318336e-06
-3.487655132305978e-06
-3.4916597924650183e-06
-2.891497487778061e-06
-1.2300378490204267e-06
-2.7135588588911297e-06
-2.714300085471244e-06
-1.2321347759303158e-06
1.361456550830198e-06
-1.1130934830516637e-06
-1.082460392043405e-06
1.4538371980732379e-06
-3.0973471786821527e-06
-5.959579233216772e-06
-6.056766510054157e-06
-3.3892439508242944e-06
1.1896195642679963e-05
9.200555794064424e-06
9.881987057314134e-06
1.3947389318313963e-05
-3.035279682761516e-06
-5.918230135293356e-06
-6.034290346901283e-06
-3.38425348461735e-06
1.3438205477278586e-06
-1.1419038419835381e-06
-1.1243056328158474e-06
1.3966551408173267e-06
-1.2094494384329302e-06
-2.700128699073545e-06
-2.7064992378922348e-06
-1.2287095563778827e-06
-2.874998621116287e-06
-3.486524313922601e-06
-3.4941784397557463e-06
-2.8982927617882126e-06
-2.1075800104020104e-06
-2.2706562381458184e-06
-2.2671312461808313e-06
-2.0971994457164023e-06
-1.5139374402450834e-06
-1.4439175513303315e-06
-1.4526397321690254e-06
-1.5404039969690864e-06
-1.3677216160745687e-06
-1.112255808399798e-06
-1.1066592949804388e-06
-1.35096362396947e-06
-8.391611445168756e-07
-4.752763174131758e-07
-4.729931590563563e-07
-8.322996342680078e-07
-2.5771872247115635e-06
-2.0944274282952424e-06
-2.0936402694848866e-06
-2.5748068263886648e-06
-3.227846795628153e-06
-2.6386527453015063e-06
-2.6374673746110133e-06
-3.2241393893572834e-06
-1.0766296025810362e-06
-6.565700477745295e-07
-6.507360623686509e-07
-1.0589459578103089e-06
-1.7299351990907041e-06
-1.4833358781274342e-06
-1.4754073289768854e-06
-1.705962552667195e-06
-1.825574435732058e-06
-1.8519645514913918e-06
-1.851828900334418e-06
-1.8252172733213001e-06
-2.1060988006915693e-06
-2.5083379964763175e-06
-2.499647194564858e-06
-2.080009367910751e-06
-1.4395750945195296e-06
-2.4328338661949722e-06
-2.4287019102509078e-06
-1.4270678564409778e-06
-3.7333722707755257e-07
-2.016493309331402e-06
-2.005541447858139e-06
-3.4018640415744983e-07
-8.939528626794591e-07
-2.9284115062311322e-06
-2.925591224389734e-06
-8.853158317001508e-07
5.08206526361743e-07
-1.701930071984492e-06
-1.6717721429970744e-06
5.989004147610721e-07
-4.02650334857535e-06
-6.389712772281175e-06
-6.611605446960045e-06
-4.694088382883876e-06
5.263388258014423e-07
-1.6899348749266352e-06
-1.66624187492026e-06
5.973292822036846e-07
-8.271043723251381e-07
-2.8914320280848393e-06
-2.919519054844777e-06
-9.118621404624605e-07
-3.762667765139227e-07
-2.024394271771257e-06
-2.0195498008912516e-06
-3.617371081565679e-07
-1.4247317368654144e-06
-2.42950438225642e-06
-2.436934372601618e-06
-1.4473214717813931e-06
-2.1090504546128486e-06
-2.51934132369791e-06
-2.519380634474766e-06
-2.1095005443838577e-06
-1.7425505639823147e-06
-1.7946882013841758e-06
-1.8177407565544978e-06
-1.8123541443149094e-06
-1.7275447079800887e-06
-1.4832566569145111e-06
-1.477550899964264e-06
-1.710422420142521e-06
-1.048462362179814e-06
-6.460182424561367e-07
-6.568075504309601e-07
-1.0810788257376025e-06
-3.2494932323268166e-06
-2.6607346703400037e-06
-2.660407438070944e-06
-3.2487235963607475e-06
-3.710893198616283e-06
-3.052070205900037e-06
-3.039922091385705e-06
-3.6741867907030823e-06
-1.115576427568321e-06
-6.953806434006893e-07
-6.854860090665937e-07
-1.085789466781506e-06
-1.636518719649871e-06
-1.4830595690407122e-06
-1.4925524567388493e-06
-1.6651835837988571e-06
-1.387216101877975e-06
-1.5899069056302118e-06
-1.60017497263798e-06
-1.4182722424815886e-06
-1.0783953254267509e-06
-1.738648884808125e-06
-1.756457847168491e-06
-1.1321643316741792e-06
-5.046475065606515e-07
-1.6302953790847674e-06
-1.6230525768379245e-06
-4.82806588653073e-07
-3.056461543304856e-07
-1.806363590095561e-06
-1.7960194336197333e-06
-2.743224719603532e-07
1.279017059485632e-07
-1.6215245430273306e-06
-1.6316725385268072e-06
9.733038103254543e-08
-1.169191854444307e-08
-1.8627938220827644e-06
-1.8743425135303582e-06
-4.6512947937671356e-08
1.3514689139459968e-06
-4.971166406853023e-07
-4.412707020895468e-07
1.519279034523091e-06
-3.8850486661079486e-08
-1.8902710175461301e-06
-1.9038868544485332e-06
-8.001624973719146e-08
9.523987032356018e-08
-1.6339263125830783e-06
-1.6261352360769088e-06
1.1864300114572401e-07
-2.912912167030157e-07
-1.7950391117960152e-06
-1.7902799595015395e-06
-2.768535620756296e-07
-4.701380214855444e-07
-1.6129325382807647e-06
-1.623529669286805e-06
-5.022596655246403e-07
-1.1141075957621371e-06
-1.7530837254364773e-06
-1.7512017848608785e-06
-1.1086485658673428e-06
-1.4290234701119786e-06
-1.6261770567349565e-06
-1.6327507193214519e-06
-1.449023366018043e-06
-1.6534997315520439e-06
-1.4849113983417261e-06
-1.478569604307367e-06
-1.6343889971404124e-06
-1.0752630686117204e-06
-6.686027071989287e-07
-6.705000772100345e-07
-1.081130472591063e-06
-3.6779352184934666e-06
-3.0400697756671757e-06
-3.0472431404027223e-06
-3.699651938110504e-06
-3.9060493484122105e-06
-3.2630626802809815e-06
-3.2660679599727516e-06
-3.915279074950817e-06
-1.2753758974470841e-06
-9.114714969449267e-07
-9.117510482159474e-07
-1.2763163623752405e-06
-1.9562547370899352e-06
-1.8662305765193565e-06
-1.8488131170446565e-06
-1.9037586749259816e-06
-1.7203037161461765e-06
-2.0208367381147063e-06
-2.0177352678674154e-06
-1.7108450462988145e-06
-1.593263118437882e-06
-2.2871260708101637e-06
-2.2801860665722096e-06
-1.572294759832893e-06
-1.5465012969673175e-06
-2.5804952560326555e-06
-2.570874197249662e-06
-1.5175103255660183e-06
-1.4804534381740453e-06
-2.7662555340257633e-06
-2.763667286687088e-06
-1.4726805517839558e-06
-1.4636390981981329e-06
-2.9074366734715973e-06
-2.9155181427431565e-06
-1.4881566801627777e-06
-1.4217613172884391e-06
-2.9211328723133256e-06
-2.913760615008698e-06
-1.3995092116303454e-06
-1.7829657220636008e-06
-3.3089610943504155e-06
-3.3182509331930454e-06
-1.810745406727321e-06
-1.3994189881350039e-06
-2.9022135823453254e-06
-2.8975290417010413e-06
-1.3852691973514908e-06
-1.4710786989113878e-06
-2.906504251554143e-06
-2.9071442679828863e-06
-1.4730670820362057e-06
-1.4854756748283737e-06
-2.765598230203281e-06
-2.757814222376087e-06
-1.4619930784887103e-06
-1.5363617017760678e-06
-2.582229202158226e-06
-2.5843552849957874e-06
-1.5429345248951787e-06
-1.610968835358273e-06
-2.3114532080592554e-06
-2.312657846448296e-06
-1.614732012295006e-06
-1.7185028877431119e-06
-2.012333718465209e-06
-2.002712439747034e-06
-1.6894532294808862e-06
-1.9052523592688608e-06
-1.8355177700823955e-06
-1.8375921385649363e-06
-1.911566403250964e-06
-1.2942834610452092e-06
-9.211390258334617e-07
-9.114763071804699e-07
-1.2651694900611687e-06
-3.915849263486093e-06
-3.2652476863320734e-06
-3.258097217129219e-06
-3.894330844120275e-06
-3.528347424786027e-06
-2.9745711969120237e-06
-2.9877700714608935e-06
-3.568422409672145e-06
-5.132497790105717e-07
-2.7673929625660065e-07
-2.8302350596476344e-07
-5.322942988605917e-07
-4.275556824140381e-07
-5.235971175521215e-07
-5.326816745476748e-07
-4.5488865185738803e-07
4.0845429766234176e-07
-4.2169225333843485e-08
-2.9702596493486055e-08
4.461819450019e-07
1.0016804009582714e-06
2.0161416752761951e-07
2.068876674976572e-07
1.0177621461715525e-06
1.5961511205531131e-06
5.064026644130415e-07
5.010848528885781e-07
1.5800784066710705e-06
2.0809656609555027e-06
7.877329749605977e-07
7.792202617595834e-07
2.0550848148226386e-06
2.4314436555816776e-06
1.0026796603002097e-06
9.834060051283622e-07
2.3730437150870642e-06
2.5634394533735616e-06
1.0999543168521697e-06
1.1089627852678419e-06
2.590500100929649e-06
2.7237982734296118e-06
1.2463258801109767e-06
1.263528447648099e-06
2.7757077683543407e-06
2.5993493770748444e-06
1.1207039700145138e-06
1.1156751122953779e-06
2.584123381332848e-06
2.415178582321209e-06
9.885316192281834e-07
9.684115773733737e-07
2.35436099138564e-06
2.042710545352433e-06
7.578449397194209e-07
7.559692989100864e-07
2.0370093936905587e-06
1.6101726351691603e-06
5.359740791188727e-07
5.49405333588604e-07
1.6506814493888466e-06
1.0246254821266731e-06
2.2228824259062918e-07
2.260262563780202e-07
1.0359117879610302e-06
4.1920937685069326e-07
-4.537058073683653e-08
-4.73742059747817e-08
4.131520245920228e-07
-4.614816245807063e-07
-5.418992279765389e-07
-5.34062950488523e-07
-4.377682873285549e-07
-5.206930471512994e-07
-2.758879390635238e-07
-2.7217463588469215e-07
-5.09360401620973e-07
-3.5125498988597403e-06
-2.9460377997669873e-06
-2.9436038910118922e-06
-3.505299307524079e-06
-3.257059412065111e-06
-2.8160365322937864e-06
-2.8198609564045185e-06
-3.2686690389915896e-06
-1.7730414604288924e-06
-1.5661166670177806e-06
-1.5532109886029488e-06
-1.7342463968228472e-06
-3.1442390129310382e-06
-3.1646442998356505e-06
-3.1546018581796176e-06
-3.114123393488377e-06
-3.962500503273958e-06
-4.243393751601765e-06
-4.257342394786701e-06
-4.004488968700759e-06
-5.113330682648964e-06
-5.545278994101288e-06
-5.518923575476009e-06
-5.0339326367332404e-06
-6.046376012425192e-06
-6.646026640300118e-06
-6.645218725009894e-06
-6.04385977492905e-06
-6.905347338603818e-06
-7.595186200914927e-06
-7.595064840604238e-06
-6.90506878658903e-06
-7.521955797784585e-06
-8.261231850381634e-06
-8.259969127732969e-06
-7.518355534419374e-06
-7.860917502988674e-06
-8.652766499250841e-06
-8.681117070807876e-06
-7.946664967062311e-06
-8.09117047817498e-06
-8.860155942924663e-06
-8.861852273722715e-06
-8.09640985371951e-06
-7.92489705486732e-06
-8.674802446484442e-06
-8.66302775537342e-06
-7.889337499900062e-06
-7.559991614169981e-06
-8.285223747156456e-06
-8.273483163317996e-06
-7.524487393911761e-06
-6.932947177185067e-06
-7.611071248858625e-06
-7.602300012038432e-06
-6.906487600821798e-06
-6.076089005213614e-06
-6.669362016153979e-06
-6.66358929987676e-06
-6.058654479557113e-06
-5.088870396824374e-06
-5.555835101284101e-06
-5.565915957267409e-06
-5.119225000349559e-06
-4.015890603725758e-06
-4.26168017159112e-06
-4.241745676314412e-06
-3.955779023873118e-06
-3.086180775574432e-06
-3.1177465242282487e-06
-3.115436953679551e-06
-3.079068620501224e-06
-1.7884124846739846e-06
-1.5851208368250491e-06
-1.5754835401698974e-06
-1.759282518346006e-06
-3.3052781068590442e-06
-2.8621829242098107e-06
-2.865989792773249e-06
-3.316887430000748e-06
-1.156545118341512e-06
-9.867220956971678e-07
-9.812934954611663e-07
-1.1400778712200577e-06
1.6156271857026283e-06
1.445030814672954e-06
1.4425542356200083e-06
1.6081139039281211e-06
3.55837095145084e-06
2.9917768606946282e-06
2.9811873218932305e-06
3.526322411850913e-06
5.85149392345885e-06
4.913093784086886e-06
4.93658434985722e-06
5.922196921637202e-06
8.049327530457173e-06
6.714394349738306e-06
6.7089590923830045e-06
8.032907180322013e-06
9.981397543934456e-06
8.343104496211229e-06
8.341431848468694e-06
9.976390503596555e-06
1.152877607396574e-05
9.662659964715381e-06
9.667440215965772e-06
1.1543156086923911e-05
1.2631803853857537e-05
1.061878129243743e-05
1.0638076036906252e-05
1.2689854964831326e-05
1.336428783255128e-05
1.1232996041665722e-05
1.1228420447095822e-05
1.3350377413012815e-05
1.3624995725491917e-05
1.145091280913002e-05
1.1434909425567241e-05
1.3576684948779505e-05
1.3337294741178063e-05
1.1221738201783182e-05
1.1232419590667675e-05
1.336961793441116e-05
1.2687221670693027e-05
1.0646317168461206e-05
1.063817117782917e-05
1.2662739391960942e-05
1.1501279885722804e-05
9.649988300969303e-06
9.668631200360212e-06
1.1557441965515114e-05
9.98138028512896e-06
8.340217750341106e-06
8.335453238889068e-06
9.966904741448568e-06
8.089504856312324e-06
6.757346363905903e-06
6.7566793758300214e-06
8.087421400654327e-06
5.879459021099209e-06
4.917424429859429e-06
4.9159353261163385e-06
5.8749004556157836e-06
3.531129579639747e-06
2.9656373506520284e-06
2.956229369258101e-06
3.5026715357600047e-06
1.6230781276285744e-06
1.4549992716286764e-06
1.4562613983096218e-06
1.6269066599530757e-06
-1.1216558720994474e-06
-9.655677443570765e-07
-9.73979921242707e-07
-1.1469378466549829e-06
SCALARS strain12 float
LOOKUP_TABLE default
-2.8044123898118833e-07
2.8022290963700125e-07
-2.8074159434980303e-07
2.8063669270730895e-07
2.803684075528001e-07
-2.803070338792957e-07
2.7996616600673915e-07
-2.8024359551015454e-07
-3.607733136679059e-07
-5.516240999814404e-07
-6.732183265509284e-07
-7.196195370498537e-07
-6.970751044721446e-07
-6.176907430127665e-07
-4.960530157228915e-07
-3.453292722645218e-07
-1.768143852859394e-07
-5.937280875278894e-11
1.7671403069324798e-07
3.4522877365161797e-07
4.959893200214005e-07
6.178460928360496e-07
6.970658766418392e-07
7.195240159206528e-07
6.733664308228304e-07
5.517399682200552e-07
3.607593644927576e-07
3.6065049590500164e-07
5.516850961236053e-07
6.733782703279012e-07
7.193334688078423e-07
6.968263609324898e-07
6.177809747376362e-07
4.959975632781721e-07
3.45341087087947e-07
1.7668565667136593e-07
-5.734633254372845e-11
-1.7670417862790389e-07
-3.452231756833485e-07
-4.958997168701129e-07
-6.177715937867589e-07
-6.969800849807375e-07
-7.1960706894518e-07
-6.73322710014173e-07
-5.51808780163178e-07
-3.6076109810817894e-07
-3.607674992427926e-07
-5.518540037289556e-07
-6.733079629876564e-07
-7.195804457241911e-07
-6.968992851399611e-07
-6.17933501120653e-07
-4.960505221168754e-07
-3.453529952446993e-07
-1.769366147728879e-07
8.214777295900699e-11
1.766463906816007e-07
3.4534558313210895e-07
4.9608772679198e-07
6.178073169230136e-07
6.970573226093568e-07
7.197001433874306e-07
6.734834856608751e-07
5.519050730352915e-07
3.606605407761865e-07
3.608615520948877e-07
5.518692531153446e-07
6.732801523280652e-07
7.194433640014819e-07
6.969353806597633e-07
6.179455909714748e-07
4.96225136158851e-07
3.4521432325587686e-07
1.766399040023514e-07
-1.0486642804119484e-11
-1.766029870155228e-07
-3.452467449288621e-07
-4.95889667131294e-07
-6.176488268304359e-07
-6.971200769874397e-07
-7.195778042590195e-07
-6.732955681945652e-07
-5.517827274814646e-07
-3.607466977986751e-07
3.596695328303423e-07
5.503526652045343e-07
6.714214773675953e-07
7.171630632685222e-07
6.943948947686629e-07
6.152476160932452e-07
4.937364911569708e-07
3.434949790263875e-07
1.7568289943994952e-07
-9.062483402599852e-12
-1.7578204888901716e-07
-3.434008127578547e-07
-4.937886756289922e-07
-6.151021780358146e-07
-6.942019632368013e-07
-7.171136281076962e-07
-6.711967182465584e-07
-5.503411978878547e-07
-3.597187179481265e-07
-3.5980300740548476e-07
-5.50232062707795e-07
-6.714177373072505e-07
-7.174241963003869e-07
-6.946437420655982e-07
-6.151636246544412e-07
-4.937502571800145e-07
-3.437547119403833e-07
-1.7589803651997526e-07
-4.718071940079671e-11
1.7588775725295436e-07
3.4367549083501314e-07
4.938251071465172e-07
6.15224382705809e-07
6.943385625650042e-07
7.171325518764982e-07
6.711278086146515e-07
5.500832188651619e-07
3.597703230621887e-07
3.597332959002532e-07
5.50396353626555e-07
6.713045797965451e-07
7.17085064362577e-07
6.943658116456003e-07
6.150609217336206e-07
4.937673513845386e-07
3.4349306246746203e-07
1.757557782974123e-07
5.6704462306211845e-11
-1.7577127706461249e-07
-3.4361202619175024e-07
-4.938122444737847e-07
-6.152911155958563e-07
-6.942533467939327e-07
-7.171734317072687e-07
-6.712805471070782e-07
-5.501853872352802e-07
-3.5974857412815475e-07
-3.597480971277711e-07
-5.503182176208599e-07
-6.713782380388111e-07
-7.172432758481562e-07
-6.943360189859415e-07
-6.150864968225422e-07
-4.937433762328136e-07
-3.4357978234006437e-07
-1.7591653710472e-07
-1.3983884536439284e-10
1.7587797218610035e-07
3.435852222177793e-07
4.938211321942054e-07
6.153532162468667e-07
6.942976041521276e-07
7.170488346280868e-07
6.711920790825054e-07
5.50151580250291e-07
3.5970741043417354e-07
-1.6748476881073282e-07
-5.572001914033731e-08
5.564491082493683e-08
1.6741049995577795e-07
1.6732420722587182e-07
5.561602954562428e-08
-5.5693188533156857e-08
-1.6740373480830795e-07
-1.6780006421965483e-07
-5.605288345609215e-08
5.5291677313160266e-08
1.6703413751792667e-07
1.6766423961353527e-07
5.588445036938672e-08
-5.549451199959865e-08
-1.6727329099630595e-07
-7.846168269126652e-07
-1.3737281064421514e-06
-1.7378100018311526e-06
-1.8826375264673068e-06
-1.832936332817059e-06
-1.6262639484440622e-06
-1.3042263415329047e-06
-9.059650539697262e-07
-4.631917958144993e-07
3.5633343498098213e-11
4.6314003493072575e-07
9.060030928369212e-07
1.3042465655463409e-06
1.6261656785067358e-06
1.8329016378965113e-06
1.8826064541108134e-06
1.7378319100043449e-06
1.3735945226314716e-06
7.846469876858497e-07
-1.37376921193616e-06
-2.43583158498345e-06
-3.1364692071947364e-06
-3.463199849087356e-06
-3.4317473547353095e-06
-3.08934410271286e-06
-2.5052138402960333e-06
-1.7534671164116944e-06
-9.002263583815506e-07
-2.5492299243756733e-11
9.001634035110673e-07
1.7533493310538384e-06
2.505346751505849e-06
3.089442882749094e-06
3.4316683178645113e-06
3.4633428914014608e-06
3.136416323240576e-06
2.435816248116257e-06
1.3736734187641542e-06
-1.7378586413749342e-06
-3.136470076065684e-06
-4.135684656184774e-06
-4.690717003888456e-06
-4.7682336328479236e-06
-4.383996121622852e-06
-3.6112461848231137e-06
-2.5538039809466784e-06
-1.318581346495401e-06
3.127072559228061e-11
1.3186099773049298e-06
2.5539760233339592e-06
3.6113243500751624e-06
4.3841068157607355e-06
4.768210432153086e-06
4.6907963579014e-06
4.135543935777225e-06
3.136469727344632e-06
1.7377399262712145e-06
-1.8826058188863015e-06
-3.4631937209754493e-06
-4.690675657764015e-06
-5.504730191445428e-06
-5.804510027435095e-06
-5.509696029758898e-06
-4.64640292099916e-06
-3.3368038854196536e-06
-1.7369290556019934e-06
-1.0141570222499396e-10
1.7368767109698924e-06
3.3368538120276403e-06
4.646212990306459e-06
5.509619862280324e-06
5.804574923985034e-06
5.50471189806126e-06
4.690740175679331e-06
3.4632333684204986e-06
1.8826989011365425e-06
-1.833004442557129e-06
-3.4316905703490885e-06
-4.768320700336559e-06
-5.804481509465859e-06
-6.425315591911118e-06
-6.420812075014909e-06
-5.6363267518302895e-06
-4.152151562457351e-06
-2.1923707052666497e-06
5.7543855097597074e-11
2.192289042149409e-06
4.152218614092429e-06
5.63621630985181e-06
6.420880665453793e-06
6.425262874268367e-06
5.804594653630035e-06
4.768161901903822e-06
3.431748479814506e-06
1.8329881493681088e-06
-1.6262821350247758e-06
-3.0893600764941853e-06
-4.38401118876483e-06
-5.509822722422203e-06
-6.4207893396110716e-06
-6.91064301542102e-06
-6.5510579308585e-06
-5.074540931404581e-06
-2.7489141736052047e-06
-4.113966112218037e-11
2.7488736205685815e-06
5.0744779543573926e-06
6.5510671831379985e-06
6.9107605899648705e-06
6.420763778207383e-06
5.509643682493487e-06
4.383980417830419e-06
3.0893259957316677e-06
1.6262042404451005e-06
-1.3043167521493981e-06
-2.5051512761442574e-06
-3.6113479994666353e-06
-4.646261075505476e-06
-5.636233442404132e-06
-6.55117665424379e-06
-7.0360779493156e-06
-6.167718913319131e-06
-3.5368577187416816e-06
-1.666503393615848e-11
3.536860057783836e-06
6.167703162751614e-06
7.036127707645001e-06
6.551122251018809e-06
5.636340602153955e-06
4.646191525372462e-06
3.6113312085438165e-06
2.50530998040753e-06
1.3042842593822407e-06
-9.059482650106143e-07
-1.7534454392689747e-06
-2.553781212832895e-06
-3.336815752656014e-06
-4.152280414362192e-06
-5.0744841298758225e-06
-6.167658614851523e-06
-6.844081252108114e-06
-4.872481301838177e-06
7.277719746290323e-11
4.8725134130893355e-06
6.8441239191516234e-06
6.167765835188299e-06
5.074471302577571e-06
4.152187000521293e-06
3.3367905171773765e-06
2.5537608804755696e-06
1.7533539443895935e-06
9.060027305919649e-07
-4.63061276090998e-07
-9.00217833603445e-07
-1.318610793249464e-06
-1.736964212233072e-06
-2.1923744054422323e-06
-2.748821051411221e-06
-3.536909608147648e-06
-4.8725134917070034e-06
-5.822156542392709e-06
-3.4951326555177076e-11
5.8222045755014495e-06
4.872538589526659e-06
3.5369053419127133e-06
2.74886535692187e-06
2.192430268693757e-06
1.7369769137395852e-06
1.3186363117465016e-06
9.000790982920115e-07
4.631389170783873e-07
3.237892592933278e-11
7.421206010826964e-12
-3.269233495029056e-11
1.1082901957282232e-11
-3.062024245270578e-11
-4.2370534164559714e-11
5.063501701263462e-12
-2.531386905646471e-11
-5.767852861993106e-11
-2.233165041776175e-12
7.962193057653444e-11
-1.9678097692987784e-11
6.413412335926072e-11
-4.17926283857728e-11
-6.377080634389909e-11
-1.2470477775416988e-10
-5.124034703485325e-11
2.306738307311651e-11
-3.046090810143731e-11
4.6303192979130214e-07
9.000912151758966e-07
1.3186145180303643e-06
1.7369528165570025e-06
2.192392961515577e-06
2.748843676275009e-06
3.536776247505674e-06
4.872401853948938e-06
5.822245898561007e-06
5.690854731899009e-11
-5.822168730486993e-06
-4.872497181521163e-06
-3.536950455868687e-06
-2.7488874955444026e-06
-2.1924653685022333e-06
-1.7369093104607075e-06
-1.3187061693436392e-06
-9.001317509971241e-07
-4.630453116962613e-07
9.06046645394315e-07
1.7534069387536988e-06
2.5538436019129085e-06
3.3367745606513455e-06
4.152223781681008e-06
5.0744353733561676e-06
6.167723285498833e-06
6.844059797200819e-06
4.872414602372782e-06
3.1910907943855094e-11
-4.872411743895438e-06
-6.844082754349154e-06
-6.1678360750577754e-06
-5.074375402680173e-06
-4.1521656944498025e-06
-3.336671970386937e-06
-2.553832336434775e-06
-1.7533981633913176e-06
-9.060269841616037e-07
1.3042406209265445e-06
2.5053477311597072e-06
3.611357606868315e-06
4.646292868264873e-06
5.636377514228047e-06
6.551088981447684e-06
7.03608919969817e-06
6.167734816684561e-06
3.53694134234972e-06
-5.0428630021803755e-11
-3.536938919418073e-06
-6.1677930624018384e-06
-7.0360017409929615e-06
-6.5510305536226054e-06
-5.636276933385781e-06
-4.646424570676003e-06
-3.6113030294354642e-06
-2.5053255561166554e-06
-1.3043013620313987e-06
1.6262794031267347e-06
3.0893893188319033e-06
4.384059594693401e-06
5.509669529956546e-06
6.420834419918614e-06
6.910764709811695e-06
6.551020255467915e-06
5.074395298489132e-06
2.748935727341431e-06
7.714998778718396e-12
-2.748885885455604e-06
-5.074442709774099e-06
-6.551039445596568e-06
-6.910676507022873e-06
-6.420742820931538e-06
-5.509607188355914e-06
-4.384020481798187e-06
-3.089336336550147e-06
-1.6262627770373406e-06
1.833003185604254e-06
3.431621823951625e-06
4.768286985219056e-06
5.804501033865317e-06
6.425332477456164e-06
6.420760294320593e-06
5.636265358814618e-06
4.152124732068746e-06
2.1923117659843755e-06
3.7974309460842015e-11
-2.19230749003152e-06
-4.152218497062779e-06
-5.636347708387959e-06
-6.42072840028457e-06
-6.4254094350943425e-06
-5.804382880910883e-06
-4.768269061774209e-06
-3.431767272682809e-06
-1.8329330480808606e-06
1.8825697708259315e-06
3.463114135088957e-06
4.690780117048987e-06
5.504615276000213e-06
5.804473868158133e-06
5.509582080644865e-06
4.646394789406538e-06
3.3367220102342027e-06
1.7369239659389274e-06
-3.787187577430906e-11
-1.737011016708298e-06
-3.336771413448361e-06
-4.6463494969995606e-06
-5.509731463000309e-06
-5.804434317746576e-06
-5.504633509297897e-06
-4.690808296261423e-06
-3.463279327443544e-06
-1.8827597263034943e-06
1.7378222151934186e-06
3.1365041746334033e-06
4.1356193955927045e-06
4.690795410412785e-06
4.768183327275716e-06
4.3840308946267725e-06
3.6112818022765447e-06
2.553922140260609e-06
1.3185866928021317e-06
9.997582622878198e-12
-1.3185349501641797e-06
-2.5538484045278115e-06
-3.6112714289632253e-06
-4.384021035747435e-06
-4.768193417547216e-06
-4.690721148782953e-06
-4.135621452497698e-06
-3.1364484250006285e-06
-1.7379165746251451e-06
1.3736516236567686e-06
2.435888354846566e-06
3.136392625672363e-06
3.46326201753136e-06
3.4317143824819096e-06
3.089483436219398e-06
2.505139702870668e-06
1.7533449936241174e-06
9.002594096897687e-07
3.3959189627008612e-12
-9.001354828157976e-07
-1.7533954707396604e-06
-2.5052909894320713e-06
-3.0893957775552164e-06
-3.4317005826274213e-06
-3.4632842576031234e-06
-3.13646114533106e-06
-2.4358634067617353e-06
-1.3737501709429854e-06
7.846040532520637e-07
1.3737485629328194e-06
1.7378834701112233e-06
1.8826595786121392e-06
1.8330207694518263e-06
1.6262870287941933e-06
1.304186978655364e-06
9.058549474902367e-07
4.631088100729569e-07
8.431907949635331e-12
-4.631206996438819e-07
-9.060548030147275e-07
-1.304345401012194e-06
-1.6262886236113536e-06
-1.8328933040238568e-06
-1.882593544669936e-06
-1.7378479079252149e-06
-1.3736346073738546e-06
-7.846884868710144e-07
7.832450767408794e-07
1.3717013621003527e-06
1.7354400904667777e-06
1.8799520177387175e-06
1.8301125845887611e-06
1.6232874110490292e-06
1.3016572472275556e-06
9.040879189355089e-07
4.620320584770854e-07
3.2429087193364126e-11
-4.620383864326061e-07
-9.039660318274634e-07
-1.301738725378171e-06
-1.6232809082160349e-06
-1.8300330457549085e-06
-1.8798975184655675e-06
-1.7354431443399043e-06
-1.3716184079255733e-06
-7.831751714544588e-07
1.371735724529921e-06
2.4338000929532977e-06
3.1339457899279277e-06
3.460234664024592e-06
3.428407413363227e-06
3.0859006752738394e-06
2.50198296478793e-06
1.750915720126478e-06
8.987004127963827e-07
4.852265464427852e-11
-8.987001984678278e-07
-1.7508986557279727e-06
-2.5021145844301984e-06
-3.085996306231853e-06
-3.428394098677068e-06
-3.4602459437482747e-06
-3.133845142617997e-06
-2.4337350440113703e-06
-1.371709997002174e-06
1.735481188071264e-06
3.1338530240496154e-06
4.132532590746252e-06
4.687181387942607e-06
4.76409239746553e-06
4.379459623504722e-06
3.6068362980062885e-06
2.550116232263866e-06
1.3165064619742595e-06
-7.257731221566033e-11
-1.3165116166044544e-06
-2.5501423798549028e-06
-3.6068684449719335e-06
-4.379522916455464e-06
-4.764080297883777e-06
-4.687159333934682e-06
-4.13259849937897e-06
-3.133897177265421e-06
-1.7354273659370145e-06
1.8798956922354282e-06
3.4602654328391713e-06
4.687129278372476e-06
5.500198917349902e-06
5.7990638805405226e-06
5.5034726764852104e-06
4.639662432786434e-06
3.3309476235587887e-06
1.7335088570991086e-06
-1.4828450967119267e-11
-1.7334690925879803e-06
-3.330864282904966e-06
-4.639684199940486e-06
-5.5034380864564525e-06
-5.799024811382891e-06
-5.500270509318367e-06
-4.687215679317902e-06
-3.4602618992733702e-06
-1.8800324159476411e-06
1.8301277975099617e-06
3.4283572523698125e-06
4.764103434844874e-06
5.799048437206411e-06
6.418271511661466e-06
6.412196413750626e-06
5.626203594184809e-06
4.142889866887156e-06
2.185692919001725e-06
-3.014259328248947e-11
-2.1856323186957016e-06
-4.143046864156508e-06
-5.626163220053687e-06
-6.412150295714153e-06
-6.418346923244694e-06
-5.799098872980024e-06
-4.764028799803671e-06
-3.4283079839228514e-06
-1.8300559706044273e-06
1.6233060789877518e-06
3.0858526752150506e-06
4.379446153779387e-06
5.503536228856909e-06
6.412088096617585e-06
6.898876885694238e-06
6.536559953494725e-06
5.057104582623095e-06
2.7387552009108806e-06
2.7286669451731527e-11
-2.7386500836106e-06
-5.057015474888016e-06
-6.536656050402934e-06
-6.898942822405191e-06
-6.4120250738188e-06
-5.5034383712147805e-06
-4.379351439640078e-06
-3.085908518073166e-06
-1.6233221189244917e-06
1.3016900307014079e-06
2.5020654082393012e-06
3.6068954486837e-06
4.639704765524444e-06
5.62612066372023e-06
6.536612843697359e-06
7.014106648644408e-06
6.1420487887237085e-06
3.5012707612809557e-06
-1.1054702292456753e-11
-3.5012870789434547e-06
-6.141995572625514e-06
-7.014001216991417e-06
-6.5366773883898666e-06
-5.626141243057076e-06
-4.639633336203652e-06
-3.606807843330173e-06
-2.5020317962407e-06
-1.3016905636240722e-06
9.039490471429712e-07
1.7508711286536027e-06
2.5501292621257776e-06
3.3310468845262897e-06
4.142928578726446e-06
5.056963435973172e-06
6.142047282168411e-06
6.7879979282828296e-06
4.838139870861485e-06
-6.017817147374593e-11
-4.838069489053465e-06
-6.788084352945395e-06
-6.142052531892678e-06
-5.057071587072359e-06
-4.142963488849849e-06
-3.3309568093185804e-06
-2.5500833239888027e-06
-1.7508580024191284e-06
-9.040599474492705e-07
4.6196779786289444e-07
8.987609863425616e-07
1.3164139423677002e-06
1.7335409205239405e-06
2.1856645452018875e-06
2.73872583544596e-06
3.501336809763611e-06
4.838112237531833e-06
5.475643557170673e-06
-1.2948144292868058e-10
-5.4756499229431654e-06
-4.838126147408556e-06
-3.5012931842281353e-06
-2.7387242819039426e-06
-2.185775233570081e-06
-1.7335075900397345e-06
-1.3165120829172067e-06
-8.98711875729416e-07
-4.619791858385264e-07
2.5643414475196025e-11
9.69191463195962e-11
-6.274361585845156e-11
-1.0792408633442108e-13
1.3042558005826876e-10
-5.4307149055521364e-12
3.5450409968662555e-11
-1.6321704404687054e-11
3.262369888124006e-11
-2.2104998387284525e-11
-2.747243751932693e-11
-2.9933788087133095e-11
-1.121502682388531e-10
8.080503453855581e-11
7.636259159726766e-11
-7.017365855066515e-12
-3.1861114441200655e-11
-1.0957901253050295e-13
-7.78174972376755e-11
-4.6194115536218883e-07
-8.986766128829538e-07
-1.3164590310296709e-06
-1.7335689460294679e-06
-2.1857368639258135e-06
-2.7386158337437683e-06
-3.501288824692833e-06
-4.838069305512782e-06
-5.475679708519948e-06
-4.192983460438171e-11
5.475706527603361e-06
4.838159229343317e-06
3.5013403788287933e-06
2.7387778619158976e-06
2.1858513332834173e-06
1.7335187381551515e-06
1.316448820115959e-06
8.986541956065852e-07
4.620789094116756e-07
-9.040379225985773e-07
-1.7508938375647431e-06
-2.5500684205093105e-06
-3.3309362843271517e-06
-4.142931310999187e-06
-5.057001827690061e-06
-6.1420534007115835e-06
-6.7880342051879206e-06
-4.838075348005677e-06
-2.3536480056596254e-11
4.8380409881365605e-06
6.7880239063618925e-06
6.1420400570850325e-06
5.056904530764336e-06
4.142924364743117e-06
3.3308145889789087e-06
2.5501363452428566e-06
1.750945266186521e-06
9.039754418939394e-07
-1.3016005053108348e-06
-2.502118879210008e-06
-3.6069185309316187e-06
-4.639800556944379e-06
-5.626169373430107e-06
-6.536668154932118e-06
-7.014087402865826e-06
-6.1420093261828346e-06
-3.5013021844020054e-06
5.212596673742631e-11
3.501366486070162e-06
6.141967303016638e-06
7.0141560944737835e-06
6.536557828449793e-06
5.626155514752013e-06
4.6397680935426205e-06
3.606855140732279e-06
2.502036308426464e-06
1.3017149869485461e-06
-1.6233660905459746e-06
-3.086000012125084e-06
-4.379362909090467e-06
-5.503477180035521e-06
-6.412154372456569e-06
-6.898919977245399e-06
-6.536677345639341e-06
-5.057042102348669e-06
-2.7386785478780012e-06
2.8554700270966293e-11
2.738704202654915e-06
5.05709718155202e-06
6.5366015813556055e-06
6.898876503532922e-06
6.4120251511406295e-06
5.503353733060656e-06
4.3795420978150895e-06
3.085820341580149e-06
1.6233676807687197e-06
-1.8301214956030487e-06
-3.428403248555839e-06
-4.764119349014162e-06
-5.799017774029552e-06
-6.418343532436227e-06
-6.411941859855302e-06
-5.6262067608219e-06
-4.142812308205457e-06
-2.1857666845891133e-06
-2.047443464769927e-11
2.1857640818065405e-06
4.1428870897614045e-06
5.6261724560649484e-06
6.412062377524064e-06
6.418312891148109e-06
5.7990629036223235e-06
4.764004301749912e-06
3.428426832674872e-06
1.8300932999402303e-06
-1.8798278286005776e-06
-3.460062497920302e-06
-4.687136207968262e-06
-5.500184688277121e-06
-5.799036000883606e-06
-5.5034369974144015e-06
-4.639691422187592e-06
-3.3309054063429544e-06
-1.7334819529778167e-06
5.468212341264156e-11
1.7335081455380902e-06
3.3308691402764157e-06
4.6397898929503856e-06
5.50339143449638e-06
5.799013575250207e-06
5.500131452917424e-06
4.68729200932879e-06
3.460287838390544e-06
1.879937040882157e-06
-1.7354273083719507e-06
-3.1339182683387534e-06
-4.132716143013387e-06
-4.687285920013107e-06
-4.76406273614699e-06
-4.379381480519584e-06
-3.6068070742613367e-06
-2.5501924075087973e-06
-1.316482519164719e-06
-3.71905249652027e-11
1.316477528977636e-06
2.5501426593656923e-06
3.606803342633483e-06
4.379468417132007e-06
4.764045622710454e-06
4.687214922693972e-06
4.132645353392694e-06
3.13391372150449e-06
1.7355072290514e-06
-1.3717021833704879e-06
-2.433691996692189e-06
-3.133917710680667e-06
-3.4601975566518617e-06
-3.428349561730021e-06
-3.085874400576144e-06
-2.50194268518536e-06
-1.7509890088071578e-06
-8.986801976682002e-07
-2.7874889896306598e-11
8.988027432304396e-07
1.7508467729208943e-06
2.50192564129649e-06
3.0860608222684632e-06
3.428343372688554e-06
3.460135268720105e-06
3.1339998713699434e-06
2.433673984317611e-06
1.3717734652707921e-06
-7.831594268682684e-07
-1.3718719329425255e-06
-1.7355178955104356e-06
-1.8799452519563387e-06
-1.8300628197923108e-06
-1.6233803072120134e-06
-1.30167330187822e-06
-9.038922014516226e-07
-4.6204961370518993e-07
4.648231452519802e-11
4.6204400329374895e-07
9.040817419841973e-07
1.3018209959331228e-06
1.6232546741767884e-06
1.8300595031675582e-06
1.8799044561269504e-06
1.7355259024189398e-06
1.3717650592342916e-06
7.830814062477053e-07
-2.157566247815157e-07
-7.212910074771983e-08
7.103161780291911e-08
2.1465702539080755e-07
-3.3026797366386695e-07
-1.1035846152890327e-07
1.0906745973038312e-07
3.289834847250428e-07
-4.0320865703213915e-07
-1.3482643169276942e-07
1.3301139533544726e-07
4.013998200144697e-07
-4.310911130359085e-07
-1.4431892068900165e-07
1.4186337900234935e-07
4.2863528505049375e-07
-4.176015220708207e-07
-1.3989328585470306e-07
1.372211436458104e-07
4.149266740645363e-07
-3.7001724694646354e-07
-1.239741364081337e-07
1.2152249204144816e-07
3.675684557870318e-07
-2.9718468297010303e-07
-9.967962205301162e-08
9.736726003933827e-08
2.948708993644189e-07
-2.069099060905688e-07
-6.946944322919202e-08
6.764160117786466e-08
2.050798798593212e-07
-1.0597206259732594e-07
-3.564116037024778e-08
3.4517205784595495e-08
1.0484551676848142e-07
-4.788252780385527e-11
-3.718603897029382e-11
-2.7235592253704866e-11
-1.7890605663595238e-11
1.0587483832008582e-07
3.5545502045236654e-08
-3.461275564775601e-08
-1.0494238542047007e-07
2.0684772057688594e-07
6.944560208832495e-08
-6.762687812175705e-08
-2.0502589139631544e-07
2.9712551086538697e-07
9.962364594037765e-08
-9.742110823260375e-08
-2.949236074419048e-07
3.701650203476181e-07
1.2411686131988398e-07
-1.2138191913743657e-07
-3.674270797789092e-07
4.1763167252586997e-07
1.399629623623222e-07
-1.3711145388506374e-07
-4.1477603149667197e-07
4.310246653170535e-07
1.4428107706493387e-07
-1.418726043207752e-07
-4.2861551464989933e-07
4.0336391050194154e-07
1.349926067699403e-07
-1.3283006391681673e-07
-4.011989045253628e-07
3.3036096550725924e-07
1.1042972251559813e-07
-1.0901700646034906e-07
-3.289529725385154e-07
2.157381943611314e-07
7.21047991418533e-08
-7.106308062138078e-08
-2.1469678800414838e-07
2.156373536607581e-07
7.2010430882119e-08
-7.115255831746659e-08
-2.1478296517718487e-07
3.303387198991259e-07
1.1044004978588706e-07
-1.0897393810591072e-07
-3.2887690839047967e-07
4.033332959910152e-07
1.349181196694249e-07
-1.329506017257176e-07
-4.0136822526681826e-07
4.3081846354611764e-07
1.4405551520754734e-07
-1.4212176943639854e-07
-4.288929594670199e-07
4.1736068457504105e-07
1.396565505427938e-07
-1.374578049335995e-07
-4.151673795964317e-07
3.701024191872515e-07
1.2405599745732299e-07
-1.2144193660759695e-07
-3.674872027688292e-07
2.971404074181283e-07
9.964499912001878e-08
-9.73936863067626e-08
-2.948904580142575e-07
2.0687209961386954e-07
6.938012543297734e-08
-6.778481853077223e-08
-2.0527976077842902e-07
1.0583120154360193e-07
3.5485820717648386e-08
-3.468960182127778e-08
-1.050378423701065e-07
-5.531332336605743e-11
-5.329863633773968e-11
-5.12600569629873e-11
-4.925394120336435e-11
-1.05848164554459e-07
-3.5501211234634233e-08
3.467585073593793e-08
1.0502586422420079e-07
-2.067928601637986e-07
-6.933977480215459e-08
6.778590463593637e-08
2.0524106151935395e-07
-2.9704910624664405e-07
-9.955941489281361e-08
9.747448885717713e-08
2.9496764716863133e-07
-3.7008500344912904e-07
-1.2402951794082684e-07
1.2147867480688523e-07
3.6753540559597564e-07
-4.175397306238615e-07
-1.3986297616938592e-07
1.3722149724317012e-07
4.1489825930440816e-07
-4.3108799614634957e-07
-1.4432444879822204e-07
1.4184949483249387e-07
4.2861309900409095e-07
-4.0334380681673193e-07
-1.3499551009509003e-07
1.328047541885452e-07
4.0115165117092164e-07
-3.304625893906128e-07
-1.1056633129457455e-07
1.0884283239151818e-07
3.2873842503462064e-07
-2.1572814133739675e-07
-7.20836279438121e-08
7.10947688422215e-08
2.1473862390716282e-07
-2.1573906592491175e-07
-7.209991545220921e-08
7.10722064428443e-08
2.1470909081087097e-07
-3.3043864841922864e-07
-1.1047272502470382e-07
1.0900733997810767e-07
3.2897590034465345e-07
-4.0329934529199224e-07
-1.3492033601328682e-07
1.3291194203525133e-07
4.012926081201594e-07
-4.3107418836330763e-07
-1.4432449750231835e-07
1.418346619597166e-07
4.285825004222629e-07
-4.1747146690886833e-07
-1.3980639721258847e-07
1.3726739856410874e-07
4.1493433277153824e-07
-3.702409109452437e-07
-1.2418265262718192e-07
1.21325154864467e-07
3.673782968055886e-07
-2.971783308689663e-07
-9.966856574783467e-08
9.73838567269042e-08
2.948941716963971e-07
-2.0692860041617023e-07
-6.948361581937679e-08
6.763169985678219e-08
2.0507400703105583e-07
-1.06052243075902e-07
-3.5681096178380445e-08
3.4515949967964255e-08
1.0488182922499534e-07
7.49345273332036e-11
6.878989565473059e-11
6.369078354995228e-11
5.967311193788571e-11
1.0582254684511627e-07
3.550880511675458e-08
-3.463367365813541e-08
-1.049473997948025e-07
2.0690058103074727e-07
6.943439656743877e-08
-6.770293876912081e-08
-2.051684106548629e-07
2.971990541115327e-07
9.967298041611838e-08
-9.739566506940245e-08
-2.949223010112467e-07
3.701000902238405e-07
1.240242638624045e-07
-1.2150415654166302e-07
-3.6758129550590324e-07
4.1761493395700566e-07
1.399379995804806e-07
-1.3714477225396093e-07
-4.148180586457939e-07
4.3115375322755334e-07
1.4436361011477272e-07
-1.418366756024414e-07
-4.2862686113961934e-07
4.034420092724478e-07
1.350316174049404e-07
-1.328307937462081e-07
-4.0124046783371337e-07
3.305177126815273e-07
1.1058138546515828e-07
-1.0886712539445731e-07
-3.288016663660631e-07
2.1565494616113123e-07
7.203631650909426e-08
-7.11176518439216e-08
-2.1473847481440211e-07
2.1581223777836223e-07
7.215195378662553e-08
-7.104187412301788e-08
-2.1470095943471046e-07
3.3046658613755664e-07
1.1051298171374513e-07
-1.0895483481057622e-07
-3.289108674690844e-07
4.0326419552608184e-07
1.348767466879952e-07
-1.3296489585409854e-07
-4.013556604773316e-07
4.309391245203853e-07
1.441882798575156e-07
-1.4197522173534094e-07
-4.2873042813487694e-07
4.1750445360644317e-07
1.3983697736558165e-07
-1.372382270985184e-07
-4.149054651618467e-07
3.702463122930155e-07
1.2418081290349603e-07
-1.2133466659874914e-07
-3.6739578897909686e-07
2.973203819429948e-07
9.977946408348815e-08
-9.730283843933929e-08
-2.9484203765278716e-07
2.0680443522935743e-07
6.937174182319872e-08
-6.773330461437577e-08
-2.0516730291422758e-07
1.0579093401644202e-07
3.5450808025250247e-08
-3.4719356011708724e-08
-1.0506217437700194e-07
-3.425889086305922e-11
-5.883923556715409e-11
-8.451817024024422e-11
-1.1144697664722258e-10
-1.0576915877857918e-07
-3.544416388168159e-08
3.471091645362856e-08
1.0503868212718981e-07
-2.0682766608756675e-07
-6.938662840128007e-08
6.772594050505343e-08
2.0516666823788832e-07
-2.970420984425848e-07
-9.955502278113926e-08
9.747631334391937e-08
2.9496678833479395e-07
-3.6996582663748057e-07
-1.2391141183606957e-07
1.2159808560757712e-07
3.676584193201826e-07
-4.1765595113971155e-07
-1.3995757977558476e-07
1.3714650632171144e-07
4.1484102183270144e-07
-4.310800577889129e-07
-1.4433851630579753e-07
1.418128323452117e-07
4.2855322818918795e-07
-4.03311110737381e-07
-1.3495630814264192e-07
1.328514615817067e-07
4.0120676217392237e-07
-3.3042879684502813e-07
-1.1052440070102865e-07
1.0889330383234697e-07
3.287976991298014e-07
-2.1572925763130302e-07
-7.210018568987175e-08
7.106279313606745e-08
2.1469118895167671e-07
-4.708320488697182e-07
-1.573717036615352e-07
1.55982674117372e-07
4.694488608472658e-07
-8.250482822005911e-07
-2.7575749893954393e-07
2.737376947753445e-07
8.230261405867134e-07
-1.0437591138542923e-06
-3.488113651944902e-07
3.464377035869437e-07
1.0413867351857786e-06
-1.1306993938711707e-06
-3.778953748048708e-07
3.752001943926886e-07
1.1280074666275564e-06
-1.1007802178907011e-06
-3.679490002579666e-07
3.651103274923684e-07
1.0979466171963381e-06
-9.766455999690726e-07
-3.2659108322591335e-07
3.23610143876385e-07
9.73666058542988e-07
-7.832093570671328e-07
-2.6195859822303325e-07
2.5937240447082566e-07
7.806288673251061e-07
-5.440232792482125e-07
-1.819843395145515e-07
1.800892272460497e-07
5.42134169684988e-07
-2.7816232119753925e-07
-9.310775018686601e-08
9.195444618942394e-08
2.7700677868863766e-07
3.1678458467521153e-11
2.9438132487236146e-11
2.8958436343318184e-11
3.000531767494152e-11
2.7812128174098394e-07
9.307635023825256e-08
-9.197703278521208e-08
-2.7702115138611427e-07
5.440698884820461e-07
1.8204322585133048e-07
-1.8001386714941447e-07
-5.42037895099462e-07
7.832102670614349e-07
2.6194055710929143e-07
-2.594100873450078e-07
-7.806874393299912e-07
9.765687973666004e-07
3.2653536204477196e-07
-3.236452023880343e-07
-9.736804867134519e-07
1.1007663400265655e-06
3.6795630542138524e-07
-3.6508074315391714e-07
-1.0978931041863427e-06
1.1306822438293673e-06
3.77893439578586e-07
-3.7518534278316307e-07
-1.1279739136650646e-06
1.0437747318750579e-06
3.488211946928166e-07
-3.4643305072898367e-07
-1.0413863731455197e-06
8.249627238797463e-07
2.7571688537147976e-07
-2.737357056650791e-07
-8.229832496944867e-07
4.708689899587948e-07
1.574156864823928e-07
-1.559309632734318e-07
-4.69388610181698e-07
-8.250739200951762e-07
-2.7576846654137066e-07
2.737413056577709e-07
8.230446056564644e-07
-1.4636009069216027e-06
-4.888390752466609e-07
4.867745432776682e-07
1.4615475071866335e-06
-1.884646057798145e-06
-6.294398862995154e-07
6.269010344103765e-07
1.8821124051701665e-06
-2.0809172919973584e-06
-6.950333368317685e-07
6.920577924722504e-07
2.077945229540107e-06
-2.0619527030737994e-06
-6.888085843509417e-07
6.854582019454047e-07
2.058605821114723e-06
-1.8561653606190276e-06
-6.201869980938801e-07
6.16730051323372e-07
1.8527129056825076e-06
-1.5051799672309574e-06
-5.030414679009498e-07
4.998024900892961e-07
1.501943731184452e-06
-1.0535120698665357e-06
-3.52177796043851e-07
3.496190436672042e-07
1.0509557847246387e-06
-5.408879246160403e-07
-1.8087514606218713e-07
1.7936191159043102e-07
5.393703705856845e-07
-9.645471921171378e-12
5.478225512112189e-12
2.010659000406534e-11
3.4408639132399443e-11
5.408395450136327e-07
1.808400812673694e-07
-1.7938468978642708e-07
-5.393814891396786e-07
1.0534228214245656e-06
3.5211593177320033e-07
-3.496542645003986e-07
-1.0509648240286662e-06
1.5052569548902606e-06
5.030651975164446e-07
-4.99830525697853e-07
-1.5020231033738285e-06
1.8562211369088644e-06
6.202027087974515e-07
-6.167523958280907e-07
-1.852772028909655e-06
2.0618947047107428e-06
6.887703184500771e-07
-6.854780544747474e-07
-2.0586084941605354e-06
2.08102107138175e-06
6.951026964921447e-07
-6.920185481942842e-07
-2.077932552031758e-06
1.8846200039654426e-06
6.294421230242098e-07
-6.268686805512014e-07
-1.8820473778081992e-06
1.4635995176821848e-06
4.888520644535932e-07
-4.867460686210079e-07
-1.4615018712679784e-06
8.25003587837797e-07
2.757224136611114e-07
-2.7376355819092035e-07
-8.23043196991613e-07
-1.0437870604992905e-06
-3.488204068854972e-07
3.464461640137473e-07
1.0414117515220034e-06
-1.8846573185196669e-06
-6.294653509160419e-07
6.26857363579536e-07
1.8820463169588741e-06
-2.4851682007658027e-06
-8.299597115124513e-07
8.268186049188719e-07
2.4820233903780076e-06
-2.8186530526344566e-06
-9.413217377067518e-07
9.377745130781379e-07
2.815109754906314e-06
-2.86521027288017e-06
-9.57032106008171e-07
9.528737145818311e-07
2.861057653947424e-06
-2.634298618894859e-06
-8.801137227135158e-07
8.75573728621043e-07
2.6297597643699933e-06
-2.169954027759352e-06
-7.251782812404961e-07
7.207638660321203e-07
2.165541106720348e-06
-1.5345765506345754e-06
-5.130164011414584e-07
5.093249063996275e-07
1.530886317956115e-06
-7.923419668882936e-07
-2.6494033603108313e-07
2.6285180245930184e-07
7.902580183918873e-07
1.4527393177310444e-11
-3.982314478179205e-12
-2.451426561744796e-11
-4.7338771791416434e-11
7.923619686385497e-07
2.649528135119372e-07
-2.628459347293888e-07
-7.902579619231687e-07
1.5347003253542157e-06
5.130967934766084e-07
-5.092835037891208e-07
-1.5308801656691018e-06
2.1700048547339257e-06
7.252051946668447e-07
-7.207582820474567e-07
-2.1655549287957765e-06
2.6343688572655344e-06
8.801470745140039e-07
-8.755742844715475e-07
-2.6297923186244243e-06
2.86519596889509e-06
9.57025817344137e-07
-9.528729450133944e-07
-2.861050741039678e-06
2.8187187130664093e-06
9.413751902269396e-07
-9.377322291691248e-07
-2.815077779855235e-06
2.485051686266365e-06
8.29862826096095e-07
-8.26900593612484e-07
-2.4820951184112428e-06
1.8846527694120485e-06
6.29454196834911e-07
-6.268774438086822e-07
-1.8820774435220067e-06
1.0437056328742311e-06
3.4877441627834127e-07
-3.4645813060119046e-07
-1.0413906143293128e-06
-1.1306814880485128e-06
-3.778929964365352e-07
3.7518519217100144e-07
1.12797287947497e-06
-2.0809047934500224e-06
-6.950152923665409e-07
6.920807483455638e-07
2.0779723269616357e-06
-2.81862893778545e-06
-9.413151189317792e-07
9.377628062447185e-07
2.8150785854087756e-06
-3.307952324626412e-06
-1.104863995085581e-06
1.100336624173387e-06
3.3034236230217173e-06
-3.4882117706316884e-06
-1.1652945759027533e-06
1.1598396224207774e-06
3.482759766918614e-06
-3.3111142973066277e-06
-1.1064636031843378e-06
1.1002209044548572e-06
3.304878097642322e-06
-2.792419584146666e-06
-9.335867749669935e-07
9.268668701468974e-07
2.7856927448562108e-06
-2.005457824437451e-06
-6.708085585754864e-07
6.649467780839302e-07
1.999597902396788e-06
-1.043940471744803e-06
-3.4930309045569374e-07
3.458856968584223e-07
1.0405221182174795e-06
-7.410077759728573e-11
-5.214155496258144e-11
-3.5192567610087266e-11
-2.292038087103876e-11
1.0439130629959215e-06
3.492968069576663e-07
-3.458741306104629e-07
-1.0404954274255418e-06
2.0055093307505545e-06
6.708640139449495e-07
-6.648848214635406e-07
-1.999526619566455e-06
2.7922758931327174e-06
9.334825532732183e-07
-9.269380416808415e-07
-2.7857366667050076e-06
3.31106181614485e-06
1.1064335997297559e-06
-1.1002292260933744e-06
-3.304865047695782e-06
3.488267707733861e-06
1.1653434319539024e-06
-1.1597959008145808e-06
-3.482719328675582e-06
3.3079279945329165e-06
1.1048319256100336e-06
-1.100378833041732e-06
-3.303478836383378e-06
2.8186676153257872e-06
9.413265382347824e-07
-9.377809113003677e-07
-2.8151291032695036e-06
2.080938008238581e-06
6.950419588133694e-07
-6.920609057006755e-07
-2.0779601272273573e-06
1.130731794477674e-06
3.7789976439078776e-07
-3.752234509941943e-07
-1.128058814883065e-06
-1.1008252943575658e-06
-3.679744665120721e-07
3.651012276117971e-07
1.09795091196227e-06
-2.061914281762528e-06
-6.887898438626139e-07
6.854557592743393e-07
2.058580463096954e-06
-2.8652715201998857e-06
-9.570709449818748e-07
9.528541352089859e-07
2.8610545229831863e-06
-3.4881922090362893e-06
-1.165283794728189e-06
1.1598417355464241e-06
3.482753210746342e-06
-3.861700156929798e-06
-1.290437653466564e-06
1.2833860802488606e-06
3.854651120838853e-06
-3.859359481876712e-06
-1.2901921567325114e-06
1.281559949384281e-06
3.850732870708251e-06
-3.388166068738624e-06
-1.1334901245350915e-06
1.1233667918143786e-06
3.3780428040502963e-06
-2.4961754169217087e-06
-8.356594723910038e-07
8.263781536600734e-07
2.486900699601169e-06
-1.3182843255042653e-06
-4.419106690613239e-07
4.352289917214369e-07
1.311604013485429e-06
4.184664767481472e-11
2.5397607628097063e-11
8.062273071374193e-12
-1.0384370446869795e-11
1.3182390203106409e-06
4.4189715151660147e-07
-4.352146944532065e-07
-1.3115652767944908e-06
2.496204639389904e-06
8.356480108821784e-07
-8.264338110970659e-07
-2.4870047264854978e-06
3.388094951713161e-06
1.1334534597874646e-06
-1.1233736675539396e-06
-3.3780241415343193e-06
3.859424411001289e-06
1.290252989130658e-06
-1.2815036199119445e-06
-3.850681401247613e-06
3.8616503312965955e-06
1.2903871896528807e-06
-1.2834408893887261e-06
-3.854714225846184e-06
3.4882700707949965e-06
1.1653280838908042e-06
-1.1598296661800844e-06
-3.4827725167128898e-06
2.8651667177345685e-06
9.570156750474124e-07
-9.528636050609718e-07
-2.861021027481675e-06
2.061966529076642e-06
6.888385769843186e-07
-6.854085805828303e-07
-2.0585330021832826e-06
1.1008267723454368e-06
3.6799342611679164e-07
-3.650648084767283e-07
-1.0978968898039954e-06
-9.76652257959204e-07
-3.265885488504261e-07
3.2361982539586e-07
9.736810170808685e-07
-1.8561802727218302e-06
-6.202044049233302e-07
6.167064632925379e-07
1.8526791618379834e-06
-2.6343114609035656e-06
-8.801255658615059e-07
8.755618579846247e-07
2.6297472750132223e-06
-3.3111981549878433e-06
-1.1065077770260057e-06
1.1002139293815605e-06
3.304906775292854e-06
-3.859358753851433e-06
-1.290214971617909e-06
1.2815114701011932e-06
3.850655996326391e-06
-4.154782859599332e-06
-1.3898608738523166e-06
1.3780954159839376e-06
4.143017206487826e-06
-3.939418222055624e-06
-1.3189584287358336e-06
1.3044552290390754e-06
3.924916768559272e-06
-3.0525275383601336e-06
-1.0240525198101924e-06
1.0065885500953886e-06
3.0350728914274594e-06
-1.6535663154848557e-06
-5.549217844506849e-07
5.448193873373863e-07
1.6434447131057073e-06
-2.5322202668043303e-11
-1.0811115891407042e-11
2.620542671749604e-12
1.5222528099156918e-11
1.6535522396089741e-06
5.549347493714885e-07
-5.447780345585462e-07
-1.643372866119014e-06
3.0524928836157816e-06
1.024046682552432e-06
-1.0065645444125304e-06
-3.0350173856295848e-06
3.939411079487837e-06
1.318932931284461e-06
-1.3045014158608037e-06
-3.924986400227759e-06
4.1548666881788265e-06
1.3899101653051804e-06
-1.378082189196217e-06
-4.143042154451659e-06
3.85935165987325e-06
1.2902256962370184e-06
-1.2814832714078128e-06
-3.850610463356635e-06
3.3110809805197983e-06
1.106447948134165e-06
-1.1002197647311251e-06
-3.30486049654119e-06
2.6343061473761697e-06
8.801446973946692e-07
-8.755185339492932e-07
-2.629679073929553e-06
1.8561452491926145e-06
6.201667592728444e-07
-6.167484946327517e-07
-1.8527272560367458e-06
9.765904402103676e-07
3.2654073760240987e-07
-3.2365552290331e-07
-9.737063155351722e-07
-7.832693844772587e-07
-2.619917180667064e-07
2.593633813899321e-07
7.806416092819013e-07
-1.5051193645067296e-06
-5.029799467308471e-07
4.998679195358791e-07
1.5020160922044057e-06
-2.170023487062245e-06
-7.252163259606481e-07
7.207572993370159e-07
2.1655666352440872e-06
-2.7923091762138696e-06
-9.335021756047557e-07
9.269315264931466e-07
2.785743355070147e-06
-3.388111579641362e-06
-1.1334720671912768e-06
1.1233502253162053e-06
3.377992764758142e-06
-3.939499767305343e-06
-1.3190045101765802e-06
1.3044431374335808e-06
3.924937570041337e-06
-4.2334759736625815e-06
-1.419739623309546e-06
1.3977305604977175e-06
4.211479636660742e-06
-3.712515228342095e-06
-1.2471712095181442e-06
1.2215616481091318e-06
3.6868851446894557e-06
-2.1328427724544297e-06
-7.23491373168933e-07
6.87673023656854e-07
2.097102797086331e-06
-1.3745581062263312e-11
-1.1646468511816721e-11
-1.0486882195959168e-11
-1.0289342294855786e-11
2.1328379488302907e-06
7.234809361392203e-07
-6.876873056178845e-07
-2.0971190907818904e-06
3.712507877697696e-06
1.247174487573055e-06
-1.2215450404390316e-06
-3.6868520043205344e-06
4.233530464779062e-06
1.4198018322801598e-06
-1.397657307961736e-06
-4.211392001657321e-06
3.939447131322965e-06
1.3189521894038658e-06
-1.304497117105008e-06
-3.924995523190561e-06
3.388186884032557e-06
1.1335189887794195e-06
-1.1233284807343757e-06
-3.377993401745133e-06
2.7922654936493596e-06
9.334845038136419e-07
-9.269219768959225e-07
-2.7857044244614104e-06
2.1700217948533718e-06
7.252318898962051e-07
-7.207215598319106e-07
-2.1655071316233065e-06
1.5052414673692727e-06
5.030713363385342e-07
-4.998013448682254e-07
-1.5019687368868218e-06
7.832444258171201e-07
2.6197374599669365e-07
-2.5937494974731523e-07
-7.806473885773463e-07
-5.440334551465309e-07
-1.8202293957172988e-07
1.8002008161585592e-07
5.420318012969161e-07
-1.053503387929422e-06
-3.521818680296551e-07
3.496020181126269e-07
1.0509253701197763e-06
-1.5345560371374245e-06
-5.129982329314664e-07
5.093408664592902e-07
1.5309004697712514e-06
-2.0054512106064404e-06
-6.707822930579477e-07
6.649947024289782e-07
1.9996699393322326e-06
-2.4962642948440916e-06
-8.357120759271142e-07
8.263585457683742e-07
2.4869113321203395e-06
-3.0525091606163623e-06
-1.0240722462979968e-06
1.0065301097213208e-06
3.034974254217948e-06
-3.7124705789710888e-06
-1.2471401262363624e-06
1.2215808775709047e-06
3.6868936771003447e-06
-4.127738669965075e-06
-1.3964136689227635e-06
1.3399738042901843e-06
4.071419117634284e-06
-2.937458601338927e-06
-9.914981127338851e-07
9.580254056763826e-07
2.9036920216156392e-06
4.3700584817507604e-11
1.6429704818854418e-11
-9.573512121940908e-12
-3.4907476215151334e-11
2.9374896206406376e-06
9.915324658549274e-07
-9.579832672274025e-07
-2.90363779265404e-06
4.1277552352975144e-06
1.3964048460081424e-06
-1.3400079029342316e-06
-4.071478921636312e-06
3.712547600901589e-06
1.2471914714769217e-06
-1.2215512590306454e-06
-3.6868826701376423e-06
3.0524824629930836e-06
1.0240296838999463e-06
-1.0065911902230884e-06
-3.0350570564968704e-06
2.4961944432543015e-06
8.356597043252673e-07
-8.263994268620234e-07
-2.4869465247764205e-06
2.005447550409295e-06
6.708002329956775e-07
-6.64954318520955e-07
-1.999605750884273e-06
1.5345477209598168e-06
5.130019985234713e-07
-5.093244363919142e-07
-1.5308701443589312e-06
1.0534356722005644e-06
3.5213598132723123e-07
-3.4962750564832e-07
-1.0509313937406145e-06
5.440557796915213e-07
1.820133619621911e-07
-1.8006214661317466e-07
-5.42107461247443e-07
-2.7807382952174664e-07
-9.305915365381834e-08
9.196477399747716e-08
2.769797587155731e-07
-5.408703254751457e-07
-1.8084806413173893e-07
1.7939915385178917e-07
5.394187560479879e-07
-7.923764812726997e-07
-2.6498361203886045e-07
2.6279596385472836e-07
7.901857598628659e-07
-1.0439611236173763e-06
-3.4931023752335366e-07
3.4589152403396994e-07
1.0405408734544264e-06
-1.3182898397183507e-06
-4.4191961341352726e-07
4.352149919339965e-07
1.3115835049218316e-06
-1.6534983355194488e-06
-5.54878222407823e-07
5.448388661413728e-07
1.6434400291406859e-06
-2.132870155314298e-06
-7.234952817368467e-07
6.876920999529523e-07
2.09714502236516e-06
-2.937485832445186e-06
-9.915225118485582e-07
9.580017603511015e-07
2.9036672343045467e-06
-3.578380898778405e-06
-1.3118706173910477e-06
9.625932718831942e-07
3.230037517946982e-06
-4.601750230870394e-11
-6.029470325796815e-11
-7.85333985342529e-11
-1.0142424400338967e-10
3.578414886729747e-06
1.311892776502399e-06
-9.625813397230731e-07
-3.2300348575126092e-06
2.937500433876361e-06
9.915282874334297e-07
-9.580034700494566e-07
-2.903675378633508e-06
2.13287263216462e-06
7.235058636055614e-07
-6.876719874735621e-07
-2.097113863428618e-06
1.6535363742201103e-06
5.549090755924135e-07
-5.448163482545121e-07
-1.643427201644676e-06
1.318321348076773e-06
4.4192256808475716e-07
-4.3524509693582125e-07
-1.3116514678175595e-06
1.0439812679723104e-06
3.4933555232395663e-07
-3.4586275186355986e-07
-1.0405096183864482e-06
7.923801214858306e-07
2.649642221064924e-07
-2.628397975917157e-07
-7.902557712224229e-07
5.407739339623185e-07
1.807908957575377e-07
-1.794194813137251e-07
-5.394039445522081e-07
2.781300619484478e-07
9.309586549051396e-08
-9.194577859326925e-08
-2.769767249530958e-07
2.946939914316715e-11
2.7226495363796843e-11
2.579363111987476e-11
2.5262628794431308e-11
2.0912709064457857e-11
3.6212685627923236e-11
5.376870476636597e-11
7.392416886964348e-11
-3.478682619739715e-11
-3.889155317238213e-11
-4.4978906016401865e-11
-5.296090649364871e-11
1.0321750398833984e-11
8.687633945569928e-12
6.274016028928742e-12
3.295478473441804e-12
1.480208317028442e-12
3.3117231179602413e-11
6.482315031974828e-11
9.711448659133204e-11
-2.9398670997604626e-11
-1.9470359352569133e-11
-1.2387205844399674e-11
-7.824654119081842e-12
1.0216823914666051e-11
1.556718295936399e-11
2.1387659004945547e-11
2.7960678911087555e-11
-2.3538285903734746e-11
-2.1858199278357304e-11
-2.0158211905263457e-11
-1.8357593223328195e-11
-4.0477451251907937e-11
-2.3114891944953087e-11
-5.3233806251995475e-12
1.3181233882164634e-11
-3.2661998106142676e-12
-5.496506028102033e-12
-9.223986158213293e-12
-1.4690818006535267e-11
5.90784678122791e-11
3.86401188823271e-11
1.777609656694601e-11
-4.082529453386385e-12
-1.7418098213761724e-11
-1.698639319480666e-11
-1.873145041852986e-11
-2.2971976751384737e-11
2.925003989018293e-11
-5.222903706747495e-12
-3.9872397050721986e-11
-7.531625149936882e-11
-1.757978831951057e-11
6.12364672858412e-12
3.003070708773592e-11
5.471419498026542e-11
-3.665295844612615e-11
-9.948120452407672e-12
1.720264729276888e-11
4.5692704828126374e-11
-9.278289421488228e-11
-6.579454689403796e-11
-4.3047150913300136e-11
-2.377642527306989e-11
-4.143281724655612e-11
-3.4614854385606186e-11
-3.0854855129214265e-11
-3.0004453782650486e-11
1.7418318523643173e-11
1.2383261083215302e-11
7.932108095354273e-12
3.822915942142124e-12
-3.4525363470927495e-11
-4.120221351600062e-11
-5.065831261419351e-11
-6.28828274173987e-11
2.780580450993664e-07
9.305534625497769e-08
-9.195776819181933e-08
-2.7696272278388e-07
5.407906493830328e-07
1.808122285403002e-07
-1.7939355938592638e-07
-5.393733563223424e-07
7.923738872921138e-07
2.6497302410555257e-07
-2.6281627182184186e-07
-7.902175572019332e-07
1.0439504900018604e-06
3.492981410016527e-07
-3.459071506693723e-07
-1.0405618558126384e-06
1.3182952654129665e-06
4.419095260520256e-07
-4.352431576398752e-07
-1.311632410794239e-06
1.6535373803007458e-06
5.549336941843008e-07
-5.447664394864216e-07
-1.6433495739452686e-06
2.132776836052258e-06
7.234391887836478e-07
-6.877129135329785e-07
-2.0971314586247514e-06
2.937409553926962e-06
9.914786506665108e-07
-9.580154837589283e-07
-2.9036522845408974e-06
3.5784422783846637e-06
1.3119058060138966e-06
-9.625828067301445e-07
-3.2300506772713067e-06
3.578674509507884e-11
1.5810089348811118e-11
-3.460343123151688e-12
-2.2550270678545203e-11
-3.5783818976009574e-06
-1.3118586600514154e-06
9.62620158483779e-07
3.230081386152925e-06
-2.9374665393242655e-06
-9.91498866110413e-07
9.580313661654294e-07
2.9037045625700253e-06
-2.1329010226577017e-06
-7.235168730853475e-07
6.876792439207413e-07
2.097140476735662e-06
-1.653543628864912e-06
-5.549017720492266e-07
5.448383398679035e-07
1.6434644893124212e-06
-1.3183304581193545e-06
-4.4190832760616916e-07
4.3528083648256e-07
1.311707560692696e-06
-1.0439252271059185e-06
-3.492910450059866e-07
3.4589584363767245e-07
1.0405315769602963e-06
-7.924443196343639e-07
-2.650249340211547e-07
2.6278037252615294e-07
7.901954538393902e-07
-5.408251298032879e-07
-1.8084194238973672e-07
1.793674122927552e-07
5.393496281067695e-07
-2.780400519247078e-07
-9.300731888990665e-08
9.2035290742698e-08
2.770699312152486e-07
5.440898283200213e-07
1.820401414921735e-07
-1.8003975353272916e-07
-5.420866395454416e-07
1.0534676519319275e-06
3.5214918658876826e-07
-3.49631486470936e-07
-1.050951496519431e-06
1.5346127886194105e-06
5.130518994089783e-07
-5.092875949123943e-07
-1.53084480774765e-06
2.005438995852926e-06
6.70799158372648e-07
-6.649479819438586e-07
-1.9995921592026733e-06
2.496225063371854e-06
8.356867691947101e-07
-8.263732503496768e-07
-2.4869186298417945e-06
3.0524647816540518e-06
1.0240310915447803e-06
-1.006569302797189e-06
-3.0350125315367626e-06
3.7125194362087888e-06
1.2471740445593738e-06
-1.2215610025213819e-06
-3.6868871133646786e-06
4.1277208475618e-06
1.3963959611118515e-06
-1.3399947513918764e-06
-4.071446369449672e-06
2.937420013983394e-06
9.914864162983983e-07
-9.580111350673826e-07
-2.903652429959297e-06
2.016032306373372e-11
8.985869340283337e-12
-1.8343312979673954e-12
-1.2580894659386388e-11
-2.9374217813630393e-06
-9.914940456243887e-07
9.579962331404679e-07
2.9036286616594686e-06
-4.1277363100854225e-06
-1.396406863429095e-06
1.3399859139680281e-06
4.0714375552676485e-06
-3.7126060029642888e-06
-1.2472380187342896e-06
1.2215164205357093e-06
3.6868592302174985e-06
-3.0524343553172545e-06
-1.0240305327799404e-06
1.0065389673043906e-06
3.0349497923479185e-06
-2.496179892381642e-06
-8.356540009673424e-07
8.263935872589168e-07
2.4869258989299037e-06
-2.0053797100405557e-06
-6.707828234687324e-07
6.649205624813248e-07
1.9995191130363354e-06
-1.5345939758989319e-06
-5.130235240027869e-07
5.093274410960386e-07
1.5308979395504269e-06
-1.053454749429944e-06
-3.5212990050215165e-07
3.4965935175740315e-07
1.0509901482175926e-06
-5.44085309079137e-07
-1.8205132227590293e-07
1.8001230346967323e-07
5.420420803436271e-07
7.832243230365687e-07
2.619782910953661e-07
-2.593441315139333e-07
-7.805881819221427e-07
1.5052555004599344e-06
5.030620310667033e-07
-4.998346068880999e-07
-1.5020275855280596e-06
2.1700247385646187e-06
7.252103643405616e-07
-7.207694820571264e-07
-2.165584454753844e-06
2.792318969584845e-06
9.33488490218598e-07
-9.269704534936585e-07
-2.785809617895235e-06
3.3882130507714714e-06
1.1335338211404533e-06
-1.1233261186620325e-06
-3.3780051712922754e-06
3.93942776267045e-06
1.318943723890853e-06
-1.3044973894531242e-06
-3.9249900136567595e-06
4.233493973694602e-06
1.4197616229200127e-06
-1.3977070983835216e-06
-4.21145716940699e-06
3.7125334510744457e-06
1.2471925851624543e-06
-1.2215359314407537e-06
-3.686853503489379e-06
2.1329000189709846e-06
7.235243323355789e-07
-6.876626294054222e-07
-2.097113723550925e-06
-2.9670233284151415e-11
-9.393258740275634e-12
1.0771779301865791e-11
3.115169060208256e-11
-2.1328868125437134e-06
-7.234998364181316e-07
6.87699185117005e-07
2.0971634634107256e-06
-3.71258314178953e-06
-1.2472366169389432e-06
1.2214948755980004e-06
3.686812974039791e-06
-4.233411002993112e-06
-1.4196827616379248e-06
1.3977822904461673e-06
4.2115290050832865e-06
-3.939395580286956e-06
-1.3189404232116786e-06
1.3044679712578139e-06
3.924923051226367e-06
-3.3881374298921213e-06
-1.1334813163951102e-06
1.1233565767269221e-06
3.378013802103619e-06
-2.7924192080256566e-06
-9.335630039575271e-07
9.269157885440082e-07
2.785768868973637e-06
-2.1699922890059536e-06
-7.252003848857991e-07
7.207563534217948e-07
2.1655469827196877e-06
-1.5052490511223426e-06
-5.030730994646376e-07
4.998033825195231e-07
1.5019727405661543e-06
-7.832510207639309e-07
-2.619709521586161e-07
2.593860534364639e-07
7.806655973070092e-07
9.76641518244531e-07
3.2656820804846665e-07
-3.236515406512819e-07
-9.73725951796539e-07
1.8561816182011137e-06
6.201752338376443e-07
-6.167698578495029e-07
-1.8527816171114153e-06
2.634362783974359e-06
8.801816594357359e-07
-8.754989746645458e-07
-2.6296753485033353e-06
3.3110951209690265e-06
1.106450194132691e-06
-1.1002300564118273e-06
-3.304884361343685e-06
3.859381787329336e-06
1.2902163656694499e-06
-1.2815317760664358e-06
-3.850698708667e-06
4.1548702652757785e-06
1.3899151533568188e-06
-1.3780735686058643e-06
-4.143027610734734e-06
3.939373392543993e-06
1.3189022781794069e-06
-1.3045271651211665e-06
-3.925009138035923e-06
3.052427641075245e-06
1.0239955581109461e-06
-1.0066046507127557e-06
-3.0350494728444144e-06
1.653596681566033e-06
5.549617076040098e-07
-5.447687211369845e-07
-1.6433819042122044e-06
1.0271483316670604e-11
1.3625885142420913e-11
1.7784076294935502e-11
2.276822133606693e-11
-1.653554443238614e-06
-5.549256055382285e-07
5.448000895032223e-07
1.6434098431359484e-06
-3.0524564915961755e-06
-1.0240051770971093e-06
1.006615261641558e-06
3.035081567535902e-06
-3.939399727179854e-06
-1.3189376063902497e-06
1.3044807328395358e-06
3.9249492607886655e-06
-4.154808606127505e-06
-1.389879322213211e-06
1.3780837447227579e-06
4.1430115373282395e-06
-3.859334506896295e-06
-1.290212315707695e-06
1.2814926721917835e-06
3.8506155213627324e-06
-3.3110698239163794e-06
-1.1064612491316211e-06
1.100182524057039e-06
3.3047995621690585e-06
-2.634303472826352e-06
-8.800985788551263e-07
8.756098024247094e-07
2.629818245705219e-06
-1.8561656360636253e-06
-6.201997131477163e-07
6.16700103146621e-07
1.852660480031014e-06
-9.766240591999042e-07
-3.265517666490095e-07
3.236650180839934e-07
9.73734493956574e-07
1.1008262433449822e-06
3.679771944480048e-07
-3.650971314335394e-07
-1.0979456647845776e-06
2.061859909613384e-06
6.887448312613287e-07
-6.854964021071885e-07
-2.058621505478253e-06
2.865248328563774e-06
9.57054547848224e-07
-9.528673357260542e-07
-2.861067656925037e-06
3.488216312512449e-06
1.1653110708782777e-06
-1.1598123656024473e-06
-3.4827227834086094e-06
3.8617017540203136e-06
1.2904227798433976e-06
-1.2834186813581727e-06
-3.854702755514555e-06
3.85935762762038e-06
1.2902444959765613e-06
-1.2814476118873375e-06
-3.8505534769237015e-06
3.388121115156101e-06
1.133458903596063e-06
-1.1233867041951506e-06
-3.3780534995329903e-06
2.4961697553012308e-06
8.356741428086623e-07
-8.263432990096575e-07
-2.4868450832285505e-06
1.318231484309304e-06
4.418591321581067e-07
-4.352838230102518e-07
-1.31166641371451e-06
2.4158711489641327e-11
1.1428863064266714e-11
-2.1119044013584443e-13
-1.0811860087778236e-11
-1.318230598347861e-06
-4.4186077763873344e-07
4.352806258194758e-07
1.3116628469044683e-06
-2.496227100841006e-06
-8.356971524653423e-07
8.263532352576625e-07
2.486887409386754e-06
-3.388188600241329e-06
-1.1335144430059396e-06
1.1233404095013777e-06
3.3780141166003114e-06
-3.859317338815102e-06
-1.2901916641265554e-06
1.2815178233299002e-06
3.850646131927163e-06
-3.861767196943963e-06
-1.2904778278772372e-06
1.283372872619426e-06
3.854665051017045e-06
-3.4881225744682123e-06
-1.165236677405125e-06
1.159872454483367e-06
3.482773203866349e-06
-2.8652527692711247e-06
-9.570832745480623e-07
9.528120999977366e-07
2.860983700150345e-06
-2.0619597056025646e-06
-6.888055366117973e-07
6.854687554427169e-07
2.058621673867861e-06
-1.100777746353837e-06
-3.679493050618918e-07
3.65105411292109e-07
1.0979352908094611e-06
1.1306643664249494e-06
3.778948793921322e-07
-3.751632697800156e-07
-1.1279292977811606e-06
2.080881275186297e-06
6.950466411408118e-07
-6.919941673115548e-07
-2.0778290553413736e-06
2.8187074746013896e-06
9.413699197137471e-07
-9.377299209460677e-07
-2.8150661425078993e-06
3.3078698904662196e-06
1.1048104494662536e-06
-1.100364743454596e-06
-3.3034292449066194e-06
3.4881915976642253e-06
1.1652881957528727e-06
-1.159833748827499e-06
-3.4827426825638497e-06
3.3110320548333794e-06
1.1064114587809593e-06
-1.1002438997306796e-06
-3.304872088875921e-06
2.7924107580921953e-06
9.335753719634521e-07
-9.268825757156873e-07
-2.7857144026394165e-06
2.0054066213713584e-06
6.707844245126826e-07
-6.649468530395969e-07
-1.9995760941280555e-06
1.043943921412438e-06
3.4931354197728637e-07
-3.458693466004692e-07
-1.04050041610515e-06
-1.9142713456044014e-11
-9.811821494176698e-13
1.7131861901331646e-11
3.551631905240882e-11
-1.0440055239410717e-06
-3.4935177349766644e-07
3.458531054999908e-07
1.0405054262068586e-06
-2.0054459897358295e-06
-6.708177965469853e-07
6.649157327440203e-07
1.999543842921142e-06
-2.792359759659288e-06
-9.335166859976429e-07
9.269514832134507e-07
2.78579643429519e-06
-3.311155452092804e-06
-1.1065117307106076e-06
1.1001640488252779e-06
3.3048103359554354e-06
-3.4881628566824086e-06
-1.1652710039875003e-06
1.1598386742885797e-06
3.482734455565774e-06
-3.307888986231987e-06
-1.1048335013348273e-06
1.100334600466664e-06
3.3033889859229726e-06
-2.818704537969549e-06
-9.413340175184678e-07
9.378017271433406e-07
2.815177633312335e-06
-2.080966849409352e-06
-6.950556200643193e-07
6.92061137038194e-07
2.077973357492331e-06
-1.13079121980518e-06
-3.7796184736062916e-07
3.7515460577300375e-07
1.1279788351371486e-06
1.0437675038582617e-06
3.4881768189512496e-07
-3.464314872921037e-07
-1.0413784192545017e-06
1.8846761178394067e-06
6.294664520491156e-07
-6.268762472137757e-07
-1.8820873055186427e-06
2.485091383279403e-06
8.298660325034568e-07
-8.269353256318279e-07
-2.482169910666965e-06
2.8186956946632535e-06
9.413289027496163e-07
-9.378031833283396e-07
-2.8151754341287916e-06
2.865176784237755e-06
9.570147519837036e-07
-9.528754245473336e-07
-2.8610437402890043e-06
2.634337742626891e-06
8.801588342356725e-07
-8.75520409792524e-07
-2.629695604137311e-06
2.1699864412756675e-06
7.252085330797242e-07
-7.207348788548784e-07
-2.1655124614848587e-06
1.5346545672867418e-06
5.130557339440983e-07
-5.093235941836666e-07
-1.53092322768833e-06
7.923448851997195e-07
2.6494413061552147e-07
-2.628440082374367e-07
-7.902433899146383e-07
3.06945094341593e-12
-5.0571005716371076e-12
-1.4411758245125306e-11
-2.5121201993605347e-11
-7.923122169635477e-07
-2.649262606634756e-07
2.628509903276899e-07
7.902429561192775e-07
-1.534606392785895e-06
-5.13031897986585e-07
5.093235650992928e-07
1.5308989113616e-06
-2.1699793013221086e-06
-7.25204480704969e-07
7.207361066349088e-07
2.1655110072973938e-06
-2.634320274036081e-06
-8.801305885191429e-07
8.755633935375595e-07
2.62975793647105e-06
-2.8651874262371896e-06
-9.570261933983595e-07
9.528626993150074e-07
2.8610291861741466e-06
-2.818649260030205e-06
-9.413101622621559e-07
9.377937265873937e-07
2.81513625322808e-06
-2.4851043558893685e-06
-8.298910032988535e-07
8.26896903408092e-07
2.482116282628323e-06
-1.8846364848016696e-06
-6.294411695074303e-07
6.268892573566519e-07
1.8820903583344553e-06
-1.043828240691793e-06
-3.4884525174864317e-07
3.4643765393178524e-07
1.0414200432690666e-06
8.249905725787876e-07
2.7571668659645554e-07
-2.7376352012067895e-07
-8.230386955264402e-07
1.4636608266956064e-06
4.889054311847663e-07
-4.866981881332388e-07
-1.4614572605015086e-06
1.8845945418156929e-06
6.294110873154846e-07
-6.26909235360712e-07
-1.8821017160157438e-06
2.080970033457863e-06
6.95079228837242e-07
-6.920164919155258e-07
-2.0779066814691216e-06
2.061934821381145e-06
6.888074242962505e-07
-6.854411949835937e-07
-2.05856912968011e-06
1.8562691594184444e-06
6.202619128280185e-07
-6.166775704009864e-07
-1.852676511683582e-06
1.5051269908507303e-06
5.030099461469928e-07
-4.998117105262101e-07
-1.5019292082633917e-06
1.0534038612543262e-06
3.5208098596827e-07
-3.497064572123565e-07
-1.0510355627005308e-06
5.409108673713747e-07
1.8089194973175404e-07
-1.7934744643566258e-07
-5.393547012205735e-07
-1.859941020643241e-12
-7.392994202937153e-12
-1.3412064861495487e-11
-2.0202334596874927e-11
-5.408022289050962e-07
-1.8079105156693087e-07
1.7944816569845368e-07
5.39462773990057e-07
-1.053470063674608e-06
-3.5216430100543095e-07
3.4960472193243386e-07
1.0509141332177424e-06
-1.505245128664498e-06
-5.030987682928117e-07
4.997489574404962e-07
1.50189005328899e-06
-1.8561747475980689e-06
-6.201548928127729e-07
6.168037005351013e-07
1.8528290505262501e-06
-2.061925100414058e-06
-6.888014647352808e-07
6.854433887756167e-07
2.0585673259259155e-06
-2.080995101375223e-06
-6.951091753634037e-07
6.919790039375262e-07
2.0778585811658673e-06
-1.8846285775790499e-06
-6.294133928197963e-07
6.269365350353856e-07
1.8821570168894332e-06
-1.4636431539018224e-06
-4.88895632858987e-07
4.866993460034795e-07
1.4614491889945042e-06
-8.250534962428967e-07
-2.7574563602806614e-07
2.7376762542922e-07
8.230759000701394e-07
4.708410157004683e-07
1.5740106199327308e-07
-1.5593389830065307e-07
-4.6938150727315886e-07
8.25036668782031e-07
2.757117987285673e-07
-2.738206038299662e-07
-8.231503655746486e-07
1.0438029660990444e-06
3.4882613433526166e-07
-3.464523141462339e-07
-1.0414319373437675e-06
1.1307185151000765e-06
3.7791165545877914e-07
-3.7518671103936585e-07
-1.127997119272639e-06
1.1008518500874032e-06
3.6801110675499515e-07
-3.650548730319003e-07
-1.0978950544388022e-06
9.76642450911669e-07
3.2656381435819393e-07
-3.236600709839721e-07
-9.73737724258017e-07
7.831726461030031e-07
2.6192558390258913e-07
-2.5940083176606565e-07
-7.806516148997633e-07
5.439722164171656e-07
1.8199231287437112e-07
-1.8002119158908036e-07
-5.420038833563873e-07
2.7809705637968363e-07
9.305749563981447e-08
-9.199208618644594e-08
-2.770337441809767e-07
1.2892797940367018e-11
1.8884751401548883e-11
2.6379147130550784e-11
3.556923158787306e-11
-2.7810780406541113e-07
-9.306753617939478e-08
9.19828688113189e-08
2.7702579573525565e-07
-5.440930028449004e-07
-1.820362184896257e-07
1.8005350195353376e-07
5.421135384781756e-07
-7.832680817606436e-07
-2.6196023801897117e-07
2.594260675344018e-07
7.80737186583183e-07
-9.766648345586881e-07
-3.266087740053103e-07
3.2359056196477193e-07
9.736413660492785e-07
-1.1007549112927381e-06
-3.6794186673416024e-07
3.6509867262259077e-07
1.0979149337262545e-06
-1.130671714390935e-06
-3.778844707208115e-07
3.751932557277682e-07
1.1279812483968449e-06
-1.04377180173542e-06
-3.4879955307289684e-07
3.4647368741657497e-07
1.041447229760406e-06
-8.249650030301391e-07
-2.7568246965554294e-07
2.738065897423328e-07
8.230912981184273e-07
-4.709121959065119e-07
-1.574650125770339e-07
1.558711807343239e-07
4.6931397326254853e-07
SCALARS disp_x float
LOOKUP_TABLE default
0.0
0.0
0.0
0.0
0.0
0.0
0.0
0.0
0.0
0.0
0.0
0.0
0.0
0.0
0.0
0.0
0.0
0.0
0.0
0.0
0.0
0.0
0.0
0.0
0.0
0.0
0.0
0.0
0.0
0.0
0.0
0.0
0.0
0.0
0.0
0.0
0.0
0.0
0.0
0.0
0.0
0.0
0.0
0.0
0.0
0.0
0.0
0.0
0.0
0.0
0.0
0.0
0.0
0.0
0.0
0.0
0.0
0.0
0.0
0.0
0.0
0.0
0.0
0.0
0.0
0.0
0.0
0.0
0.0
0.0
0.0
0.0
0.0
0.0
0.0
0.0
0.0
0.0
0.0
0.0
0.0
0.0
0.0
0.0
0.0
0.0
0.0
0.0
0.0
0.0
0.0
0.0
0.0
0.0
0.0
0.0
0.0
0.0
0.0
0.0
0.0
0.0
0.0
0.0
0.0
0.0
0.0
0.0
0.0
0.0
0.0
0.0
0.0
0.0
0.0
0.0
0.0
0.0
0.0
0.0
0.0
0.0
0.0
0.0
0.0
0.0
0.0
0.0
0.0
0.0
0.0
0.0
0.0
0.0
0.0
0.0
0.0
0.0
0.0
0.0
0.0
0.0
0.0
0.0
0.0
0.0
0.0
0.0
0.0
0.0
0.0
0.0
0.0
0.0
0.0
0.0
0.0
0.0
0.0
0.0
0.0
0.0
0.0
0.0
0.0
0.0
0.0
0.0
0.0
0.0
0.0
0.0
0.0
0.0
0.0
0.0
-2.2159618776737274e-07
-8.047199485562746e-07
-1.6322178741493504e-06
-2.583761587032691e-06
-3.5509556330395097e-06
-4.443926734596304e-06
-5.195222119472673e-06
-5.758934731366056e-06
-6.106871577437181e-06
-6.2243696167355795e-06
-6.106871577575337e-06
-5.7589347316368594e-06
-5.195222119880532e-06
-4.4439267350987785e-06
-3.550955633570207e-06
-2.5837615875044266e-06
-1.6322178744926444e-06
-8.047199487430491e-07
-2.215961878222317e-07
-3.8141769613044767e-07
-1.3942267175072022e-06
-2.857436792513426e-06
-4.5767287524798135e-06
-6.360985220351783e-06
-8.038265589201874e-06
-9.469631230410571e-06
-1.0554634622634563e-05
-1.1228824330098e-05
-1.1457143723909776e-05
-1.1228824330379857e-05
-1.0554634623232193e-05
-9.469631231243147e-06
-8.03826559019925e-06
-6.360985221378277e-06
-4.576728753374429e-06
-2.8574367931571004e-06
-1.3942267178574082e-06
-3.8141769623341977e-07
-4.7479081361959223e-07
-1.7570996925460949e-06
-3.6530898206851566e-06
-5.944254443112499e-06
-8.38954713380767e-06
-1.0743229467875255e-05
-1.2789326995071988e-05
-1.4360069295820695e-05
-1.5343751211238358e-05
-1.5678204930331068e-05
-1.5343751211727638e-05
-1.436006929675257e-05
-1.2789326996326535e-05
-1.0743229469308074e-05
-8.389547135243034e-06
-5.944254444338228e-06
-3.653089821566787e-06
-1.7570996930241859e-06
-4.747908137577937e-07
-5.068776968632626e-07
-1.9003661185250975e-06
-4.012520773043045e-06
-6.650814744232722e-06
-9.578344418184374e-06
-1.2498320799076634e-05
-1.510432928679546e-05
-1.7143418474533514e-05
-1.8433075924829406e-05
-1.8874377986989313e-05
-1.843307592556656e-05
-1.7143418475861133e-05
-1.5104329288498896e-05
-1.249832080091442e-05
-9.578344419887969e-06
-6.650814745677261e-06
-4.012520774060919e-06
-1.9003661190686436e-06
-5.068776970173856e-07
-4.871262006423507e-07
-1.848046028878269e-06
-3.957554567966634e-06
-6.678145466305956e-06
-9.840686758001388e-06
-1.3178009602774193e-05
-1.629685362266745e-05
-1.8806641382911435e-05
-2.042834048402935e-05
-2.0982610267339806e-05
-2.0428340485063082e-05
-1.8806641384692027e-05
-1.629685362484119e-05
-1.3178009604975557e-05
-9.840686759885702e-06
-6.678145467775311e-06
-3.95755456896635e-06
-1.8480460294103023e-06
-4.871262007955238e-07
-4.274919443306394e-07
-1.6378287778379192e-06
-3.5484707153723347e-06
-6.076667310468887e-06
-9.13962581489141e-06
-1.2606012643540958e-05
-1.6149412696198153e-05
-1.917307176357061e-05
-2.1177394815484634e-05
-2.1888398465832014e-05
-2.1177394816531953e-05
-1.9173071765529182e-05
-1.6149412698617594e-05
-1.260601264585086e-05
-9.13962581680374e-06
-6.076667311842317e-06
-3.5484707162699334e-06
-1.6378287783012922e-06
-4.2749194446444646e-07
-3.399750628329503e-07
-1.312306123561449e-06
-2.868049076809857e-06
-4.9656643684214235e-06
-7.581344153898537e-06
-1.0708091112900978e-05
-1.4296640358809642e-05
-1.789787120861062e-05
-2.0426106780370527e-05
-2.1345307478186768e-05
-2.0426106781372773e-05
-1.7897871210582885e-05
-1.4296640361229117e-05
-1.0708091115262945e-05
-7.581344155760003e-06
-4.965664369714346e-06
-2.8680490776089137e-06
-1.31230612393493e-06
-3.399750629279875e-07
-2.3476025615477668e-07
-9.108822504889758e-07
-2.0024526378144606e-06
-3.4917815352059398e-06
-5.384759439398767e-06
-7.718306701799689e-06
-1.0594661699235561e-05
-1.4163582809024675e-05
-1.7741019174652546e-05
-1.8837426532967728e-05
-1.7741019175904024e-05
-1.416358281093742e-05
-1.0594661701478255e-05
-7.718306703808185e-06
-5.3847594409037705e-06
-3.4917815362113158e-06
-2.002452638376946e-06
-9.108822507080961e-07
-2.3476025620568937e-07
-1.1957488086157073e-07
-4.653488095062587e-07
-1.0264305245750136e-06
-1.7970462754746757e-06
-2.7851492460235987e-06
-4.028055404177426e-06
-5.599191155543593e-06
-7.717643892751317e-06
-1.0960086233179572e-05
-1.4474745444380962e-05
-1.0960086234275763e-05
-7.717643894320282e-06
-5.5991911568328504e-06
-4.0280554051529245e-06
-2.7851492466914397e-06
-1.7970462758312503e-06
-1.026430524685417e-06
-4.6534880953310384e-07
-1.1957488085509328e-07
-2.38961494008035e-17
-6.996236598115288e-17
-1.382550459050894e-16
-2.4574241781388784e-16
-2.3805924825682576e-16
-2.519385143660918e-16
-1.4588780065260263e-16
6.113640109637804e-18
-1.2330732587671843e-16
-2.2212456267462646e-16
-3.309721452781503e-16
-2.0193492699863246e-16
-2.08221337850854e-17
1.7897546801037647e-16
1.2553211569481222e-16
2.0688125833975929e-16
1.6324955369297317e-16
1.057970704589648e-16
3.4738305550677243e-17
1.1957488082482964e-07
4.653488093846752e-07
1.0264305243364514e-06
1.7970462751406256e-06
2.7851492455911507e-06
4.028055403854004e-06
5.599191155482824e-06
7.717643892604582e-06
1.0960086232889517e-05
1.4474745443903435e-05
1.096008623375693e-05
7.717643894043503e-06
5.599191156795271e-06
4.028055405292888e-06
2.785149246911648e-06
1.7970462761225158e-06
1.0264305249597332e-06
4.653488096922977e-07
1.195748809021719e-07
2.347602561395851e-07
9.108822504234208e-07
2.0024526376953797e-06
3.4917815350706652e-06
5.384759439205409e-06
7.718306701702109e-06
1.0594661699242154e-05
1.4163582808980638e-05
1.774101917447809e-05
1.883742653270315e-05
1.7741019175976445e-05
1.4163582811106504e-05
1.0594661701493336e-05
7.718306703704671e-06
5.384759440942865e-06
3.491781536356699e-06
2.0024526385064675e-06
9.108822507744014e-07
2.3476025622212504e-07
3.3997506283429705e-07
1.3123061235785671e-06
2.868049076841786e-06
4.965664368417268e-06
7.581344153841023e-06
1.0708091112793642e-05
1.4296640358580706e-05
1.7897871208589965e-05
2.0426106780467393e-05
2.1345307478408575e-05
2.0426106781848508e-05
1.7897871210978652e-05
1.4296640361344012e-05
1.0708091115140755e-05
7.581344155698691e-06
4.965664369788505e-06
2.8680490776669893e-06
1.3123061239501709e-06
3.3997506292611124e-07
4.274919443499564e-07
1.6378287778983664e-06
3.5484707154703444e-06
6.076667310543811e-06
9.13962581492558e-06
1.260601264333882e-05
1.6149412695771292e-05
1.91730717632802e-05
2.1177394815637138e-05
2.1888398466314836e-05
2.1177394816861636e-05
1.917307176560592e-05
1.614941269853135e-05
1.2606012645755717e-05
9.139625816765446e-06
6.076667311821205e-06
3.5484707162629576e-06
1.6378287782817147e-06
4.2749194444712697e-07
4.871262006668503e-07
1.848046028947013e-06
3.957554568083791e-06
6.678145466434121e-06
9.840686758073394e-06
1.3178009602678219e-05
1.6296853622360204e-05
1.88066413825982e-05
2.0428340483999988e-05
2.098261026751573e-05
2.0428340485242192e-05
1.880664138459014e-05
1.6296853624652797e-05
1.317800960479735e-05
9.840686759733226e-06
6.678145467607572e-06
3.957554568811944e-06
1.8480460293118008e-06
4.871262007668341e-07
5.068776968826962e-07
1.9003661185959687e-06
4.012520773174279e-06
6.650814744372198e-06
9.578344418242247e-06
1.249832079910673e-05
1.5104329286771212e-05
1.714341847442743e-05
1.843307592473412e-05
1.887437798696154e-05
1.84330759255769e-05
1.7143418475807814e-05
1.5104329288345153e-05
1.249832080071407e-05
9.578344419616722e-06
6.650814745379527e-06
4.0125207738315526e-06
1.900366118936472e-06
5.068776969796377e-07
4.747908136336357e-07
1.7570996926051934e-06
3.6530898207793217e-06
5.944254443231247e-06
8.389547133938355e-06
1.0743229468040396e-05
1.2789326995263838e-05
1.4360069295986648e-05
1.5343751211343715e-05
1.567820493038361e-05
1.5343751211701797e-05
1.4360069296728428e-05
1.2789326996241729e-05
1.0743229469114583e-05
8.38954713499543e-06
5.944254444078115e-06
3.653089821371601e-06
1.7570996929061677e-06
4.7479081372299515e-07
3.814176961374303e-07
1.394226717534721e-06
2.857436792570584e-06
4.5767287525827196e-06
6.360985220529418e-06
8.038265589471473e-06
9.469631230737362e-06
1.0554634622951191e-05
1.1228824330370712e-05
1.1457143724118228e-05
1.122882433050842e-05
1.0554634623249342e-05
9.469631231184995e-06
8.038265590069675e-06
6.360985221206068e-06
4.576728753211511e-06
2.8574367930300086e-06
1.3942267177822294e-06
3.814176962092834e-07
2.2159618776671335e-07
8.047199485599372e-07
1.632217874170163e-06
2.583761587104133e-06
3.5509556331758642e-06
4.4439267347993405e-06
5.195222119721155e-06
5.758934731623949e-06
6.106871577692357e-06
6.224369616947691e-06
6.106871577714261e-06
5.758934731682467e-06
5.195222119854596e-06
4.443926735029609e-06
3.550955633482942e-06
2.5837615874240012e-06
1.6322178744327388e-06
8.047199487114399e-07
2.2159618781236798e-07
2.2059843323978996e-07
8.031805709844441e-07
1.6302460661670486e-06
2.5813814015778803e-06
3.5481586038769714e-06
4.4406979699238904e-06
5.19156827455505e-06
5.754908823854154e-06
6.102587024885175e-06
6.219990906368904e-06
6.102587025018961e-06
5.7549088241133105e-06
5.191568274954202e-06
4.440697970424531e-06
3.548158604405131e-06
2.5813814020503206e-06
1.6302460665124633e-06
8.031805711746553e-07
2.2059843329793548e-07
3.7971780229360124e-07
1.3913319635984e-06
2.85357302433083e-06
4.571928347406488e-06
6.355197890749154e-06
8.031422552741649e-06
9.461715245505687e-06
1.0545754059292561e-05
1.1219258028706707e-05
1.1447332221038666e-05
1.1219258028980016e-05
1.0545754059853617e-05
9.461715246318854e-06
8.03142255372898e-06
6.355197891769149e-06
4.5719283483014244e-06
2.8535730249780084e-06
1.3913319639549207e-06
3.797178024019965e-07
4.72611414969505e-07
1.753199258449561e-06
3.6476863495737443e-06
5.937340921989389e-06
8.380981193925804e-06
1.073282211080489e-05
1.2776972429304588e-05
1.4345890940854743e-05
1.5328244891520175e-05
1.566218234066075e-05
1.5328244891977712e-05
1.434589094174123e-05
1.2776972430524492e-05
1.0732822112218969e-05
8.38098119536341e-06
5.937340923212981e-06
3.647686350461486e-06
1.7531992589337224e-06
4.7261141511645045e-07
5.043657283464047e-07
1.8957463406612169e-06
4.0059350507477394e-06
6.642149940495587e-06
9.567287029341967e-06
1.2484468090056644e-05
1.5087326598097238e-05
1.7123308946779206e-05
1.8410532247884318e-05
1.885103130205692e-05
1.841053224858762e-05
1.712330894807056e-05
1.5087326599749849e-05
1.2484468091862862e-05
9.567287031044947e-06
6.642149941933697e-06
4.005935051770617e-06
1.895746341211295e-06
5.043657285131592e-07
4.844567622172026e-07
1.8430466297655548e-06
3.950258759634324e-06
6.6682656902074655e-06
9.827692399406977e-06
1.3161084905416375e-05
1.6275233692719282e-05
1.8779777151448786e-05
2.0397302004998573e-05
2.094926343638759e-05
2.039730200595628e-05
1.8779777153154355e-05
1.6275233694816522e-05
1.3161084907566284e-05
9.827692401244697e-06
6.668265691679383e-06
3.950258760640422e-06
1.8430466302960974e-06
4.844567623789024e-07
4.2487967678917633e-07
1.6328720306811556e-06
3.5410759325790785e-06
6.066376473544431e-06
9.125515281126019e-06
1.25870267889035e-05
1.6123463792041953e-05
1.9139081261669666e-05
2.1134306642529038e-05
2.1844418389042537e-05
2.113430664351966e-05
1.9139081263516235e-05
1.61234637943458e-05
1.2587026791063684e-05
9.125515282981309e-06
6.066376474940632e-06
3.541075933470127e-06
1.632872031141614e-06
4.2487967692102357e-07
3.3767393426116716e-07
1.3078909058562e-06
2.861341582060359e-06
4.9560087574044734e-06
7.567703757525491e-06
1.06880455391066e-05
1.4269322599361444e-05
1.7855110481872644e-05
2.0370597389572543e-05
2.1267290445728366e-05
2.0370597390506356e-05
1.7855110483742283e-05
1.4269322601618164e-05
1.0688045541160905e-05
7.567703759341637e-06
4.956008758687517e-06
2.8613415828190935e-06
1.3078909062103766e-06
3.376739343506609e-07
2.3303240023257647e-07
9.075446819672061e-07
1.997277132587147e-06
3.4842113288279087e-06
5.373257032794182e-06
7.701722638576355e-06
1.0563951861366493e-05
1.4128511203800036e-05
1.764579476299779e-05
1.8774564258202178e-05
1.7645794764205376e-05
1.4128511205618553e-05
1.0563951863323087e-05
7.701722640506175e-06
5.373257034190934e-06
3.484211329732152e-06
1.9972771330625617e-06
9.075446821606396e-07
2.3303240028041167e-07
1.1864676743234113e-07
4.6353947566467065e-07
1.0236220245350244e-06
1.7927298338426338e-06
2.778942030288555e-06
4.016184099129017e-06
5.586133087276048e-06
7.656815361320071e-06
1.0955406538665094e-05
1.3969946660373207e-05
1.0955406539761297e-05
7.656815362743666e-06
5.5861330884181585e-06
4.016184100002103e-06
2.7789420308107837e-06
1.7927298340302798e-06
1.0236220245657345e-06
4.6353947562830647e-07
1.1864676741628398e-07
2.5471066382802696e-17
9.264308771707924e-17
1.6802231619852864e-16
2.261499095198132e-16
2.1310594966680763e-16
1.1928747682605315e-16
4.6035790522955497e-17
8.292185043409501e-17
1.2360719485019617e-16
2.368972620335718e-16
3.4184013852414574e-16
1.639137296804262e-16
-1.391560462533754e-16
-4.06019658323012e-16
-3.958039197218004e-16
-3.068076122474933e-16
-2.367926297054289e-16
-1.4467643553032924e-16
-5.717752645499139e-17
-1.1864676739326037e-07
-4.6353947551171217e-07
-1.023622024249125e-06
-1.7927298334507235e-06
-2.7789420299510758e-06
-4.0161840990112314e-06
-5.586133087301509e-06
-7.656815361200897e-06
-1.09554065383664e-05
-1.3969946659910919e-05
-1.0955406539177755e-05
-7.656815362558759e-06
-5.5861330887261075e-06
-4.0161841005835355e-06
-2.7789420314418737e-06
-1.7927298345342546e-06
-1.0236220249623197e-06
-4.635394758819345e-07
-1.1864676749747728e-07
-2.330324002135949e-07
-9.075446818876516e-07
-1.9972771324210554e-06
-3.4842113286378256e-06
-5.373257032655984e-06
-7.701722638603885e-06
-1.0563951861486884e-05
-1.4128511203813903e-05
-1.764579476272304e-05
-1.8774564257828192e-05
-1.7645794764168124e-05
-1.412851120586043e-05
-1.0563951863748973e-05
-7.701722640733709e-06
-5.373257034518801e-06
-3.4842113300139488e-06
-1.9972771332829326e-06
-9.075446822950422e-07
-2.3303240032682167e-07
-3.3767393425829535e-07
-1.3078909058567458e-06
-2.861341582061355e-06
-4.9560087574019866e-06
-7.567703757545515e-06
-1.068804553899746e-05
-1.4269322599283116e-05
-1.7855110481879543e-05
-2.0370597389518753e-05
-2.1267290445862485e-05
-2.0370597390917577e-05
-1.7855110484128964e-05
-1.4269322601855038e-05
-1.0688045541390573e-05
-7.567703759444171e-06
-4.956008758803393e-06
-2.861341582913031e-06
-1.3078909062787901e-06
-3.37673934373428e-07
-4.248796767999274e-07
-1.6328720307331958e-06
-3.5410759326583913e-06
-6.0663764736857e-06
-9.125515281220035e-06
-1.2587026788760636e-05
-1.6123463791771245e-05
-1.9139081261406137e-05
-2.113430664259968e-05
-2.184441838938426e-05
-2.1134306643712614e-05
-1.9139081263587816e-05
-1.6123463794301458e-05
-1.2587026791098225e-05
-9.125515283040252e-06
-6.066376474940228e-06
-3.5410759334644312e-06
-1.632872031135186e-06
-4.248796769143778e-07
-4.844567622397443e-07
-1.8430466298267387e-06
-3.95025875975528e-06
-6.668265690401945e-06
-9.827692399563827e-06
-1.316108490541233e-05
-1.6275233692514117e-05
-1.877977715119479e-05
-2.0397302004956777e-05
-2.0949263436445546e-05
-2.039730200593756e-05
-1.877977715298539e-05
-1.6275233694662115e-05
-1.3161084907410011e-05
-9.827692401149155e-06
-6.6682656915224545e-06
-3.9502587604762904e-06
-1.8430466301936605e-06
-4.844567623516414e-07
-5.043657283669375e-07
-1.8957463407309624e-06
-4.005935050897415e-06
-6.642149940686103e-06
-9.567287029488932e-06
-1.248446809013558e-05
-1.5087326598101644e-05
-1.712330894677732e-05
-1.841053224779908e-05
-1.885103130190214e-05
-1.8410532248444396e-05
-1.7123308947916016e-05
-1.5087326599612787e-05
-1.2484468091685048e-05
-9.567287030769842e-06
-6.642149941655942e-06
-4.005935051539185e-06
-1.8957463410806653e-06
-5.043657284716541e-07
-4.7261141498581e-07
-1.75319925850696e-06
-3.6476863496894604e-06
-5.9373409221448866e-06
-8.38098119412379e-06
-1.0732822111009335e-05
-1.2776972429519293e-05
-1.4345890941075328e-05
-1.5328244891595625e-05
-1.566218234060938e-05
-1.5328244891858182e-05
-1.4345890941653463e-05
-1.2776972430383698e-05
-1.0732822112044038e-05
-8.380981195121544e-06
-5.937340922959176e-06
-3.6476863502614224e-06
-1.753199258818872e-06
-4.726114150776054e-07
-3.7971780230097874e-07
-1.3913319636279215e-06
-2.8535730244021946e-06
-4.57192834752561e-06
-6.355197890956355e-06
-8.03142255305561e-06
-9.461715245851737e-06
-1.0545754059621296e-05
-1.1219258028963503e-05
-1.144733222117087e-05
-1.1219258029030795e-05
-1.0545754059820081e-05
-9.461715246245665e-06
-8.031422553607935e-06
-6.355197891610321e-06
-4.571928348145838e-06
-2.853573024846138e-06
-1.391331963875813e-06
-3.797178023771829e-07
-2.2059843324047843e-07
-8.031805709895035e-07
-1.6302460661942559e-06
-2.581381401650856e-06
-3.548158604026252e-06
-4.4406979701492495e-06
-5.191568274812188e-06
-5.754908824115698e-06
-6.102587025130013e-06
-6.219990906560679e-06
-6.10258702511638e-06
-5.75490882414055e-06
-5.191568274921155e-06
-4.440697970361001e-06
-3.548158604321641e-06
-2.5813814019704153e-06
-1.6302460664544515e-06
-8.031805711399197e-07
-2.2059843328688022e-07
0.0
0.0
0.0
0.0
0.0
0.0
0.0
0.0
0.0
0.0
0.0
0.0
0.0
0.0
0.0
0.0
0.0
0.0
0.0
0.0
0.0
0.0
0.0
0.0
0.0
0.0
0.0
0.0
0.0
0.0
0.0
0.0
0.0
0.0
0.0
0.0
0.0
0.0
0.0
0.0
0.0
0.0
0.0
0.0
0.0
0.0
0.0
0.0
0.0
0.0
0.0
0.0
0.0
0.0
0.0
0.0
0.0
0.0
0.0
0.0
0.0
0.0
0.0
0.0
0.0
0.0
0.0
0.0
0.0
0.0
0.0
0.0
0.0
0.0
0.0
0.0
0.0
0.0
0.0
0.0
0.0
0.0
0.0
0.0
0.0
0.0
0.0
0.0
0.0
0.0
0.0
0.0
0.0
0.0
0.0
0.0
0.0
0.0
0.0
0.0
0.0
0.0
0.0
0.0
0.0
0.0
0.0
0.0
0.0
0.0
0.0
0.0
0.0
0.0
0.0
0.0
0.0
0.0
0.0
0.0
0.0
0.0
0.0
0.0
0.0
0.0
0.0
0.0
0.0
0.0
0.0
0.0
0.0
0.0
0.0
0.0
0.0
0.0
0.0
0.0
0.0
0.0
0.0
0.0
0.0
0.0
0.0
0.0
0.0
0.0
0.0
0.0
0.0
0.0
0.0
0.0
0.0
0.0
0.0
0.0
0.0
0.0
0.0
0.0
0.0
0.0
0.0
0.0
0.0
0.0
0.0
0.0
0.0
0.0
0.0
0.0
0.0
0.0
0.0
0.0
0.0
0.0
0.0
0.0
0.0
0.0
0.0
0.0
0.0
0.0
0.0
0.0
0.0
0.0
0.0
0.0
0.0
0.0
0.0
0.0
0.0
0.0
0.0
0.0
0.0
0.0
0.0
0.0
0.0
0.0
0.0
0.0
0.0
0.0
0.0
0.0
0.0
0.0
0.0
0.0
0.0
0.0
0.0
0.0
0.0
0.0
0.0
0.0
0.0
0.0
0.0
0.0
0.0
0.0
0.0
0.0
0.0
0.0
0.0
0.0
0.0
0.0
0.0
0.0
0.0
0.0
0.0
0.0
0.0
0.0
0.0
0.0
0.0
0.0
0.0
0.0
0.0
0.0
0.0
0.0
0.0
0.0
0.0
0.0
0.0
0.0
0.0
0.0
0.0
0.0
0.0
0.0
0.0
0.0
0.0
0.0
0.0
0.0
0.0
0.0
0.0
0.0
0.0
0.0
0.0
0.0
0.0
0.0
0.0
0.0
0.0
0.0
0.0
0.0
0.0
0.0
0.0
0.0
0.0
0.0
0.0
0.0
0.0
0.0
-1.3328403284242038e-07
-4.478140620300941e-08
4.3784592396827266e-08
1.3228690613667287e-07
-4.8299296983118e-07
-1.614860650267685e-07
1.5994757705832243e-07
4.814541858536804e-07
-9.793276826501318e-07
-3.2703335467908873e-07
3.2506259577491854e-07
9.773565747632935e-07
-1.5500562279214614e-06
-5.173657987357316e-07
5.149867738449798e-07
1.547676816979717e-06
-2.1302056300295943e-06
-7.10846169727231e-07
7.080504113800895e-07
2.127409448956771e-06
-2.6658645286692223e-06
-8.895080414897493e-07
8.862806687211306e-07
2.6626366929409048e-06
-3.11656547513607e-06
-1.0398565132796313e-06
1.0362041448615012e-06
3.112912615739817e-06
-3.4547548676083812e-06
-1.1526915754933988e-06
1.148667209780362e-06
3.4507299881086017e-06
-3.6635028345783465e-06
-1.2223493708491525e-06
1.2180667043852305e-06
3.659219546141476e-06
-3.7339983296677495e-06
-1.245875954844992e-06
1.2414979720600618e-06
3.7296200860905225e-06
-3.663502834662065e-06
-1.2223493708784747e-06
1.2180667044102593e-06
3.6592195462208037e-06
-3.454754867773227e-06
-1.1526915755522539e-06
1.1486672098275066e-06
3.4507299882618096e-06
-3.116565475382447e-06
-1.0398565133646073e-06
1.036204144937913e-06
3.1129126159774976e-06
-2.665864528970984e-06
-8.895080415909432e-07
8.862806688204709e-07
2.662636693240855e-06
-2.1302056303484044e-06
-7.108461698343349e-07
7.080504114846498e-07
2.127409449273049e-06
-1.5500562282042406e-06
-5.173657988297352e-07
5.149867739396936e-07
1.5476768172632078e-06
-9.79327682855607e-07
-3.2703335474685783e-07
3.2506259584481813e-07
9.773565749708884e-07
-4.829929699425271e-07
-1.6148606506273594e-07
1.599475770977197e-07
4.814541859684561e-07
-1.332840328747103e-07
-4.478140621268177e-08
4.378459240978687e-08
1.3228690617224788e-07
-2.2951403074881493e-07
-7.712520917691837e-08
7.542523780729937e-08
2.278140846619312e-07
-8.372499184223884e-07
-2.800707511332942e-07
2.7717574827066867e-07
8.343549978857171e-07
-1.7153164183126784e-06
-5.730736682760069e-07
5.692095296386436e-07
1.7114524023656783e-06
-2.747002955840868e-06
-9.17268717179321e-07
9.124678184942913e-07
2.7422022207486147e-06
-3.817709203753774e-06
-1.2744922401757996e-06
1.2687043224341514e-06
3.8119214810454918e-06
-4.824264153034023e-06
-1.6103583834730617e-06
1.6035146180825494e-06
4.817420629443236e-06
-5.683292942776599e-06
-1.8970580705442193e-06
1.8891413085307383e-06
5.675376438082315e-06
-6.334492340454049e-06
-2.1144467612150284e-06
2.1055654497176988e-06
6.325611280238069e-06
-6.739149392080598e-06
-2.249562406918059e-06
2.239994192927012e-06
6.7295817969659415e-06
-6.876194298300882e-06
-2.2953249542329514e-06
2.2855160920381697e-06
6.8663846147602505e-06
-6.739149392251566e-06
-2.249562406978013e-06
2.239994192978155e-06
6.729581797128415e-06
-6.334492340819822e-06
-2.114446761349037e-06
2.105565449815415e-06
6.3256112805672574e-06
-5.6832929432801e-06
-1.8970580707186663e-06
1.8891413086853288e-06
5.675376438566383e-06
-4.824264153634391e-06
-1.6103583836764816e-06
1.603514618276057e-06
4.817420630033551e-06
-3.817709204370904e-06
-1.2744922403836433e-06
1.2687043226355344e-06
3.811921481656084e-06
-2.747002956377528e-06
-9.172687173580946e-07
9.124678186733919e-07
2.742202221285583e-06
-1.7153164186981764e-06
-5.730736684033566e-07
5.692095297694321e-07
1.7114524027546733e-06
-8.372499186312574e-07
-2.800707512008101e-07
2.771757483445106e-07
8.343549981009151e-07
-2.2951403080959748e-07
-7.712520919538971e-08
7.542523783118185e-08
2.278140847281331e-07
-2.856977220788888e-07
-9.602347509013505e-08
9.38444057794943e-08
2.8351854340501266e-07
-1.0551370682414885e-06
-3.5302865613273136e-07
3.4912847604545717e-07
1.051236803885401e-06
-2.192868830382357e-06
-7.327464543707407e-07
7.273432413488025e-07
2.1874655318454916e-06
-3.5676486013895004e-06
-1.1914729413466981e-06
1.184559678835343e-06
3.560735253308522e-06
-5.0349635313161254e-06
-1.6810969147831018e-06
1.672531187311714e-06
5.0263977336789e-06
-6.447386254479434e-06
-2.1524924770045514e-06
2.142085414416123e-06
6.4369790943847166e-06
-7.67532499165989e-06
-2.562436311091229e-06
2.550081954492995e-06
7.662970567706932e-06
-8.61806694758083e-06
-2.8772803644935118e-06
2.863101779220404e-06
8.603888430322757e-06
-9.208506116636635e-06
-3.0745288018668587e-06
3.0590263183989083e-06
9.193002403863453e-06
-9.409265870586864e-06
-3.141623636989808e-06
3.1255885700084462e-06
9.393234795406031e-06
-9.208506116936434e-06
-3.074528801977245e-06
3.059026318477885e-06
9.193002404131452e-06
-8.618066948149123e-06
-2.8772803646982235e-06
2.863101779379267e-06
8.60388843084553e-06
-7.67532499241941e-06
-2.562436311355803e-06
2.550081954723371e-06
7.66297056843183e-06
-6.44738625534285e-06
-2.1524924772986857e-06
2.1420854146912513e-06
6.436979095229369e-06
-5.034963532176734e-06
-1.6810969150692545e-06
1.672531187599918e-06
5.0263977345417855e-06
-3.5676486021252366e-06
-1.1914729415925859e-06
1.18455967907928e-06
3.5607352540421046e-06
-2.1928688309100742e-06
-7.327464545446338e-07
7.273432415287119e-07
2.187465532379326e-06
-1.055137068527121e-06
-3.530286562259261e-07
3.4912847614468544e-07
1.0512368041770882e-06
-2.8569772216015505e-07
-9.602347511431426e-08
9.384440581244885e-08
2.8351854349502357e-07
-3.050666485649905e-07
-1.025990606256273e-07
1.0008726269925987e-07
3.0255479363053904e-07
-1.1413270000634024e-06
-3.820127897778869e-07
3.7739308452868735e-07
1.1367072703768767e-06
-2.4088989818681566e-06
-8.051730724610437e-07
7.985873924780797e-07
2.40231328753907e-06
-3.992095456896434e-06
-1.3335656512758912e-06
1.3249008165575046e-06
3.983430632156533e-06
-5.748895123379903e-06
-1.9199302607220042e-06
1.908872870334392e-06
5.7378377331524176e-06
-7.501278850167608e-06
-2.504963134477482e-06
2.491110212130904e-06
7.487425999206915e-06
-9.06540348377659e-06
-3.027369570497584e-06
3.010366701853935e-06
9.048400669712637e-06
-1.0289417549121541e-05
-3.4363990665504995e-06
3.4162913216940825e-06
1.0269309236885535e-05
-1.1063667820717225e-05
-3.6952934265305447e-06
3.6727373532559105e-06
1.1041115748452677e-05
-1.1328616728729245e-05
-3.7838595854263055e-06
3.760557413767367e-06
1.1305300165467434e-05
-1.106366782116626e-05
-3.6952934266912908e-06
3.672737353383609e-06
1.1041115748867905e-05
-1.0289417549925155e-05
-3.436399066830293e-06
3.4162913219379937e-06
1.0269309237653086e-05
-9.065403484808968e-06
-3.0273695708588774e-06
3.010366702163629e-06
9.048400670694138e-06
-7.501278851276362e-06
-2.504963134857324e-06
2.4911102124798886e-06
7.487426000284095e-06
-5.748895124402173e-06
-1.9199302610630138e-06
1.908872870674641e-06
5.737837734174119e-06
-3.992095457764315e-06
-1.3335656515673774e-06
1.3249008168423002e-06
3.983430633018027e-06
-2.4088989824777683e-06
-8.051730726625027e-07
7.98587392684708e-07
2.4023132881536765e-06
-1.141327000388211e-06
-3.8201278988397324e-07
3.7739308464131065e-07
1.1367072707082317e-06
-3.0506664865505635e-07
-1.0259906065145006e-07
1.0008726273775443e-07
3.025547937332428e-07
-2.9323807217538785e-07
-9.870715754759798e-08
9.603793083209291e-08
2.905687750072008e-07
-1.110025897297843e-06
-3.717081407834594e-07
3.6670887051849476e-07
1.1050265841728683e-06
-2.376092286091111e-06
-7.944794046408799e-07
7.871836964848471e-07
2.3687965446400908e-06
-4.008777154703066e-06
-1.3395379576706119e-06
1.3296582774693176e-06
3.998897442678305e-06
-5.906683437277162e-06
-1.9731713990533806e-06
1.960177010887482e-06
5.8936890594554126e-06
-7.909597972368878e-06
-2.642075465983915e-06
2.625150820748936e-06
7.892673307291938e-06
-9.78167342615212e-06
-3.267637165223995e-06
3.2460178853906756e-06
9.760053944872779e-06
-1.1288482258210346e-05
-3.771638702119234e-06
3.7447673267423282e-06
1.1261613190176476e-05
-1.2262311295842807e-05
-4.097619281269878e-06
4.0666225413883685e-06
1.2231300977519219e-05
-1.2595269570789494e-05
-4.209428141675568e-06
4.175930614716397e-06
1.2561821157245566e-05
-1.2262311296478006e-05
-4.097619281507113e-06
4.066622541548956e-06
1.2231300978078276e-05
-1.1288482259293434e-05
-3.7716387025050845e-06
3.7447673270537483e-06
1.1261613191184543e-05
-9.781673427471343e-06
-3.267637165689236e-06
3.2460178857791978e-06
9.760053946115619e-06
-7.909597973699662e-06
-2.642075466444652e-06
2.625150821157967e-06
7.89267330857131e-06
-5.90668343841697e-06
-1.9731713994487955e-06
1.9601770112363637e-06
5.893689060548537e-06
-4.008777155584082e-06
-1.3395379579634074e-06
1.3296582777647294e-06
3.998897443561806e-06
-2.376092286689657e-06
-7.944794048383566e-07
7.87183696688454e-07
2.368796545245046e-06
-1.11002589761732e-06
-3.717081408903874e-07
3.6670887062409637e-07
1.1050265844908254e-06
-2.932380722657105e-07
-9.870715757489099e-08
9.603793086788829e-08
2.9056877510604936e-07
-2.574028350857786e-07
-8.673582107433675e-08
8.412374292021385e-08
2.547906938178591e-07
-9.838928769665641e-07
-3.296505550816505e-07
3.2469391236295953e-07
9.789361993622338e-07
-2.130704052072711e-06
-7.127233465651121e-07
7.053286513249278e-07
2.1233093276206127e-06
-3.648069783828377e-06
-1.2194553777643805e-06
1.209164607360006e-06
3.6377789913596356e-06
-5.486425944843682e-06
-1.8334835571245713e-06
1.8193729363515834e-06
5.472315351543662e-06
-7.56690327647644e-06
-2.528545930949794e-06
2.5095606632844025e-06
7.547917821616696e-06
-9.693969801070326e-06
-3.239829735519585e-06
3.2138764678439922e-06
9.668017945697001e-06
-1.1509663439274483e-05
-3.847713350625227e-06
3.8137478147578463e-06
1.1475689770319092e-05
-1.2713920935757746e-05
-4.252192293338772e-06
4.208969509158013e-06
1.2670742221339904e-05
-1.3140895665319072e-05
-4.394638076050387e-06
4.351149387849146e-06
1.3097245770235838e-05
-1.2713920936397481e-05
-4.25219229357105e-06
4.208969509333341e-06
1.2670742221922973e-05
-1.1509663440471864e-05
-3.847713351061796e-06
3.813747815081871e-06
1.1475689771404293e-05
-9.693969802544325e-06
-3.239829736048781e-06
3.2138764682595225e-06
9.668017947055273e-06
-7.566903277892576e-06
-2.5285459314721233e-06
2.509560663655749e-06
7.547917822883336e-06
-5.486425946002089e-06
-1.8334835575291634e-06
1.8193729367007215e-06
5.472315352644988e-06
-3.648069784648198e-06
-1.219455378030429e-06
1.2091646076477145e-06
3.6377789922023246e-06
-2.1307040526125743e-06
-7.127233467471747e-07
7.05328651500675e-07
2.1233093281538885e-06
-9.838928772453055e-07
-3.296505551756811e-07
3.2469391245371625e-07
9.78936199638082e-07
-2.574028351665663e-07
-8.673582110197259e-08
8.412374294576923e-08
2.5479069389668744e-07
-2.047563373876763e-07
-6.907092915136596e-08
6.676997482280568e-08
2.0245532500200515e-07
-7.884447152152506e-07
-2.6431628860638015e-07
2.599011611771757e-07
7.840295577408237e-07
-1.7223143392985088e-06
-5.763644622672223e-07
5.696571045265337e-07
1.7156069359130875e-06
-2.9813875033675408e-06
-9.970240346823232e-07
9.873683230224462e-07
2.9717318246459614e-06
-4.551483698018023e-06
-1.5216992515113886e-06
1.5080597715753188e-06
4.537843917056203e-06
-6.42863005726238e-06
-2.149520848732416e-06
2.1294714236592494e-06
6.408581892727556e-06
-8.582664452691612e-06
-2.8698578930378534e-06
2.842557226103284e-06
8.555358194569005e-06
-1.0745884116031289e-05
-3.5960113133367373e-06
3.553166028643846e-06
1.070306657536597e-05
-1.226557411956818e-05
-4.10669303161335e-06
4.051592181424209e-06
1.2210338830788607e-05
-1.2820828884229536e-05
-4.299786321925809e-06
4.220277505661276e-06
1.274181199715628e-05
-1.226557412018311e-05
-4.106693031840544e-06
4.051592181584894e-06
1.2210338831335094e-05
-1.0745884117234872e-05
-3.59601131377184e-06
3.5531660289769383e-06
1.0703066576466837e-05
-8.582664454175988e-06
-2.8698578935871047e-06
2.842557226489318e-06
8.555358195891041e-06
-6.4286300587408905e-06
-2.149520849328216e-06
2.129471423945526e-06
6.408581893897503e-06
-4.551483699143849e-06
-1.5216992519017306e-06
1.5080597719205862e-06
4.537843918136947e-06
-2.9813875041446935e-06
-9.970240349438032e-07
9.87368323276652e-07
2.971731825413311e-06
-1.7223143397862457e-06
-5.763644624436704e-07
5.696571046613844e-07
1.7156069363604986e-06
-7.884447154430678e-07
-2.643162886885207e-07
2.5990116124068396e-07
7.840295579493128e-07
-2.0475633744599306e-07
-6.907092917282033e-08
6.67699748382597e-08
2.0245532505477279e-07
-1.414190790561467e-07
-4.775181974465858e-08
4.6024087504973065e-08
1.396913056807077e-07
-5.473282935794295e-07
-1.8357715891582562e-07
1.8023970363687098e-07
5.439908003997371e-07
-1.20262234020622e-06
-4.026185755315334e-07
3.974430025841615e-07
1.1974467898827337e-06
-2.096654021428723e-06
-7.014196646037729e-07
6.938502191881833e-07
2.0890843236919946e-06
-3.2331725290082908e-06
-1.0815619169221595e-06
1.0700568518304125e-06
3.2216683401720933e-06
-4.634227599449651e-06
-1.550254163260096e-06
1.5336827222807156e-06
4.617652002292696e-06
-6.362792612539488e-06
-2.1311606382761892e-06
2.1003977002741214e-06
6.332047147288906e-06
-8.503866826563378e-06
-2.8460198894706128e-06
2.811179222455897e-06
8.468950076006231e-06
-1.0661073446415484e-05
-3.5853673154300722e-06
3.489046969748061e-06
1.0565115161499163e-05
-1.1314656321522504e-05
-3.7910925864012725e-06
3.7322835187900386e-06
1.1254505236924162e-05
-1.0661073447174603e-05
-3.585367315697603e-06
3.489046969971816e-06
1.0565115162214232e-05
-8.503866827729273e-06
-2.8460198898897344e-06
2.811179222783627e-06
8.468950077078307e-06
-6.362792613941971e-06
-2.131160638839799e-06
2.1003977005487024e-06
6.332047148404667e-06
-4.634227600669554e-06
-1.550254163691862e-06
1.5336827226372922e-06
4.617652003434692e-06
-3.233172529933043e-06
-1.081561917267074e-06
1.0700568520649487e-06
3.2216683409883807e-06
-2.0966540220516208e-06
-7.014196648443496e-07
6.938502193299153e-07
2.0890843242137254e-06
-1.2026223405612668e-06
-4.02618575679322e-07
3.974430026435544e-07
1.1974467901506292e-06
-5.473282937160805e-07
-1.8357715896989915e-07
1.8023970366544776e-07
5.439908005107728e-07
-1.4141907908733211e-07
-4.7751819756044584e-08
4.602408751341588e-08
1.396913057088116e-07
-7.204195754018319e-08
-2.4341891619492854e-08
2.341386343627371e-08
7.111390081859156e-08
-2.7964058476788114e-07
-9.382821910235351e-08
9.201886970929079e-08
2.778312408731757e-07
-6.164836310375323e-07
-2.0644120729545433e-07
2.0363302296798958e-07
6.136753411048919e-07
-1.079136161272307e-06
-3.61158739009722e-07
3.568412292710052e-07
1.0748190062362671e-06
-1.6723560334841964e-06
-5.595235236008303e-07
5.533215367923896e-07
1.6661523172246094e-06
-2.4192189409937066e-06
-8.10372465923724e-07
7.984796008955811e-07
2.407333188210068e-06
-3.3620133994335248e-06
-1.1249719771915236e-06
1.1120134212715077e-06
3.3490220055546454e-06
-4.643074400785825e-06
-1.5681598502291583e-06
1.5069144527989357e-06
4.581966679154054e-06
-6.574675156522212e-06
-2.1920763200453207e-06
2.189367607920154e-06
6.571313728511536e-06
-8.777564811299097e-06
-3.095376098115633e-06
2.582693813767452e-06
8.26750027486348e-06
-6.574675157179989e-06
-2.1920763202654663e-06
2.1893676081374573e-06
6.571313729169473e-06
-4.643074401755486e-06
-1.5681598506009435e-06
1.506914453024524e-06
4.581966679978205e-06
-3.362013400236638e-06
-1.1249719775085875e-06
1.1120134214403682e-06
3.3490220062105724e-06
-2.419218941598797e-06
-8.103724661589726e-07
7.984796010296966e-07
2.40733318871262e-06
-1.6723560339142625e-06
-5.595235237930743e-07
5.533215368379437e-07
1.6661523175092226e-06
-1.0791361615200898e-06
-3.611587391488931e-07
3.5684122924030226e-07
1.0748190063148769e-06
-6.164836311198325e-07
-2.0644120734944495e-07
2.036330229423976e-07
6.136753411076158e-07
-2.7964058479660276e-07
-9.382821913295932e-08
9.201886967676672e-08
2.778312408385675e-07
-7.204195753826544e-08
-2.434189162212098e-08
2.3413863429107996e-08
7.111390080712871e-08
-1.405053769082393e-17
-4.198967312666181e-18
5.647676044360417e-18
1.5626699085657773e-17
-3.744781121402791e-17
-4.9265761106819265e-18
2.75984471901232e-17
6.012578672789926e-17
-7.68737368701533e-17
-1.5510867330120748e-17
4.587898210138498e-17
1.06723289435946e-16
-1.5139968301448605e-16
-5.733368197418655e-17
3.6575215189046935e-17
1.3160684420713046e-16
-1.4770515460485383e-16
-5.719433794295255e-17
3.338521135470966e-17
1.228875399876539e-16
-1.7725120040180273e-16
-1.0291090320137166e-16
-2.8712775785585476e-17
4.455647412441796e-17
-1.0757842754433426e-16
-6.964781348357688e-17
-3.180476368041889e-17
7.37257477290143e-18
2.1106241893923175e-17
3.6637563100537507e-17
5.257893492610025e-17
6.831013008418063e-17
-7.452303698577878e-17
-2.548319797638244e-17
2.3512485863362588e-17
7.472016440909085e-17
-1.3019561428425169e-16
-3.818184018289407e-17
5.4014863639361593e-17
1.4501204056993622e-16
-1.9576327467066002e-16
-6.080129550333456e-17
7.425562744986646e-17
2.0672741076840158e-16
-1.2891967613039118e-16
-5.58742041108298e-17
1.730432393831127e-17
9.082975168402238e-17
-4.446649320480499e-17
-6.832368716083006e-17
-9.233766223603715e-17
-1.153862162067698e-16
6.142748717671565e-17
-5.557023177932881e-17
-1.7232361210252627e-16
-2.8848777513178995e-16
2.1267380636015366e-17
-8.322634719810435e-17
-1.8783658378012535e-16
-2.9177913340658335e-16
1.0405262455258699e-16
1.4922602948252636e-18
-1.009304607613523e-16
-2.0389438293126616e-16
8.31840329289717e-17
3.134921877347369e-18
-7.694758721007058e-17
-1.5679058565069569e-16
5.566540213306858e-17
5.596449990016749e-18
-4.4440440725330296e-17
-9.449189692541633e-17
1.6366497052451383e-17
-2.0196971231686758e-18
-2.0416228660973628e-17
-3.8836155206477595e-17
7.204195751860031e-08
2.4341891613106504e-08
-2.3413863427457972e-08
-7.111390079468769e-08
2.7964058470122155e-07
9.382821909060797e-08
-9.20188696661421e-08
-2.7783124077512487e-07
6.164836309040249e-07
2.0644120726691525e-07
-2.0363302289157622e-07
-6.136753409241117e-07
1.0791361610833008e-06
3.611587389658907e-07
-3.568412291695872e-07
-1.0748190059891639e-06
1.6723560332061049e-06
5.595235234765828e-07
-5.533215367630651e-07
-1.6661523170416892e-06
2.419218940758147e-06
8.103724657760205e-07
-7.984796009552111e-07
-2.4073331881802862e-06
3.3620133993797598e-06
1.1249719771453264e-06
-1.1120134213100805e-06
-3.3490220055866547e-06
4.643074400692295e-06
1.5681598501883699e-06
-1.5069144527873703e-06
-4.581966679088518e-06
6.574675156351201e-06
2.1920763199930537e-06
-2.189367607853948e-06
-6.5713137283319665e-06
8.77756481100915e-06
3.095376098012968e-06
-2.582693813683413e-06
-8.267500274589078e-06
6.5746751568818545e-06
2.1920763201873766e-06
-2.189367607995714e-06
-6.571313728806712e-06
4.643074401570955e-06
1.568159850508099e-06
-1.5069144530258925e-06
-4.581966679885528e-06
3.3620134001446695e-06
1.1249719773625512e-06
-1.1120134216404026e-06
-3.3490220064641106e-06
2.4192189415948014e-06
8.103724660109392e-07
-7.98479601322029e-07
-2.407333189150299e-06
1.6723560339640467e-06
5.595235236726431e-07
-5.533215371285836e-07
-1.666152317969795e-06
1.0791361616521177e-06
3.611587391216759e-07
-3.568412294267211e-07
-1.074819006659622e-06
6.164836312600091e-07
2.0644120735563713e-07
-2.036330230701314e-07
-6.136753413700299e-07
2.7964058487314346e-07
9.382821912687687e-08
-9.201886976549287e-08
-2.778312410096506e-07
7.20419575597491e-08
2.4341891617944723e-08
-2.3413863458962142e-08
-7.111390086269287e-08
1.4141907904773915e-07
4.775181974305997e-08
-4.602408749975107e-08
-1.3969130566850532e-07
5.473282935429298e-07
1.835771589083489e-07
-1.802397036153067e-07
-5.439908003492604e-07
1.2026223401441454e-06
4.0261857552638164e-07
-3.9744300253247136e-07
-1.1974467897736307e-06
2.096654021358248e-06
7.014196645982077e-07
-6.938502191287265e-07
-2.08908432356667e-06
3.233172528881371e-06
1.0815619168618e-06
-1.0700568518240032e-06
-3.2216683401002145e-06
4.634227599365578e-06
1.550254163189743e-06
-1.5336827223373961e-06
-4.617652002333878e-06
6.36279261252082e-06
2.13116063823254e-06
-2.100397700342442e-06
-6.3320471473841546e-06
8.503866826524942e-06
2.84601988943815e-06
-2.8111792224822287e-06
-8.46895007602576e-06
1.0661073446331404e-05
3.585367315436276e-06
-3.4890469696515924e-06
-1.0565115161314625e-05
1.131465632138553e-05
3.7910925863913343e-06
-3.7322835186729e-06
-1.125450523667753e-05
1.0661073447240362e-05
3.585367315756984e-06
-3.4890469699185124e-06
-1.0565115162170076e-05
8.50386682781612e-06
2.846019889894959e-06
-2.811179222859891e-06
-8.468950077237912e-06
6.362792613869227e-06
2.1311606386786214e-06
-2.1003977007985754e-06
-6.332047148743553e-06
4.6342276005409785e-06
1.5502541635380125e-06
-1.5336827228162747e-06
-4.617652003636763e-06
3.233172529898877e-06
1.0815619171596104e-06
-1.070056852245817e-06
-3.2216683412431495e-06
2.0966540221116072e-06
7.014196648189979e-07
-6.938502194405857e-07
-2.0890843244101193e-06
1.2026223406207835e-06
4.0261857566871166e-07
-3.974430027243653e-07
-1.1974467903010265e-06
5.473282937422718e-07
1.8357715895594716e-07
-1.8023970371952552e-07
-5.439908006050062e-07
1.4141907909124138e-07
4.775181974738122e-08
-4.602408753466406e-08
-1.3969130574269005e-07
2.0475633738938628e-07
6.907092915342218e-08
-6.676997482041198e-08
-2.0245532499950513e-07
7.884447152287447e-07
2.643162886162968e-07
-2.5990116117081327e-07
-7.840295577377231e-07
1.722314339324015e-06
5.763644622864132e-07
-5.696571045136396e-07
-1.7156069359076623e-06
2.9813875033641475e-06
9.97024034679737e-07
-9.873683230241545e-07
-2.9717318246442373e-06
4.5514836979683365e-06
1.5216992514693815e-06
-1.5080597716098615e-06
-4.5378439170842255e-06
6.428630057197744e-06
2.149520848710679e-06
-2.1294714236378072e-06
-6.408581892660694e-06
8.58266445252489e-06
2.869857892933168e-06
-2.8425572261460625e-06
-8.555358194553074e-06
1.074588411601295e-05
3.5960113133210117e-06
-3.553166028656774e-06
-1.0703066575375118e-05
1.2265574119656006e-05
4.106693031692382e-06
-4.051592181353863e-06
-1.2210338830725623e-05
1.282082888438054e-05
4.299786322005653e-06
-4.2202775056525416e-06
-1.2741811997220018e-05
1.2265574120481325e-05
4.106693031962117e-06
-4.051592181639813e-06
-1.2210338831568905e-05
1.0745884117473074e-05
3.5960113138532085e-06
-3.553166029052109e-06
-1.0703066576695768e-05
8.582664454220262e-06
2.869857893561427e-06
-2.842557226584474e-06
-8.555358196056824e-06
6.428630058597555e-06
2.149520849163341e-06
-2.129471424132356e-06
-6.408581894106532e-06
4.551483699074261e-06
1.521699251823716e-06
-1.5080597720069158e-06
-4.537843918231125e-06
2.9813875041808953e-06
9.970240349421773e-07
-9.87368323315951e-07
-2.9717318254911554e-06
1.7223143398138725e-06
5.763644624408764e-07
-5.69657104694519e-07
-1.7156069364239204e-06
7.884447154416223e-07
2.6431628867033823e-07
-2.5990116127566393e-07
-7.840295580011004e-07
2.0475633743992942e-07
6.907092916256918e-08
-6.67699748526986e-08
-2.0245532507334806e-07
2.574028350990599e-07
8.673582108158959e-08
-8.412374291897136e-08
-2.5479069382255845e-07
9.838928770046092e-07
3.296505550972893e-07
-3.2469391236975453e-07
-9.789361993918935e-07
2.1307040521351446e-06
7.127233465920507e-07
-7.0532865133346e-07
-2.1233093276642925e-06
3.6480697838601933e-06
1.2194553777530756e-06
-1.209164607414451e-06
-3.6377789914578974e-06
5.486425944851833e-06
1.83348355710702e-06
-1.8193729363947512e-06
-5.4723153516115565e-06
7.566903276343533e-06
2.528545930885911e-06
-2.509560663279175e-06
-7.54791782154316e-06
9.693969800783352e-06
3.2398297353719036e-06
-3.2138764678527167e-06
-9.668017945566138e-06
1.1509663439095293e-05
3.847713350556983e-06
-3.813747814715339e-06
-1.1475689770166712e-05
1.2713920935865724e-05
4.252192293402453e-06
-4.208969509138607e-06
-1.2670742221366062e-05
1.3140895665636418e-05
4.394638076203223e-06
-4.351149387860532e-06
-1.3097245770411765e-05
1.2713920936622367e-05
4.252192293690999e-06
-4.208969509318171e-06
-1.2670742222011254e-05
1.1509663440519577e-05
3.847713351080182e-06
-3.813747815093263e-06
-1.1475689771446987e-05
9.693969802484573e-06
3.2398297360151676e-06
-3.213876468266974e-06
-9.668017947037495e-06
7.566903277809125e-06
2.5285459314005016e-06
-2.5095606637155537e-06
-7.547917822929353e-06
5.486425945959802e-06
1.8334835574831788e-06
-1.819372936750403e-06
-5.4723153526999185e-06
3.648069784631145e-06
1.219455378017454e-06
-1.2091646076566348e-06
-3.6377789922059406e-06
2.13070405260808e-06
7.127233467452975e-07
-7.053286514999165e-07
-2.1233093281506914e-06
9.838928772308712e-07
3.296505551664566e-07
-3.2469391245768185e-07
-9.789361996367695e-07
2.5740283515404583e-07
8.673582109424168e-08
-8.412374294871229e-08
-2.547906938948371e-07
2.932380721905391e-07
9.870715755338592e-08
-9.603793083568162e-08
-2.9056877502039946e-07
1.1100258973405115e-06
3.717081408000376e-07
-3.667088705279985e-07
-1.105026584207991e-06
2.3760922861607526e-06
7.944794046630291e-07
-7.871836965102009e-07
-2.3687965447135044e-06
4.008777154766545e-06
1.3395379576694673e-06
-1.3296582775350937e-06
-3.998897442808101e-06
5.9066834373035475e-06
1.973171399034198e-06
-1.9601770109521935e-06
-5.8936890595666255e-06
7.909597972292665e-06
2.6420754659275196e-06
-2.625150820785488e-06
-7.892673307307649e-06
9.781673425947388e-06
3.267637165121632e-06
-3.2460178853907286e-06
-9.760053944770337e-06
1.1288482258010728e-05
3.7716387020328264e-06
-3.744767326715709e-06
-1.126161319003606e-05
1.22623112958278e-05
4.0976192812691645e-06
-4.0666225413748075e-06
-1.2231300977491804e-05
1.2595269570918273e-05
4.209428141757226e-06
-4.175930614682061e-06
-1.2561821157256376e-05
1.2262311296625166e-05
4.097619281622511e-06
-4.066622541465056e-06
-1.2231300978027263e-05
1.1288482259245848e-05
3.771638702511587e-06
-3.7447673269930644e-06
-1.1261613191069936e-05
9.781673427351564e-06
3.267637165637912e-06
-3.246017885762208e-06
-9.760053946029772e-06
7.909597973588494e-06
2.6420754664004346e-06
-2.6251508211352535e-06
-7.892673308481996e-06
5.906683438314122e-06
1.9731713993955497e-06
-1.960177011240083e-06
-5.893689060502681e-06
4.00877715548124e-06
1.3395379579255292e-06
-1.3296582777376214e-06
-3.998897443469788e-06
2.376092286599024e-06
7.94479404811377e-07
-7.871836966517724e-07
-2.368796545144656e-06
1.1100258975590542e-06
3.717081408722787e-07
-3.6670887060207156e-07
-1.1050265844286117e-06
2.9323807224819346e-07
9.870715756859061e-08
-9.603793086296496e-08
-2.905687750899685e-07
3.050666485764302e-07
1.0259906062904241e-07
-1.00087262703886e-07
-3.0255479364308085e-07
1.1413270001061403e-06
3.820127897924992e-07
-3.773930845421967e-07
-1.1367072704185035e-06
2.4088989819431965e-06
8.051730724799635e-07
-7.98587392515228e-07
-2.4023132876325603e-06
3.9920954569697866e-06
1.3335656512832513e-06
-1.3249008166161066e-06
-3.983430632280935e-06
5.748895123396986e-06
1.9199302606981505e-06
-1.9088728703992482e-06
-5.737837733258634e-06
7.501278850175678e-06
2.50496313446358e-06
-2.4911102121667032e-06
-7.487425999263786e-06
9.065403483756348e-06
3.0273695704814615e-06
-3.01036670186572e-06
-9.048400669720941e-06
1.0289417549037185e-05
3.4363990664878703e-06
-3.4162913217350247e-06
-1.0269309236905606e-05
1.1063667820658036e-05
3.695293426507163e-06
-3.6727373532436976e-06
-1.1041115748403544e-05
1.1328616728738378e-05
3.783859585472144e-06
-3.760557413684731e-06
-1.130530016534949e-05
1.1063667821203147e-05
3.6952934267547547e-06
-3.672737353293494e-06
-1.1041115748751245e-05
1.0289417549913432e-05
3.4363990668602187e-06
-3.416291321866324e-06
-1.0269309237539922e-05
9.065403484713435e-06
3.027369570821498e-06
-3.010366702142967e-06
-9.048400670615452e-06
7.501278851151656e-06
2.5049631348082867e-06
-2.491110212453255e-06
-7.487426000181919e-06
5.748895124240313e-06
1.919930261010416e-06
-1.9088728706179966e-06
-5.7378377340083215e-06
3.9920954575818144e-06
1.3335656514998397e-06
-1.324900816795015e-06
-3.983430632855534e-06
2.4088989823406434e-06
8.051730726175288e-07
-7.985873926375722e-07
-2.4023132880144633e-06
1.1413270003086146e-06
3.8201278985693404e-07
-3.7739308461580125e-07
-1.1367072706302062e-06
3.050666486331358e-07
1.0259906064539142e-07
-1.0008726272793797e-07
-3.0255479370755255e-07
2.8569772208687156e-07
9.602347509203083e-08
-9.384440578369574e-08
-2.8351854341526886e-07
1.0551370682772776e-06
3.53028656145237e-07
-3.491284760562084e-07
-1.051236803919461e-06
2.1928688304345554e-06
7.327464543809418e-07
-7.27343241380619e-07
-2.187465531919262e-06
3.567648601453384e-06
1.1914729413557159e-06
-1.1845596788811926e-06
-3.560735253409137e-06
5.0349635313809345e-06
1.6810969147820885e-06
-1.6725311873785882e-06
-5.026397733811058e-06
6.447386254570923e-06
2.1524924770223852e-06
-2.142085414471972e-06
-6.436979094515535e-06
7.675324991770242e-06
2.562436311120044e-06
-2.5500819545456607e-06
-7.662970567840099e-06
8.618066947669489e-06
2.8772803645049933e-06
-2.863101779286151e-06
-8.603888430466004e-06
9.20850611670565e-06
3.074528801899665e-06
-3.0590263184022418e-06
-9.193002403902518e-06
9.409265870639245e-06
3.1416236370419512e-06
-3.1255885699565815e-06
-9.393234795354515e-06
9.208506116939781e-06
3.074528802009543e-06
-3.0590263184167637e-06
-9.193002404041221e-06
8.618066948147348e-06
2.877280364718795e-06
-2.8631017793364575e-06
-8.603888430780213e-06
7.675324992379601e-06
2.5624363113610956e-06
-2.5500819546727554e-06
-7.662970568335827e-06
6.447386255223197e-06
2.152492477252743e-06
-2.1420854146635953e-06
-6.436979095128348e-06
5.034963532026952e-06
1.6810969150172664e-06
-1.6725311875541305e-06
-5.0263977343977365e-06
3.567648601967983e-06
1.1914729415381458e-06
-1.1845596790309027e-06
-3.560735253891123e-06
2.192868830793902e-06
7.327464545074761e-07
-7.27343241486831e-07
-2.1874655322582855e-06
1.0551370684557165e-06
3.5302865620109576e-07
-3.491284761229688e-07
-1.0512368041088512e-06
2.8569772214005104e-07
9.602347510894747e-08
-9.384440580305717e-08
-2.8351854347086656e-07
2.295140307529302e-07
7.712520917815825e-08
-7.54252378089381e-08
-2.2781408466643633e-07
8.37249918438515e-07
2.800707511380189e-07
-2.77175748277347e-07
-8.343549979038512e-07
1.7153164183441306e-06
5.730736682817615e-07
-5.692095296585898e-07
-1.7114524024113425e-06
2.747002955899388e-06
9.17268717193418e-07
-9.124678185246185e-07
-2.742202220823345e-06
3.817709203854409e-06
1.274492240199456e-06
-1.2687043224874296e-06
-3.8119214811756697e-06
4.824264153186824e-06
1.6103583835091862e-06
-1.6035146181630823e-06
-4.817420629640424e-06
5.68329294296873e-06
1.8970580706018933e-06
-1.8891413086074441e-06
-5.675376438293703e-06
6.334492340641487e-06
2.1144467612734194e-06
-2.105565449788299e-06
-6.325611280437613e-06
6.739149392247421e-06
2.2495624069790395e-06
-2.239994192971896e-06
-6.729581797116864e-06
6.876194298441169e-06
2.2953249543051707e-06
-2.2855160920339176e-06
-6.866384614824203e-06
6.7391493923441215e-06
2.249562407034725e-06
-2.239994192957214e-06
-6.729581797143117e-06
6.33449234084028e-06
2.1144467613728e-06
-2.105565449788317e-06
-6.325611280537019e-06
5.683292943248197e-06
1.8970580707129467e-06
-1.8891413086649647e-06
-5.6753764385195355e-06
4.824264153554917e-06
1.6103583836471795e-06
-1.6035146182551287e-06
-4.817420629962614e-06
3.817709204264914e-06
1.2744922403438247e-06
-1.268704322609231e-06
-3.8119214815634956e-06
2.7470029562783073e-06
9.172687173225749e-07
-9.124678186452048e-07
-2.742202221193741e-06
1.7153164186228805e-06
5.730736683798574e-07
-5.692095297411429e-07
-1.7114524026745757e-06
8.372499185869341e-07
2.800707511873481e-07
-2.7717574832709943e-07
-8.343549980526546e-07
2.2951403079523673e-07
7.712520919082456e-08
-7.542523782595013e-08
-2.2781408471309853e-07
1.332840328417615e-07
4.4781406202337715e-08
-4.37845923975174e-08
-1.322869061373646e-07
4.829929698331162e-07
1.6148606502695734e-07
-1.5994757705988565e-07
-4.814541858570086e-07
9.793276826613688e-07
3.2703335468070366e-07
-3.250625957829435e-07
-9.773565747809241e-07
1.5500562279639922e-06
5.173657987494128e-07
-5.149867738601284e-07
-1.547676817023764e-06
2.1302056301087466e-06
7.108461697492833e-07
-7.080504114151171e-07
-2.1274094490488543e-06
2.665864528786484e-06
8.895080415213905e-07
-8.862806687750622e-07
-2.6626366930805128e-06
3.116565475283285e-06
1.0398565133257563e-06
-1.036204144916413e-06
-3.112912615895689e-06
3.454754867762273e-06
1.1526915755435034e-06
-1.148667209833985e-06
-3.450729988266136e-06
3.663502834733305e-06
1.222349370904185e-06
-1.2180667044299911e-06
-3.6592195462860875e-06
3.733998329798905e-06
1.2458759548954362e-06
-1.241497972090289e-06
-3.729620086201394e-06
3.6635028347536315e-06
1.2223493709228416e-06
-1.2180667044130202e-06
-3.6592195462708684e-06
3.4547548678042246e-06
1.1526915755687026e-06
-1.1486672098256154e-06
-3.450729988274453e-06
3.1165654753683096e-06
1.0398565133622731e-06
-1.036204144928407e-06
-3.112912615956221e-06
2.6658645289283983e-06
8.895080415748712e-07
-8.862806688100637e-07
-2.6626366932039183e-06
2.130205630295306e-06
7.108461698153772e-07
-7.080504114694546e-07
-2.1274094492237154e-06
1.5500562281559053e-06
5.173657988134662e-07
-5.149867739239073e-07
-1.5476768172153688e-06
9.793276828192872e-07
3.270333547341122e-07
-3.2506259583399337e-07
-9.773565749364843e-07
4.829929699241811e-07
1.6148606505766073e-07
-1.5994757708952188e-07
-4.814541859469806e-07
1.332840328690213e-07
4.478140621118159e-08
-4.3784592407093054e-08
-1.322869061653695e-07
SCALARS disp_y float
LOOKUP_TABLE default
0.0
0.0
0.0
0.0
0.0
0.0
0.0
0.0
0.0
0.0
0.0
0.0
0.0
0.0
0.0
0.0
0.0
0.0
0.0
0.0
0.0
0.0
0.0
0.0
0.0
0.0
0.0
0.0
0.0
0.0
0.0
0.0
0.0
0.0
0.0
0.0
0.0
0.0
0.0
0.0
0.0
0.0
0.0
0.0
0.0
0.0
0.0
0.0
0.0
0.0
0.0
0.0
0.0
0.0
0.0
0.0
0.0
0.0
0.0
0.0
0.0
0.0
0.0
0.0
0.0
0.0
0.0
0.0
0.0
0.0
0.0
0.0
0.0
0.0
0.0
0.0
0.0
0.0
0.0
0.0
0.0
0.0
0.0
0.0
0.0
0.0
0.0
0.0
0.0
0.0
0.0
0.0
0.0
0.0
0.0
0.0
0.0
0.0
0.0
0.0
0.0
0.0
0.0
0.0
0.0
0.0
0.0
0.0
0.0
0.0
0.0
0.0
0.0
0.0
0.0
0.0
0.0
0.0
0.0
0.0
0.0
0.0
0.0
0.0
0.0
0.0
0.0
0.0
0.0
0.0
0.0
0.0
0.0
0.0
0.0
0.0
0.0
0.0
0.0
0.0
0.0
0.0
0.0
0.0
0.0
0.0
0.0
0.0
0.0
0.0
0.0
0.0
0.0
0.0
0.0
0.0
0.0
0.0
0.0
0.0
0.0
0.0
0.0
0.0
0.0
0.0
0.0
0.0
0.0
0.0
0.0
0.0
0.0
0.0
0.0
0.0
-2.215961877711741e-07
-3.814176961592183e-07
-4.747908136858359e-07
-5.068776969674176e-07
-4.871262007816127e-07
-4.2749194448666e-07
-3.399750629798511e-07
-2.3476025626447073e-07
-1.1957488091647877e-07
-4.155351001962494e-17
1.1957488083613446e-07
2.3476025618254785e-07
3.3997506290427653e-07
4.274919444431026e-07
4.871262007827708e-07
5.068776970115322e-07
4.7479081375748644e-07
3.814176962348736e-07
2.2159618782266255e-07
-8.047199485429068e-07
-1.3942267175634816e-06
-1.7570996927299298e-06
-1.900366118859982e-06
-1.848046029340561e-06
-1.6378287783807108e-06
-1.3123061241101258e-06
-9.108822509105638e-07
-4.653488097492367e-07
-1.5474328446358565e-16
4.6534880944521136e-07
9.108822506096665e-07
1.312306123850302e-06
1.6378287782381414e-06
1.8480460293628009e-06
1.9003661190464058e-06
1.7570996930164501e-06
1.3942267178558503e-06
8.047199487424016e-07
-1.6322178740619345e-06
-2.857436792519716e-06
-3.6530898209304552e-06
-4.012520773599887e-06
-3.957554568806991e-06
-3.5484707164351256e-06
-2.8680490779375816e-06
-2.002452638779963e-06
-1.0264305251681512e-06
-3.420620909840225e-16
1.0264305244579147e-06
2.002452638116816e-06
2.868049077421731e-06
3.5484707161661964e-06
3.957554568898017e-06
4.012520774028624e-06
3.6530898215528796e-06
2.8574367931529613e-06
1.6322178744886595e-06
-2.583761586797349e-06
-4.5767287523103595e-06
-5.944254443268422e-06
-6.650814744888528e-06
-6.678145467472553e-06
-6.07666731204961e-06
-4.965664370210856e-06
-3.4917815368621518e-06
-1.7970462765782324e-06
-6.612169864682308e-16
1.7970462752916863e-06
3.4917815357413057e-06
4.965664369410471e-06
6.0766673116918534e-06
6.678145467692406e-06
6.650814745629535e-06
5.944254444312895e-06
4.57672875336725e-06
2.5837615875026423e-06
-3.550955632583351e-06
-6.3609852198713805e-06
-8.389547133676863e-06
-9.578344418705641e-06
-9.840686759310862e-06
-9.1396258168997e-06
-7.5813441563594344e-06
-5.384759441776359e-06
-2.785149247752834e-06
-1.113573867396568e-15
2.785149245654968e-06
5.38475944010505e-06
7.5813441552996785e-06
9.139625816598379e-06
9.840686759802835e-06
9.578344419806718e-06
8.38954713519087e-06
6.360985221369071e-06
3.5509556335807676e-06
-4.44392673387085e-06
-8.038265588298536e-06
-1.0743229467272705e-05
-1.2498320799219621e-05
-1.3178009603942067e-05
-1.2606012645728634e-05
-1.0708091115869893e-05
-7.718306704866573e-06
-4.02805540655122e-06
-1.6577027700829736e-15
4.0280554034917455e-06
7.718306702558883e-06
1.0708091114583565e-05
1.2606012645657094e-05
1.3178009604845468e-05
1.249832080077754e-05
1.0743229469247125e-05
8.038265590204977e-06
4.443926735134501e-06
-5.195222118458715e-06
-9.469631229014207e-06
-1.278932699387967e-05
-1.5104329286349045e-05
-1.6296853623393228e-05
-1.6149412698203774e-05
-1.4296640361910638e-05
-1.0594661702890048e-05
-5.599191158717913e-06
-2.1520388806164214e-15
5.599191154617712e-06
1.0594661699761128e-05
1.429664036049803e-05
1.614941269836182e-05
1.6296853624694843e-05
1.5104329288417378e-05
1.278932699631473e-05
9.469631231300073e-06
5.195222119940608e-06
-5.758934730102205e-06
-1.0554634620786834e-05
-1.4360069294011511e-05
-1.7143418473339648e-05
-1.8806641382946847e-05
-1.9173071765100716e-05
-1.7897871211502383e-05
-1.4163582812900032e-05
-7.717643896729834e-06
-2.7400045989445533e-15
7.717643891585259e-06
1.416358280916526e-05
1.7897871209976355e-05
1.917307176551342e-05
1.880664138471511e-05
1.7143418475924887e-05
1.4360069296866595e-05
1.0554634623366667e-05
5.758934731727253e-06
-6.106871576018096e-06
-1.1228824327899917e-05
-1.5343751208887764e-05
-1.8433075922999053e-05
-2.0428340483330432e-05
-2.1177394816228553e-05
-2.042610678264959e-05
-1.774101917826948e-05
-1.0960086237344353e-05
-3.459051441604378e-15
1.0960086231294873e-05
1.7741019174293197e-05
2.042610678113486e-05
2.1177394816998692e-05
2.0428340485606792e-05
1.843307592594242e-05
1.5343751212027894e-05
1.1228824330598984e-05
6.1068715776825e-06
-6.224369615254007e-06
-1.1457143721551569e-05
-1.5678204927718137e-05
-1.887437798467767e-05
-2.098261026599852e-05
-2.188839846596809e-05
-2.1345307479729107e-05
-1.8837426535840498e-05
-1.4474745448269331e-05
-3.806410210898531e-15
1.4474745441693466e-05
1.8837426532040782e-05
2.1345307478712613e-05
2.1888398466962582e-05
2.0982610268462338e-05
1.887437798775637e-05
1.567820493080002e-05
1.1457143724186182e-05
6.224369616848504e-06
-6.106871576102853e-06
-1.1228824328018956e-05
-1.534375120903772e-05
-1.8433075923066805e-05
-2.0428340483265038e-05
-2.11773948160589e-05
-2.0426106782495773e-05
-1.7741019178332454e-05
-1.0960086237498034e-05
-3.656336822939226e-15
1.0960086231403332e-05
1.774101917480497e-05
2.042610678169293e-05
2.117739481722663e-05
2.04283404855663e-05
1.8433075925907872e-05
1.5343751211883536e-05
1.1228824330440994e-05
6.106871577541346e-06
-5.758934730239367e-06
-1.055463462100978e-05
-1.4360069294235141e-05
-1.7143418473461533e-05
-1.8806641382775598e-05
-1.917307176464492e-05
-1.7897871211338177e-05
-1.416358281315167e-05
-7.71764389704173e-06
-2.9916274908443743e-15
7.717643891924167e-06
1.4163582809978681e-05
1.7897871210592304e-05
1.9173071765851858e-05
1.88066413848229e-05
1.714341847586506e-05
1.4360069296676866e-05
1.0554634623086564e-05
5.758934731500572e-06
-5.1952221186149694e-06
-9.469631229273904e-06
-1.2789326994139654e-05
-1.5104329286479195e-05
-1.629685362322063e-05
-1.6149412697773597e-05
-1.4296640361670211e-05
-1.0594661703174644e-05
-5.599191159215102e-06
-2.096320615874897e-15
5.5991911552692674e-06
1.0594661700489619e-05
1.4296640360940718e-05
1.614941269860342e-05
1.6296853624855126e-05
1.510432928838333e-05
1.2789326996081502e-05
9.469631230984865e-06
5.1952221196871344e-06
-4.443926734007267e-06
-8.038265588520982e-06
-1.074322946752328e-05
-1.2498320799373188e-05
-1.3178009603890923e-05
-1.260601264546199e-05
-1.0708091115630167e-05
-7.718306705016312e-06
-4.0280554067843015e-06
-1.483335108660045e-15
4.028055404050069e-06
7.71830670306314e-06
1.0708091114895119e-05
1.2606012645843244e-05
1.317800960498962e-05
1.2498320800774989e-05
1.0743229468996507e-05
8.038265589868933e-06
4.443926734868469e-06
-3.5509556326819432e-06
-6.360985220052071e-06
-8.389547133878463e-06
-9.57834441881928e-06
-9.840686759396327e-06
-9.139625816913286e-06
-7.581344156282374e-06
-5.384759441695083e-06
-2.78514924759282e-06
-8.842264601011056e-16
2.785149245970447e-06
5.384759440448219e-06
7.581344155552581e-06
9.139625816877681e-06
9.840686759956416e-06
9.578344419726226e-06
8.389547134942532e-06
6.360985221056063e-06
3.5509556333509836e-06
-2.583761586860743e-06
-4.576728752427298e-06
-5.944254443406345e-06
-6.650814745034918e-06
-6.678145467647709e-06
-6.0766673121932275e-06
-4.9656643702578045e-06
-3.49178153673251e-06
-1.7970462763265158e-06
-3.873424376292941e-16
1.7970462755094784e-06
3.4917815359507824e-06
4.965664369655324e-06
6.0766673118850955e-06
6.67814546778895e-06
6.6508147455492114e-06
5.944254444116234e-06
4.576728753151089e-06
2.583761587342121e-06
-1.6322178740894709e-06
-2.8574367925797576e-06
-3.653089821020602e-06
-4.012520773746977e-06
-3.957554569024874e-06
-3.5484707166113563e-06
-2.868049077984762e-06
-2.0024526387258613e-06
-1.0264305250166841e-06
-1.3254152421997343e-16
1.0264305246775794e-06
2.0024526383052307e-06
2.8680490775806076e-06
3.5484707162944838e-06
3.957554568945801e-06
4.012520773982254e-06
3.653089821450227e-06
2.8574367930275755e-06
1.6322178743951058e-06
-8.047199485474263e-07
-1.3942267175827273e-06
-1.7570996927831726e-06
-1.900366118960815e-06
-1.8480460294795737e-06
-1.6378287784935293e-06
-1.3123061241536049e-06
-9.108822509136893e-07
-4.653488097025701e-07
-4.036246215105485e-17
4.6534880959553064e-07
9.108822507430748e-07
1.3123061239484973e-06
1.6378287783062014e-06
1.848046029384191e-06
1.9003661190222148e-06
1.757099692972048e-06
1.3942267178063008e-06
8.047199487039304e-07
-2.215961877696817e-07
-3.814176961608958e-07
-4.74790813701842e-07
-5.068776970035072e-07
-4.87126200825707e-07
-4.2749194452366757e-07
-3.399750630014461e-07
-2.3476025627707855e-07
-1.1957488091844455e-07
-1.1022870614585471e-17
1.1957488088753623e-07
2.347602562322111e-07
3.399750629467256e-07
4.274919444653222e-07
4.871262007875031e-07
5.068776970062576e-07
4.747908137461566e-07
3.814176962238301e-07
2.2159618781510935e-07
2.2059843324315244e-07
3.797178023210768e-07
4.7261141503437375e-07
5.043657284489368e-07
4.844567623522695e-07
4.2487967694128804e-07
3.376739344048572e-07
2.3303240033489934e-07
1.1864676747398579e-07
2.418691992972814e-17
-1.1864676742802557e-07
-2.3303240028033584e-07
-3.376739343474338e-07
-4.248796769106872e-07
-4.844567623643156e-07
-5.043657285024139e-07
-4.7261141511363693e-07
-3.797178024020504e-07
-2.2059843329770025e-07
8.031805709705312e-07
1.3913319636522197e-06
1.7531992586282027e-06
1.89574634098935e-06
1.8430466302119248e-06
1.63287203121283e-06
1.307890906398144e-06
9.075446823790108e-07
4.6353947587106283e-07
1.2019195822546403e-16
-4.6353947562977046e-07
-9.075446821275334e-07
-1.3078909061779426e-06
-1.6328720311047614e-06
-1.8430466302618284e-06
-1.8957463411969745e-06
-1.7531992589324108e-06
-1.3913319639583178e-06
-8.031805711748519e-07
1.63024606607949e-06
2.853573024336531e-06
3.6476863498179384e-06
4.005935051295938e-06
3.950258760468605e-06
3.541075933630412e-06
2.861341583156862e-06
1.9972771335005582e-06
1.0236220250699715e-06
2.8549251562190004e-16
-1.0236220244645818e-06
-1.9972771329232303e-06
-2.8613415827187374e-06
-3.5410759334139066e-06
-3.95025876060491e-06
-4.0059350517562135e-06
-3.647686350463346e-06
-2.853573024985791e-06
-1.6302460665166898e-06
2.581381401343888e-06
4.571928347237253e-06
5.937340922144992e-06
6.642149941155149e-06
6.668265691385853e-06
6.066376475140289e-06
4.956008759176303e-06
3.4842113304165745e-06
1.792729834847867e-06
5.881810057886197e-16
-1.7927298337029562e-06
-3.484211329431093e-06
-4.956008758484892e-06
-6.066376474878517e-06
-6.668265691681862e-06
-6.642149941947386e-06
-5.937340923225282e-06
-4.57192834832392e-06
-2.581381402066024e-06
3.5481586034216437e-06
6.3551978902725866e-06
8.380981193802671e-06
9.56728702987655e-06
9.827692400713322e-06
9.12551528311635e-06
7.567703759991237e-06
5.3732570351350806e-06
2.778942031987854e-06
1.0110739420185556e-15
-2.7789420300573255e-06
-5.37325703363372e-06
-7.567703759073085e-06
-9.125515282960035e-06
-9.82769240130596e-06
-9.567287031060615e-06
-8.380981195395608e-06
-6.355197891823394e-06
-3.5481586044436436e-06
4.440697969203293e-06
8.031422551849835e-06
1.073282211021416e-05
1.2484468090210149e-05
1.3161084906566995e-05
1.2587026791009756e-05
1.0688045541986716e-05
7.701722641681691e-06
4.016184101590602e-06
1.5738628685330192e-15
-4.0161840987008345e-06
-7.701722639545542e-06
-1.0688045540922474e-05
-1.2587026791090271e-05
-1.3161084907622008e-05
-1.2484468091898528e-05
-1.0732822112287971e-05
-8.031422553826386e-06
-4.440697970496507e-06
5.1915682735431344e-06
9.461715244116238e-06
1.2776972428111868e-05
1.50873265976348e-05
1.6275233693420337e-05
1.6123463794025037e-05
1.4269322602415954e-05
1.0563951865030849e-05
5.586133090417695e-06
2.0150786210523135e-15
-5.586133086577867e-06
-1.0563951862168003e-05
-1.4269322601269603e-05
-1.6123463794463617e-05
-1.6275233694942855e-05
-1.5087326599887386e-05
-1.2776972430657136e-05
-9.461715246456281e-06
-5.191568275055002e-06
5.754908822585912e-06
1.0545754057425316e-05
1.4345890939024549e-05
1.7123308945571398e-05
1.8779777151432374e-05
1.9139081263152522e-05
1.785511048476242e-05
1.4128511207636482e-05
7.65681536509904e-06
2.5501918147420947e-15
-7.65681536028158e-06
-1.4128511204189164e-05
-1.7855110483534465e-05
-1.9139081263923753e-05
-1.877977715356295e-05
-1.7123308948374847e-05
-1.4345890942029736e-05
-1.0545754060082868e-05
-5.7549088242399615e-06
6.10258702346587e-06
1.1219258026500372e-05
1.5328244889142103e-05
1.8410532246015394e-05
2.0397302004268163e-05
2.1134306643262104e-05
2.0370597391848767e-05
1.764579476659968e-05
1.0955406542806858e-05
3.25307454837652e-15
-1.0955406537128869e-05
-1.7645794763049793e-05
-2.0370597390785545e-05
-2.1134306644443783e-05
-2.039730200684381e-05
-1.841053224918321e-05
-1.5328244892416614e-05
-1.1219258029298209e-05
-6.102587025168916e-06
6.219990904886459e-06
1.1447332218668329e-05
1.566218233802496e-05
1.8851031299703422e-05
2.0949263435017814e-05
2.184441838916943e-05
2.1267290447238737e-05
1.8774564261133952e-05
1.3969946664265e-05
3.6746317779250986e-15
-1.3969946657991864e-05
-1.877456425770007e-05
-2.1267290446635403e-05
-2.1844418390486867e-05
-2.0949263437740103e-05
-1.885103130301353e-05
-1.5662182341303305e-05
-1.1447332221413524e-05
-6.219990906526578e-06
6.102587023549832e-06
1.1219258026629203e-05
1.532824488931228e-05
1.8410532246104003e-05
2.0397302004208982e-05
2.1134306643092552e-05
2.0370597391704318e-05
1.7645794766704933e-05
1.095540654304139e-05
3.5436690609897195e-15
-1.0955406537142564e-05
-1.7645794763410694e-05
-2.0370597391166906e-05
-2.1134306644557848e-05
-2.0397302006764413e-05
-1.841053224914706e-05
-1.5328244892297372e-05
-1.1219258029146576e-05
-6.102587025034668e-06
5.754908822726621e-06
1.0545754057657112e-05
1.4345890939267045e-05
1.712330894572798e-05
1.8779777151347718e-05
1.9139081262760814e-05
1.7855110484652678e-05
1.4128511208004187e-05
7.656815365508358e-06
2.8576805925793742e-15
-7.656815360503374e-06
-1.4128511204829908e-05
-1.785511048402213e-05
-1.913908126406563e-05
-1.8779777153488123e-05
-1.7123308948279274e-05
-1.4345890941826365e-05
-1.0545754059804804e-05
-5.7549088240190485e-06
5.191568273697636e-06
9.461715244373509e-06
1.2776972428371538e-05
1.5087326597783067e-05
1.6275233693285324e-05
1.6123463793624218e-05
1.4269322602226295e-05
1.0563951865404403e-05
5.586133090988229e-06
2.0869291982510535e-15
-5.586133087097231e-06
-1.0563951862724788e-05
-1.4269322601515371e-05
-1.612346379453253e-05
-1.627523369502609e-05
-1.5087326599789254e-05
-1.2776972430376512e-05
-9.461715246129516e-06
-5.191568274791837e-06
4.440697969338649e-06
8.031422552067209e-06
1.073282211046375e-05
1.2484468090374932e-05
1.316108490654903e-05
1.2587026790787746e-05
1.0688045541787557e-05
7.701722641814313e-06
4.016184101817017e-06
1.4500711558073963e-15
-4.016184099152915e-06
-7.701722639947188e-06
-1.0688045541090498e-05
-1.2587026791200153e-05
-1.3161084907705404e-05
-1.2484468091831427e-05
-1.0732822111997085e-05
-8.031422553457224e-06
-4.440697970224773e-06
3.5481586035227003e-06
6.35519789045824e-06
8.380981194019322e-06
9.567287030010611e-06
9.82769240082565e-06
9.125515283159691e-06
7.567703759902265e-06
5.37325703503109e-06
2.778942031852299e-06
8.7266077610642645e-16
-2.7789420302919832e-06
-5.373257033880273e-06
-7.567703759255824e-06
-9.125515283143895e-06
-9.827692401425972e-06
-9.567287030978968e-06
-8.380981195133953e-06
-6.355197891501664e-06
-3.5481586042098443e-06
2.5813814014090175e-06
4.571928347360991e-06
5.937340922294283e-06
6.642149941314569e-06
6.66826569156849e-06
6.0663764752744475e-06
4.956008759205646e-06
3.4842113303045734e-06
1.7927298346216945e-06
3.2800820755187037e-16
-1.7927298338909253e-06
-3.484211329581071e-06
-4.956008758679068e-06
-6.066376475065769e-06
-6.668265691784838e-06
-6.642149941870586e-06
-5.93734092303593e-06
-4.571928348099953e-06
-2.5813814018951386e-06
1.630246066109691e-06
2.853573024402135e-06
3.6476863499169044e-06
4.005935051447154e-06
3.950258760670011e-06
3.5410759337820165e-06
2.8613415831948224e-06
1.997277133420923e-06
1.0236220248930252e-06
7.897718454576942e-17
-1.0236220246633004e-06
-1.9972771330890726e-06
-2.8613415828554307e-06
-3.541075933534987e-06
-3.9502587606365965e-06
-4.005935051703982e-06
-3.647686350358334e-06
-2.8535730248599583e-06
-1.630246066421421e-06
8.031805709776934e-07
1.3913319636779776e-06
1.7531992586895459e-06
1.8957463410946286e-06
1.8430466303439715e-06
1.6328720313096676e-06
1.3078909064156633e-06
9.075446823505893e-07
4.6353947579405975e-07
-1.2684775457750395e-17
-4.6353947577490183e-07
-9.075446822510904e-07
-1.3078909062526871e-06
-1.63287203114796e-06
-1.8430466302708059e-06
-1.8957463411664477e-06
-1.7531992588818859e-06
-1.3913319639012904e-06
-8.031805711351901e-07
2.2059843324369668e-07
3.7971780232692797e-07
4.726114150545865e-07
5.043657284870563e-07
4.844567623942479e-07
4.2487967696766115e-07
3.3767393440982017e-07
2.3303240032775317e-07
1.1864676745367723e-07
-2.1618504275416287e-17
-1.1864676747862092e-07
-2.3303240031574764e-07
-3.376739343727792e-07
-4.24879676920825e-07
-4.844567623616779e-07
-5.043657284921527e-07
-4.72611415098096e-07
-3.797178023882327e-07
-2.2059843328836698e-07
0.0
0.0
0.0
0.0
0.0
0.0
0.0
0.0
0.0
0.0
0.0
0.0
0.0
0.0
0.0
0.0
0.0
0.0
0.0
0.0
0.0
0.0
0.0
0.0
0.0
0.0
0.0
0.0
0.0
0.0
0.0
0.0
0.0
0.0
0.0
0.0
0.0
0.0
0.0
0.0
0.0
0.0
0.0
0.0
0.0
0.0
0.0
0.0
0.0
0.0
0.0
0.0
0.0
0.0
0.0
0.0
0.0
0.0
0.0
0.0
0.0
0.0
0.0
0.0
0.0
0.0
0.0
0.0
0.0
0.0
0.0
0.0
0.0
0.0
0.0
0.0
0.0
0.0
0.0
0.0
0.0
0.0
0.0
0.0
0.0
0.0
0.0
0.0
0.0
0.0
0.0
0.0
0.0
0.0
0.0
0.0
0.0
0.0
0.0
0.0
0.0
0.0
0.0
0.0
0.0
0.0
0.0
0.0
0.0
0.0
0.0
0.0
0.0
0.0
0.0
0.0
0.0
0.0
0.0
0.0
0.0
0.0
0.0
0.0
0.0
0.0
0.0
0.0
0.0
0.0
0.0
0.0
0.0
0.0
0.0
0.0
0.0
0.0
0.0
0.0
0.0
0.0
0.0
0.0
0.0
0.0
0.0
0.0
0.0
0.0
0.0
0.0
0.0
0.0
0.0
0.0
0.0
0.0
0.0
0.0
0.0
0.0
0.0
0.0
0.0
0.0
0.0
0.0
0.0
0.0
0.0
0.0
0.0
0.0
0.0
0.0
0.0
0.0
0.0
0.0
0.0
0.0
0.0
0.0
0.0
0.0
0.0
0.0
0.0
0.0
0.0
0.0
0.0
0.0
0.0
0.0
0.0
0.0
0.0
0.0
0.0
0.0
0.0
0.0
0.0
0.0
0.0
0.0
0.0
0.0
0.0
0.0
0.0
0.0
0.0
0.0
0.0
0.0
0.0
0.0
0.0
0.0
0.0
0.0
0.0
0.0
0.0
0.0
0.0
0.0
0.0
0.0
0.0
0.0
0.0
0.0
0.0
0.0
0.0
0.0
0.0
0.0
0.0
0.0
0.0
0.0
0.0
0.0
0.0
0.0
0.0
0.0
0.0
0.0
0.0
0.0
0.0
0.0
0.0
0.0
0.0
0.0
0.0
0.0
0.0
0.0
0.0
0.0
0.0
0.0
0.0
0.0
0.0
0.0
0.0
0.0
0.0
0.0
0.0
0.0
0.0
0.0
0.0
0.0
0.0
0.0
0.0
0.0
0.0
0.0
0.0
0.0
0.0
0.0
0.0
0.0
0.0
0.0
0.0
0.0
0.0
0.0
0.0
0.0
-1.3328403284479554e-07
-4.478140620394849e-08
4.37845923973255e-08
1.3228690613860916e-07
-2.295140307663473e-07
-7.712520918319323e-08
7.54252378122901e-08
2.2781408467816747e-07
-2.8569772211893874e-07
-9.602347510393754e-08
9.384440579195878e-08
2.8351854344369036e-07
-3.050666486278689e-07
-1.0259906064710842e-07
1.0008726271922306e-07
3.025547936917975e-07
-2.932380722599024e-07
-9.870715757722329e-08
9.603793085741156e-08
2.905687750875196e-07
-2.57402835180312e-07
-8.673582110721688e-08
8.41237429490455e-08
2.547906939084967e-07
-2.047563374766804e-07
-6.907092918228955e-08
6.676997485001706e-08
2.0245532508779402e-07
-1.4141907912353192e-07
-4.775181976959347e-08
4.602408752253159e-08
1.3969130574071424e-07
-7.204195757589743e-08
-2.4341891635897474e-08
2.3413863439215587e-08
7.111390084104492e-08
-2.8454999599544017e-17
-1.5305563957979486e-17
-2.150569689428451e-18
1.1088563359283515e-17
7.2041957520782e-08
2.4341891606115322e-08
-2.3413863443627137e-08
-7.111390082031506e-08
1.4141907906884602e-07
4.7751819742253895e-08
-4.6024087522497985e-08
-1.3969130571339044e-07
2.047563374276474e-07
6.907092915986237e-08
-6.676997484582019e-08
-2.0245532505691512e-07
2.574028351515631e-07
8.673582109332089e-08
-8.412374294806598e-08
-2.547906938926983e-07
2.9323807225841174e-07
9.870715757306857e-08
-9.603793086422311e-08
-2.905687750969165e-07
3.050666486525113e-07
1.025990606522187e-07
-1.000872627336693e-07
-3.025547937258036e-07
2.8569772216047025e-07
9.602347511525621e-08
-9.38444058108787e-08
-2.835185434928361e-07
2.2951403081074346e-07
7.712520919623171e-08
-7.542523783064121e-08
-2.2781408472788113e-07
1.3328403287510246e-07
4.47814062130337e-08
-4.378459240947598e-08
-1.3228690617197384e-07
-4.829929698232957e-07
-1.6148606502432728e-07
1.5994757705533902e-07
4.814541858452504e-07
-8.372499184566287e-07
-2.800707511455252e-07
2.771757482804329e-07
8.343549979175035e-07
-1.055137068352841e-06
-3.5302865617161097e-07
3.4912847607903154e-07
1.0512368039915414e-06
-1.141327000265684e-06
-3.8201278984760736e-07
3.773930845915196e-07
1.1367072705724382e-06
-1.110025897578312e-06
-3.7170814088211024e-07
3.667088706016158e-07
1.105026584437399e-06
-9.838928772945404e-07
-3.2965055519476135e-07
3.246939124647496e-07
9.789361996790729e-07
-7.884447155456474e-07
-2.6431628871853615e-07
2.5990116128324784e-07
7.840295580645042e-07
-5.473282938343297e-07
-1.8357715900392846e-07
1.8023970371563136e-07
5.43990800644896e-07
-2.7964058492104804e-07
-9.382821916558034e-08
9.201886973601706e-08
2.7783124098974354e-07
-9.975005143082968e-17
-4.473382185589394e-17
1.0315834875776554e-17
6.51961259501635e-17
2.796405847259401e-07
9.382821907954188e-08
-9.20188697129778e-08
-2.778312408573599e-07
5.473282936438955e-07
1.8357715892399507e-07
-1.8023970368499908e-07
-5.439908005038691e-07
7.884447153818256e-07
2.6431628865067653e-07
-2.5990116125516425e-07
-7.840295579402917e-07
9.838928772020998e-07
3.296505551524286e-07
-3.246939124569883e-07
-9.789361996211485e-07
1.1100258975861968e-06
3.7170814087561296e-07
-3.667088706225496e-07
-1.1050265844729587e-06
1.1413270003733036e-06
3.820127898764024e-07
-3.7739308464155094e-07
-1.1367072707012524e-06
1.0551370685211803e-06
3.530286562217854e-07
-3.4912847614702007e-07
-1.0512368041775774e-06
8.372499186293416e-07
2.8007075119853125e-07
-2.7717574834715966e-07
-8.343549981039536e-07
4.829929699419695e-07
1.614860650622713e-07
-1.599475770980873e-07
-4.81454185968739e-07
-9.79327682597804e-07
-3.27033354661705e-07
3.250625957573955e-07
9.773565747108237e-07
-1.7153164183165512e-06
-5.73073668277498e-07
5.69209529639535e-07
1.711452402368954e-06
-2.1928688305297433e-06
-7.327464544202265e-07
7.27343241397212e-07
2.187465531991797e-06
-2.408898982203867e-06
-8.051730725757293e-07
7.9858739258436e-07
2.4023132878661093e-06
-2.3760922865966074e-06
-7.944794048115647e-07
7.87183696648998e-07
2.3687965451395044e-06
-2.130704052712577e-06
-7.127233467821802e-07
7.053286515306414e-07
2.1233093282490366e-06
-1.7223143399814105e-06
-5.763644625053688e-07
5.696571047331027e-07
1.7156069365647799e-06
-1.2026223407961462e-06
-4.0261857574596287e-07
3.974430027452637e-07
1.1974467904205132e-06
-6.164836314051932e-07
-2.0644120743753127e-07
2.036330230515226e-07
6.136753414144187e-07
-2.1658048389061936e-16
-9.096099532354585e-17
3.4683870434809466e-17
1.6001849977996703e-16
6.164836309580203e-07
2.0644120725339078e-07
-2.0363302297261988e-07
-6.136753410721197e-07
1.2026223403809976e-06
4.026185755788309e-07
-3.974430026643678e-07
-1.1974467900911855e-06
1.7223143396565713e-06
5.763644623715172e-07
-5.696571046759272e-07
-1.7156069363176745e-06
2.1307040525408425e-06
7.127233467074969e-07
-7.053286515082855e-07
-2.1233093281297e-06
2.37609228664212e-06
7.944794048115727e-07
-7.871836966944818e-07
-2.3687965452303245e-06
2.4088989824548248e-06
8.051730726489432e-07
-7.985873926888566e-07
-2.4023132881485787e-06
2.192868830898592e-06
7.327464545355598e-07
-7.273432415353772e-07
-2.187465532383617e-06
1.7153164186932822e-06
5.73073668397725e-07
-5.692095297757963e-07
-1.7114524027616996e-06
9.793276828515766e-07
3.270333547427704e-07
-3.250625958489639e-07
-9.773565749750797e-07
-1.5500562277801463e-06
-5.173657986881964e-07
5.149867737988286e-07
1.5476768168397622e-06
-2.7470029557392047e-06
-9.172687171454054e-07
9.124678184604799e-07
2.7422022206471596e-06
-3.567648601483095e-06
-1.1914729413779657e-06
1.1845596788664193e-06
3.560735253401782e-06
-3.992095457289122e-06
-1.3335656514056136e-06
1.3249008166906978e-06
3.983430632553007e-06
-4.008777155400587e-06
-1.3395379578992474e-06
1.3296582777095134e-06
3.9988974433875905e-06
-3.648069784773711e-06
-1.2194553780745163e-06
1.2091646076850765e-06
3.637778992320138e-06
-2.9813875044442048e-06
-9.970240350464117e-07
9.873683233708383e-07
2.9717318257051096e-06
-2.0966540224353576e-06
-7.014196649611135e-07
6.938502194800235e-07
2.089084324631072e-06
-1.0791361619543092e-06
-3.6115873927019935e-07
3.5684122943206496e-07
1.074819006819717e-06
-4.1128761039986576e-16
-1.6131836819121595e-16
8.868317362016299e-17
3.382837833096862e-16
1.0791361611540426e-06
3.6115873895632144e-07
-3.5684122925954405e-07
-1.0748190061611387e-06
2.0966540217358965e-06
7.014196646829214e-07
-6.938502193369653e-07
-2.0890843240669786e-06
2.981387503941986e-06
9.97024034842293e-07
-9.873683232769752e-07
-2.971731825311799e-06
3.6480697845400906e-06
1.2194553779647989e-06
-1.2091646076709132e-06
-3.637778992182525e-06
4.008777155517311e-06
1.339537957912741e-06
-1.329658277799284e-06
-3.998897443580448e-06
3.992095457723324e-06
1.3335656515331516e-06
-1.324900816869793e-06
-3.983430633038461e-06
3.567648602102524e-06
1.191472941572523e-06
-1.1845596790966583e-06
-3.560735254057016e-06
2.747002956367299e-06
9.172687173448117e-07
-9.124678186897204e-07
-2.7422022213050374e-06
1.5500562281996787e-06
5.173657988223892e-07
-5.149867739498383e-07
-1.5476768172761295e-06
-2.1302056297560476e-06
-7.10846169635852e-07
7.080504112894464e-07
2.127409448684029e-06
-3.817709203464742e-06
-1.2744922400780787e-06
1.2687043223405712e-06
3.811921480760311e-06
-5.0349635312362485e-06
-1.6810969147540568e-06
1.6725311872899477e-06
5.0263977336067085e-06
-5.748895123689941e-06
-1.9199302608208966e-06
1.9088728704466876e-06
5.73783773347578e-06
-5.906683438063278e-06
-1.9731713993162716e-06
1.9601770111476806e-06
5.893689060238331e-06
-5.4864259460520176e-06
-1.8334835575333333e-06
1.8193729367422854e-06
5.4723153527339844e-06
-4.551483699493078e-06
-1.5216992520008902e-06
1.5080597720714167e-06
4.5378439185363144e-06
-3.2331725304423175e-06
-1.0815619174131869e-06
1.070056852282116e-06
3.2216683415692775e-06
-1.6723560345276196e-06
-5.595235239584243e-07
5.533215371205856e-07
1.666152318238273e-06
-6.887582327656194e-16
-2.6392163290534677e-16
1.6089681948676977e-16
5.861671282907099e-16
1.6723560332357472e-06
5.595235234723948e-07
-5.533215368008116e-07
-1.6661523171135515e-06
3.233172529405482e-06
1.0815619170107096e-06
-1.0700568520501254e-06
-3.221668340702502e-06
4.551483698828905e-06
1.5216992517323291e-06
-1.5080597719442292e-06
-4.537843918013732e-06
5.486425945842281e-06
1.833483557414904e-06
-1.8193729367695502e-06
-5.47231535266933e-06
5.906683438338223e-06
1.973171399374325e-06
-1.960177011306531e-06
-5.8936890606138995e-06
5.748895124334025e-06
1.9199302610079054e-06
-1.9088728707167196e-06
-5.737837734202838e-06
5.034963532128586e-06
1.681096915025118e-06
-1.6725311876400812e-06
-5.026397734578004e-06
3.817709204352667e-06
1.2744922403563856e-06
-1.2687043226718278e-06
-3.8119214817013392e-06
2.1302056303491362e-06
7.108461698252559e-07
-7.080504115035175e-07
-2.1274094493017153e-06
-2.6658645282333896e-06
-8.895080413429162e-07
8.862806685791809e-07
2.6626366925099353e-06
-4.8242641524897774e-06
-1.6103583832878436e-06
1.6035146179087443e-06
4.8174206289105135e-06
-6.447386254115791e-06
-2.1524924768794963e-06
2.14208541430275e-06
6.4369790940328845e-06
-7.501278850251191e-06
-2.5049631345016854e-06
2.4911102121660235e-06
7.487425999301137e-06
-7.909597973072701e-06
-2.6420754662239816e-06
2.6251508209725007e-06
7.892673307978489e-06
-7.566903277805029e-06
-2.52854593141945e-06
2.509560663673488e-06
7.547917822863691e-06
-6.428630059061515e-06
-2.1495208493626326e-06
2.1294714241975766e-06
6.408581894437634e-06
-4.634227601280798e-06
-1.550254163856169e-06
1.5336827229197059e-06
4.617652004162659e-06
-2.4192189424000307e-06
-8.103724663625784e-07
7.984796014241967e-07
2.4073331897043196e-06
-1.011198080904324e-15
-3.648704665486965e-16
2.814215369274983e-16
9.273723282354762e-16
2.419218940530585e-06
8.103724656829453e-07
-7.984796009140308e-07
-2.4073331880046277e-06
4.634227599861738e-06
1.5502541633258517e-06
-1.5336827225612716e-06
-4.617652002914926e-06
6.428630058245494e-06
2.149520849016401e-06
-2.12947142407423e-06
-6.408581893843735e-06
7.566903277731429e-06
2.528545931344277e-06
-2.5095606637499462e-06
-7.547917822942091e-06
7.909597973584713e-06
2.642075466344691e-06
-2.6251508212431307e-06
-7.892673308642332e-06
7.501278851159865e-06
2.504963134761079e-06
-2.491110212555902e-06
-7.487426000340162e-06
6.447386255280274e-06
2.152492477234483e-06
-2.1420854147571175e-06
-6.436979095296743e-06
4.824264153619522e-06
1.6103583836410112e-06
-1.6035146183321352e-06
-4.817420630110434e-06
2.6658645289851487e-06
8.89508041583612e-07
-8.862806688492732e-07
-2.662636693291232e-06
-3.1165654745277835e-06
-1.0398565130762367e-06
1.0362041446602644e-06
3.112912615133576e-06
-5.683292941937582e-06
-1.8970580702623582e-06
1.8891413082555134e-06
5.675376437250231e-06
-7.67532499094465e-06
-2.5624363108526636e-06
2.550081954254967e-06
7.66297056699126e-06
-9.065403483512323e-06
-3.027369570415234e-06
3.0103667017543957e-06
9.048400669432344e-06
-9.781673426592424e-06
-3.2676371653790264e-06
3.2460178855209133e-06
9.760053945288488e-06
-9.69396980227788e-06
-3.2398297359293077e-06
3.2138764682320646e-06
9.668017946882053e-06
-8.582664454561376e-06
-2.8698578936767957e-06
2.8425572266950292e-06
8.555358196392173e-06
-6.362792614730404e-06
-2.1311606390044677e-06
2.100397701008158e-06
6.3320471494898e-06
-3.362013401344385e-06
-1.1249719778394055e-06
1.112013421886303e-06
3.349022007432787e-06
-1.3187118416481444e-15
-4.853680120829861e-16
3.4787398800305e-16
1.1817397104277316e-15
3.3620133988326472e-06
1.1249719769156746e-06
-1.1120134212223332e-06
-3.3490220051814456e-06
6.362792612799931e-06
2.1311606382715517e-06
-2.1003977005435664e-06
-6.332047147825499e-06
8.582664453660607e-06
2.869857893288135e-06
-2.842557226571388e-06
-8.555358195757601e-06
9.693969802316532e-06
3.2398297358487523e-06
-3.213876468432011e-06
-9.668017947201427e-06
9.781673427328923e-06
3.2676371655506653e-06
-3.2460178859138493e-06
-9.760053946245679e-06
9.0654034847163e-06
3.0273695707550193e-06
-3.010366702278725e-06
-9.048400670820624e-06
7.675324992383365e-06
2.562436311295483e-06
-2.550081954807884e-06
-7.662970568540202e-06
5.68329294329814e-06
1.8970580706978359e-06
-1.889141308745022e-06
-5.675376438664903e-06
3.1165654754103046e-06
1.0398565133602909e-06
-1.036204144974389e-06
-3.112912616046091e-06
-3.4547548668515734e-06
-1.1526915752427156e-06
1.148667209525217e-06
3.4507299873473956e-06
-6.334492339349379e-06
-2.114446760853257e-06
2.1055654493366593e-06
6.325611279113879e-06
-8.618066946499957e-06
-2.8772803641404896e-06
2.8631017788457497e-06
8.603888429220769e-06
-1.0289417548408024e-05
-3.436399066316996e-06
3.4162913214476467e-06
1.0269309236158178e-05
-1.128848225824216e-05
-3.771638702147122e-06
3.7447673267184508e-06
1.126161319015656e-05
-1.1509663440202202e-05
-3.847713350951025e-06
3.81374781503392e-06
1.1475689771199369e-05
-1.074588411776585e-05
-3.5960113139144163e-06
3.553166029222786e-06
1.0703066577098444e-05
-8.503866828895485e-06
-2.8460198902603033e-06
2.8111792232083273e-06
8.468950078299752e-06
-4.643074403212186e-06
-1.568159851104815e-06
1.5069144534737431e-06
4.581966681380562e-06
-1.6819305387245902e-15
-6.238764328336097e-16
4.340624674586558e-16
1.4920652878230349e-15
4.643074400060447e-06
1.5681598499449356e-06
-1.5069144526415832e-06
-4.581966678556013e-06
8.503866826597626e-06
2.8460198893985925e-06
-2.8111792226343363e-06
-8.468950076288991e-06
1.0745884116790601e-05
3.596011313490164e-06
-3.5531660290960633e-06
-1.070306657642128e-05
1.1509663440377552e-05
3.847713350889444e-06
-3.8137478153321906e-06
-1.1475689771733413e-05
1.1288482259230528e-05
3.771638702355824e-06
-3.744767327289569e-06
-1.1261613191507227e-05
1.0289417549915307e-05
3.43639906674673e-06
-3.4162913220952356e-06
-1.0269309237883592e-05
8.61806694818267e-06
2.877280364651253e-06
-2.863101779506905e-06
-8.6038884310537e-06
6.334492340881519e-06
2.114446761337999e-06
-2.105565449899149e-06
-6.3256112807237095e-06
3.4547548678201907e-06
1.1526915755558476e-06
-1.1486672098672587e-06
-3.4507299883450086e-06
-3.6635028337275168e-06
-1.2223493705656855e-06
1.2180667041016213e-06
3.659219545290423e-06
-6.739149390763602e-06
-2.249562406481925e-06
2.239994192482359e-06
6.729581795640718e-06
-9.208506115232102e-06
-3.07452880140774e-06
3.059026317912961e-06
9.19300240243148e-06
-1.1063667819627244e-05
-3.6952934261804507e-06
3.672737352866256e-06
1.1041115747324131e-05
-1.2262311295429975e-05
-4.097619281142923e-06
4.066622541229602e-06
1.2231300977074774e-05
-1.271392093620649e-05
-4.252192293492125e-06
4.2089695093001835e-06
1.2670742221777839e-05
-1.226557412093591e-05
-4.1066930320700565e-06
4.051592181878656e-06
1.2210338832153604e-05
-1.0661073448588315e-05
-3.5853673161595933e-06
3.4890469704613694e-06
1.0565115163656756e-05
-6.5746751590255975e-06
-2.1920763208883235e-06
2.1893676087373295e-06
6.571313730992359e-06
-2.116347031100994e-15
-7.744937843863016e-16
5.671899065773501e-16
1.9101049187236877e-15
6.574675155322024e-06
2.1920763195299812e-06
-2.1893676077510574e-06
-6.5713137276598815e-06
1.0661073446116983e-05
3.5853673151926887e-06
-3.4890469699240117e-06
-1.056511516161213e-05
1.2265574119937433e-05
4.106693031587494e-06
-4.051592181845356e-06
-1.2210338831606744e-05
1.2713920936585555e-05
4.252192293480703e-06
-4.2089695097019854e-06
-1.2670742222568344e-05
1.2262311296735385e-05
4.097619281478251e-06
-4.066622541863934e-06
-1.223130097867963e-05
1.106366782134809e-05
3.6952934266789677e-06
-3.6727373535901387e-06
-1.1041115749269393e-05
9.208506117088798e-06
3.0745288019818206e-06
-3.059026318621041e-06
-9.19300240442243e-06
6.7391493923631866e-06
2.249562406982132e-06
-2.239994193081525e-06
-6.729581797339139e-06
3.6635028347177715e-06
1.2223493708827628e-06
-1.2180667044573785e-06
-3.6592195463192908e-06
-3.7339983287795422e-06
-1.2458759545493212e-06
1.2414979717634692e-06
3.7296200852014576e-06
-6.876194296888521e-06
-2.2953249537661714e-06
2.285516091559438e-06
6.866384613335704e-06
-9.409265869024053e-06
-3.14162363647663e-06
3.125588569472109e-06
9.39323479382041e-06
-1.132861672735108e-05
-3.7838595849810363e-06
3.7605574132798826e-06
1.1305300164047354e-05
-1.2595269569990208e-05
-4.209428141417957e-06
4.175930614432427e-06
1.2561821156417693e-05
-1.3140895665402567e-05
-4.394638076081417e-06
4.351149387870733e-06
1.3097245770310014e-05
-1.2820828885161367e-05
-4.299786322246717e-06
4.2202775059510995e-06
1.2741811998056158e-05
-1.1314656323234298e-05
-3.7910925869519223e-06
3.7322835194005723e-06
1.1254505238695298e-05
-8.777564813629976e-06
-3.0953760988904086e-06
2.5826938145485547e-06
8.267500277197524e-06
-2.310027491480301e-15
-8.145493791920829e-16
6.806233448615826e-16
2.1783518999035634e-15
8.777564809625928e-06
3.0953760974559854e-06
-2.5826938134137393e-06
-8.267500273496464e-06
1.1314656320881354e-05
3.7910925860459007e-06
-3.7322835188598824e-06
-1.1254505236707954e-05
1.2820828884468294e-05
4.299786321877875e-06
-4.220277505995503e-06
-1.2741811997776268e-05
1.314089566593434e-05
4.394638076150698e-06
-4.351149388263797e-06
-1.30972457711648e-05
1.2595269571416386e-05
4.2094281418074666e-06
-4.175930615079267e-06
-1.2561821158102264e-05
1.1328616729151574e-05
3.7838595855037175e-06
-3.7605574140348524e-06
-1.1305300166079275e-05
9.409265870833634e-06
3.1416236370143405e-06
-3.125588570206256e-06
-9.393234795826529e-06
6.8761942984469375e-06
2.2953249542486643e-06
-2.285516092152741e-06
-6.866384615004707e-06
3.733998329726596e-06
1.2458759548497551e-06
-1.2414979721094093e-06
-3.7296200861940824e-06
-3.6635028337784743e-06
-1.2223493705829284e-06
1.2180667041180535e-06
3.6592195453405633e-06
-6.739149390833112e-06
-2.249562406501845e-06
2.23999419251206e-06
6.729581795720052e-06
-9.208506115317911e-06
-3.0745288014295725e-06
3.0590263179549982e-06
9.19300240253749e-06
-1.1063667819663517e-05
-3.695293426185242e-06
3.6727373528929586e-06
1.104111574738123e-05
-1.2262311295389557e-05
-4.097619281127482e-06
4.0666225412200165e-06
1.2231300977040622e-05
-1.2713920936104322e-05
-4.2521922934574855e-06
4.208969509267305e-06
1.2670742221675599e-05
-1.226557412084222e-05
-4.106693032036079e-06
4.0515921818530145e-06
1.2210338832069339e-05
-1.0661073448617404e-05
-3.5853673161549274e-06
3.489046970499791e-06
1.056511516372814e-05
-6.574675159101599e-06
-2.1920763208865206e-06
2.1893676088170365e-06
6.571313731149012e-06
-2.21537347684719e-15
-7.756850268844951e-16
6.636320254798081e-16
2.102680517494706e-15
6.574675155406794e-06
2.1920763195907817e-06
-2.1893676077140645e-06
-6.571313727649953e-06
1.066107344645439e-05
3.585367315356208e-06
-3.4890469699343108e-06
-1.0565115161798437e-05
1.226557412030665e-05
4.1066930317685204e-06
-4.051592181852139e-06
-1.2210338831799188e-05
1.2713920936745093e-05
4.252192293571889e-06
-4.2089695096791155e-06
-1.2670742222614193e-05
1.2262311296719263e-05
4.097619281485948e-06
-4.066622541832739e-06
-1.2231300978624553e-05
1.1063667821327498e-05
3.6952934266726747e-06
-3.6727373535820013e-06
-1.1041115749247228e-05
9.208506116997303e-06
3.0745288019428507e-06
-3.059026318607628e-06
-9.193002404356089e-06
6.739149392267037e-06
2.2495624069479487e-06
-2.239994193053717e-06
-6.729581797249295e-06
3.66350283463186e-06
1.2223493708518611e-06
-1.2180667044333482e-06
-3.659219546240305e-06
-3.4547548669331024e-06
-1.1526915752686996e-06
1.1486672095547395e-06
3.450729987432492e-06
-6.334492339481317e-06
-2.1144467608942455e-06
2.105565449386615e-06
6.32561127925464e-06
-8.618066946630366e-06
-2.8772803641777082e-06
2.8631017789016315e-06
8.603888429370096e-06
-1.0289417548474221e-05
-3.4363990663276557e-06
3.4162913214924742e-06
1.0269309236259027e-05
-1.1288482258122087e-05
-3.7716387020783353e-06
3.7447673267360458e-06
1.1261613190123046e-05
-1.1509663439916202e-05
-3.847713350834085e-06
3.813747814981994e-06
1.1475689770977712e-05
-1.0745884117656554e-05
-3.596011313859901e-06
3.5531660292225656e-06
1.0703066577043567e-05
-8.50386682902321e-06
-2.846019890264717e-06
2.811179223327262e-06
8.468950078543454e-06
-4.643074403379761e-06
-1.5681598511276252e-06
1.5069144535955844e-06
4.581966681645721e-06
-1.8211434486127656e-15
-6.516653025671866e-16
5.173529429730765e-16
1.6868830551158842e-15
4.643074400286782e-06
1.568159850058774e-06
-1.5069144526403688e-06
-4.581966678665232e-06
8.503866827119632e-06
2.846019889630043e-06
-2.8111792226929306e-06
-8.468950076638275e-06
1.0745884117186018e-05
3.596011313665058e-06
-3.5531660291417692e-06
-1.0703066576688643e-05
1.1509663440620183e-05
3.847713351036296e-06
-3.8137478152811352e-06
-1.1475689771779266e-05
1.1288482259331474e-05
3.771638702450022e-06
-3.744767327201885e-06
-1.1261613191425375e-05
1.0289417549886684e-05
3.4363990667492566e-06
-3.41629132206165e-06
-1.0269309237819406e-05
8.6180669480715e-06
2.877280364618635e-06
-2.8631017794609028e-06
-8.60388843092881e-06
6.334492340713166e-06
2.1144467612812752e-06
-2.105565449844284e-06
-6.325611280557407e-06
3.4547548676831675e-06
1.1526915755082522e-06
-1.148667209825523e-06
-3.450729988213746e-06
-3.1165654746218444e-06
-1.0398565131081747e-06
1.0362041446904478e-06
3.1129126152258783e-06
-5.683292942093807e-06
-1.8970580703152436e-06
1.8891413083058953e-06
5.6753764374040244e-06
-7.675324991100732e-06
-2.562436310904906e-06
2.5500819543065704e-06
7.662970567147065e-06
-9.0654034835866e-06
-3.0273695704337914e-06
3.0103667017914555e-06
9.048400669524657e-06
-9.781673426481246e-06
-3.2676371653292297e-06
3.2460178855091705e-06
9.760053945214887e-06
-9.693969802014258e-06
-3.23982973583181e-06
3.2138764681637044e-06
9.668017946647733e-06
-8.582664454407525e-06
-2.8698578936093283e-06
2.842557226676244e-06
8.555358196288989e-06
-6.362792614882665e-06
-2.131160639024682e-06
2.100397701119708e-06
6.332047149731283e-06
-3.3620134016275523e-06
-1.1249719779095577e-06
1.1120134220289265e-06
3.349022007789032e-06
-1.2597849756182595e-15
-4.230477069328192e-16
4.1385429869380404e-16
1.2506814160706536e-15
3.3620133992496394e-06
1.1249719770987333e-06
-1.1120134212730283e-06
-3.349022005466214e-06
6.362792613270979e-06
2.1311606384856266e-06
-2.100397700586448e-06
-6.332047148124982e-06
8.582664453965822e-06
2.8698578934557786e-06
-2.8425572265414456e-06
-8.55535819586582e-06
9.693969802496088e-06
3.2398297359662137e-06
-3.2138764683764215e-06
-9.668017947208179e-06
9.781673427440622e-06
3.267637165613873e-06
-3.2460178858992855e-06
-9.760053946280477e-06
9.065403484708598e-06
3.027369570773679e-06
-3.01036670223368e-06
-9.048400670748795e-06
7.675324992253114e-06
2.562436311268045e-06
-2.5500819547325267e-06
-7.662970568362491e-06
5.683292943111324e-06
1.8970580706393783e-06
-1.8891413086751862e-06
-5.675376438466569e-06
3.1165654752603247e-06
1.0398565133136011e-06
-1.0362041449178287e-06
-3.1129126158863937e-06
-2.665864528315388e-06
-8.895080413705812e-07
8.862806686058082e-07
2.6626366925908887e-06
-4.824264152624273e-06
-1.6103583833343747e-06
1.6035146179502036e-06
4.817420629039921e-06
-6.447386254266266e-06
-2.1524924769300138e-06
2.1420854143521442e-06
6.43697909418237e-06
-7.501278850340982e-06
-2.5049631345278104e-06
2.4911102122035314e-06
7.487425999402056e-06
-7.909597973035617e-06
-2.6420754662008703e-06
2.6251508209817e-06
7.892673307974653e-06
-7.566903277636423e-06
-2.528545931348857e-06
2.5095606636460365e-06
7.5479178227398535e-06
-6.4286300589094925e-06
-2.149520849297583e-06
2.129471424175913e-06
6.408581894326137e-06
-4.634227601374088e-06
-1.5502541638933198e-06
1.5336827229384696e-06
4.617652004238757e-06
-2.4192189425407644e-06
-8.103724664115316e-07
7.984796014667487e-07
2.4073331898382795e-06
-8.965661184823651e-16
-3.099638762745238e-16
2.7662916989600173e-16
8.630520343527737e-16
2.4192189408865154e-06
8.103724658369413e-07
-7.984796009619074e-07
-2.4073331882540658e-06
4.634227600185134e-06
1.550254163468333e-06
-1.5336827225995719e-06
-4.617652003135826e-06
6.428630058460881e-06
2.1495208491355202e-06
-2.1294714240513135e-06
-6.40858189391555e-06
7.56690327785884e-06
2.5285459314125795e-06
-2.5095606637410075e-06
-7.547917822993293e-06
7.90959797368309e-06
2.642075466397482e-06
-2.625150821235784e-06
-7.8926733086799e-06
7.5012788511710965e-06
2.5049631347863045e-06
-2.491110212516635e-06
-7.487426000286751e-06
6.447386255138137e-06
2.15249247720061e-06
-2.142085414682822e-06
-6.436979095114401e-06
4.8242641534244884e-06
1.610358383586982e-06
-1.6035146182451077e-06
-4.8174206298822145e-06
2.6658645288268454e-06
8.895080415327508e-07
-8.862806687928093e-07
-2.6626366931272364e-06
-2.1302056298146872e-06
-7.108461696545667e-07
7.08050411310661e-07
2.127409448745147e-06
-3.817709203572171e-06
-1.2744922401122702e-06
1.2687043223796027e-06
3.8119214808727064e-06
-5.034963531354015e-06
-1.6810969147881463e-06
1.6725311873395158e-06
5.026397733739514e-06
-5.748895123754273e-06
-1.9199302608357125e-06
1.908872870481409e-06
5.737837733560564e-06
-5.906683438109099e-06
-1.973171399322588e-06
1.9601770111808907e-06
5.89368906031097e-06
-5.48642594605412e-06
-1.8334835575240748e-06
1.819372936762869e-06
5.472315352765874e-06
-4.551483699449356e-06
-1.5216992519905073e-06
1.5080597720483732e-06
4.537843918480732e-06
-3.233172530398088e-06
-1.081561917405924e-06
1.0700568522523037e-06
3.2216683415022734e-06
-1.6723560344273364e-06
-5.595235239175662e-07
5.53321537102219e-07
1.66615231816233e-06
-5.328176994394349e-16
-1.814381489010994e-16
1.699611561088612e-16
5.213521671668109e-16
1.6723560334412668e-06
5.595235235678032e-07
-5.533215368156406e-07
-1.6661523172383652e-06
3.2331725296305864e-06
1.08156191711799e-06
-1.0700568520605716e-06
-3.221668340830868e-06
4.551483698994936e-06
1.521699251811204e-06
-1.5080597719527557e-06
-4.537843918109677e-06
5.486425946028784e-06
1.833483557509008e-06
-1.8193729367675984e-06
-5.472315352760262e-06
5.906683438437015e-06
1.9731713994184132e-06
-1.9601770113171376e-06
-5.893689060679168e-06
5.748895124286119e-06
1.9199302609924665e-06
-1.908872870699754e-06
-5.737837734153836e-06
5.034963531982243e-06
1.6810969149806773e-06
-1.6725311875826268e-06
-5.026397734418303e-06
3.817709204166698e-06
1.2744922402973167e-06
-1.2687043226040722e-06
-3.8119214815066606e-06
2.1302056302121905e-06
7.108461697809723e-07
-7.08050411455183e-07
-2.127409449160769e-06
-1.5500562278178348e-06
-5.173657987001921e-07
5.149867738125196e-07
1.547676816879169e-06
-2.7470029558079732e-06
-9.172687171660251e-07
9.124678184879903e-07
2.7422022207227404e-06
-3.5676486015635822e-06
-1.1914729414010027e-06
1.1845596789008211e-06
3.5607352534936334e-06
-3.992095457374357e-06
-1.333565651429686e-06
1.3249008167278198e-06
3.983430632651255e-06
-4.00877715550405e-06
-1.3395379579310887e-06
1.3296582777492581e-06
3.998897443498616e-06
-3.6480697848617268e-06
-1.219455378106983e-06
1.2091646077080717e-06
3.6377789923986333e-06
-2.9813875044758084e-06
-9.97024035062822e-07
9.873683233696192e-07
2.971731825719005e-06
-2.0966540223541606e-06
-7.014196649282157e-07
6.938502194647143e-07
2.0890843245676463e-06
-1.0791361617981907e-06
-3.611587392095493e-07
3.5684122939729924e-07
1.0748190066891858e-06
-2.4432303492711817e-16
-1.0107493611754026e-16
4.2190497467521645e-17
1.8501924259612638e-16
1.0791361612905352e-06
3.6115873901139505e-07
-3.5684122928587094e-07
-1.0748190062678513e-06
2.096654021873609e-06
7.014196647487565e-07
-6.938502193430694e-07
-2.0890843241452817e-06
2.981387504099167e-06
9.970240349119691e-07
-9.873683232946532e-07
-2.9717318254182094e-06
3.6480697846571937e-06
1.2194553780056872e-06
-1.2091646077063012e-06
-3.6377789922936894e-06
4.008777155573804e-06
1.3395379579293078e-06
-1.329658277822632e-06
-3.998897443643486e-06
3.99209545767456e-06
1.3335656515158643e-06
-1.3249008168556083e-06
-3.98343063299316e-06
3.567648601983137e-06
1.1914729415302796e-06
-1.184559679061833e-06
-3.5607352539449605e-06
2.747002956239124e-06
9.172687173046548e-07
-9.124678186418188e-07
-2.742202221169053e-06
1.5500562281055382e-06
5.173657987944965e-07
-5.149867739115281e-07
-1.5476768171715999e-06
-9.793276826138e-07
-3.2703335466615385e-07
3.2506259576450294e-07
9.773565747294844e-07
-1.7153164183514665e-06
-5.730736682872773e-07
5.692095296548806e-07
1.7114524024094337e-06
-2.1928688305821035e-06
-7.327464544347745e-07
7.273432414205001e-07
2.1874655320529706e-06
-2.4088989822913076e-06
-8.051730726035111e-07
7.985873926162281e-07
2.4023132879576845e-06
-2.3760922867304577e-06
-7.944794048615698e-07
7.871836966827604e-07
2.3687965452568582e-06
-2.1307040528231615e-06
-7.127233468272407e-07
7.053286515510538e-07
2.123309328334963e-06
-1.7223143400117165e-06
-5.763644625187574e-07
5.696571047366506e-07
1.7156069365859017e-06
-1.2026223407686755e-06
-4.0261857574518015e-07
3.97443002719293e-07
1.1974467903674622e-06
-6.164836313194096e-07
-2.0644120741737712e-07
2.0363302300604118e-07
6.136753413031395e-07
-9.038678084650382e-17
-4.8034651899289756e-17
-5.5762782785218734e-18
3.684847430440383e-17
6.164836310940327e-07
2.0644120730585243e-07
-2.036330230037013e-07
-6.136753411871235e-07
1.2026223404985743e-06
4.026185756255661e-07
-3.974430026884741e-07
-1.1974467901862103e-06
1.7223143397562734e-06
5.763644624120132e-07
-5.696571046947083e-07
-1.7156069363952051e-06
2.1307040526192125e-06
7.127233467360137e-07
-7.053286515296255e-07
-2.1233093282008777e-06
2.376092286673993e-06
7.944794048275469e-07
-7.87183696694374e-07
-2.3687965452460505e-06
2.4088989824281606e-06
8.051730726419526e-07
-7.985873926762083e-07
-2.40231328811609e-06
2.192868830837431e-06
7.327464545159285e-07
-7.273432415134626e-07
-2.1874655323200985e-06
1.7153164186181652e-06
5.730736683728536e-07
-5.692095297504439e-07
-1.7114524026861348e-06
9.793276827958363e-07
3.2703335472478055e-07
-3.2506259582922267e-07
-9.773565749176253e-07
-4.82992969825489e-07
-1.6148606502417688e-07
1.5994757705783303e-07
4.814541858500869e-07
-8.372499184668948e-07
-2.800707511467818e-07
2.771757482882037e-07
8.343549979342792e-07
-1.0551370683831571e-06
-3.5302865617900636e-07
3.491284760945549e-07
1.0512368040299569e-06
-1.1413270003252734e-06
-3.8201278986596236e-07
3.7739308461439734e-07
1.1367072706364736e-06
-1.1100258976631004e-06
-3.7170814091273604e-07
3.6670887062515654e-07
1.1050265845152377e-06
-9.838928773654245e-07
-3.296505552237515e-07
3.2469391247763725e-07
9.789361997339979e-07
-7.884447155769623e-07
-2.643162887376331e-07
2.5990116127637835e-07
7.840295580698166e-07
-5.473282938425467e-07
-1.8357715901727563e-07
1.8023970369712705e-07
5.439908006215641e-07
-2.7964058489906616e-07
-9.3828219168336e-08
9.201886970854064e-08
2.778312409374452e-07
-3.4836284840495745e-17
-2.928070877407728e-17
-2.3741231895895587e-17
-1.823386649730651e-17
2.796405848171671e-07
9.382821911173602e-08
-9.201886973976141e-08
-2.7783124094338797e-07
5.473282937259092e-07
1.8357715895465965e-07
-1.802397037057075e-07
-5.43990800576046e-07
7.88444715445457e-07
2.6431628867973087e-07
-2.5990116126067695e-07
-7.840295579804574e-07
9.838928772479377e-07
3.296505551760567e-07
-3.2469391245555135e-07
-9.789361996421219e-07
1.1100258976014993e-06
3.717081408848135e-07
-3.6670887061944193e-07
-1.1050265844758585e-06
1.1413270003600744e-06
3.8201278987411087e-07
-3.773930846329139e-07
-1.1367072706816842e-06
1.0551370684957793e-06
3.5302865621538356e-07
-3.4912847613442723e-07
-1.0512368041460542e-06
8.372499186010833e-07
2.800707511915928e-07
-2.771757483327569e-07
-8.343549980682071e-07
4.829929699191376e-07
1.6148606505505787e-07
-1.599475770896932e-07
-4.814541859447201e-07
-1.332840328434962e-07
-4.478140620283711e-08
4.378459239825188e-08
1.3228690613934605e-07
-2.2951403076653414e-07
-7.712520918187092e-08
7.5425237815128e-08
2.2781408468252625e-07
-2.856977221277122e-07
-9.602347510545357e-08
9.384440579770445e-08
2.83518543456671e-07
-3.050666486491355e-07
-1.0259906065353666e-07
1.0008726272764018e-07
3.02554793715096e-07
-2.9323807228679587e-07
-9.870715758688058e-08
9.603793086499543e-08
2.9056877511228675e-07
-2.5740283520465595e-07
-8.673582111886828e-08
8.412374295009337e-08
2.5479069392219663e-07
-2.0475633749296213e-07
-6.907092919324836e-08
6.676997484439075e-08
2.0245532508745833e-07
-1.4141907913501875e-07
-4.77518197799683e-08
4.6024087513263724e-08
1.3969130573244953e-07
-7.204195758148363e-08
-2.4341891645158833e-08
2.341386342626059e-08
7.111390082436827e-08
-1.316125545257046e-17
-1.527581068150287e-17
-1.7379611051430208e-17
-1.9471222814567432e-17
7.204195755175053e-08
2.4341891616630657e-08
-2.3413863453575615e-08
-7.111390085048891e-08
1.4141907910149813e-07
4.775181975783525e-08
-4.602408752399781e-08
-1.3969130573178885e-07
2.0475633745654535e-07
6.907092917520575e-08
-6.676997484403472e-08
-2.0245532506871667e-07
2.5740283516732196e-07
8.673582110258735e-08
-8.412374294530802e-08
-2.5479069389637907e-07
2.9323807226273834e-07
9.870715757697711e-08
-9.603793086074358e-08
-2.9056877509387046e-07
3.0506664865033647e-07
1.0259906065315696e-07
-1.0008726272960768e-07
-3.02554793718644e-07
2.8569772215450084e-07
9.602347511466007e-08
-9.384440580609724e-08
-2.8351854348264816e-07
2.295140308046609e-07
7.712520919512822e-08
-7.542523782676259e-08
-2.2781408471902786e-07
1.3328403287092057e-07
4.4781406212234024e-08
-4.3784592406889766e-08
-1.322869061660135e-07
SCALARS disp_z float
LOOKUP_TABLE default
0.0
0.0
0.0
0.0
0.0
0.0
0.0
0.0
0.0
0.0
0.0
0.0
0.0
0.0
0.0
0.0
0.0
0.0
0.0
0.0
0.0
0.0
0.0
0.0
0.0
0.0
0.0
0.0
0.0
0.0
0.0
0.0
0.0
0.0
0.0
0.0
0.0
0.0
0.0
0.0
0.0
0.0
0.0
0.0
0.0
0.0
0.0
0.0
0.0
0.0
0.0
0.0
0.0
0.0
0.0
0.0
0.0
0.0
0.0
0.0
0.0
0.0
0.0
0.0
0.0
0.0
0.0
0.0
0.0
0.0
0.0
0.0
0.0
0.0
0.0
0.0
0.0
0.0
0.0
0.0
0.0
0.0
0.0
0.0
0.0
0.0
0.0
0.0
0.0
0.0
0.0
0.0
0.0
0.0
0.0
0.0
0.0
0.0
0.0
0.0
0.0
0.0
0.0
0.0
0.0
0.0
0.0
0.0
0.0
0.0
0.0
0.0
0.0
0.0
0.0
0.0
0.0
0.0
0.0
0.0
0.0
0.0
0.0
0.0
0.0
0.0
0.0
0.0
0.0
0.0
0.0
0.0
0.0
0.0
0.0
0.0
0.0
0.0
0.0
0.0
0.0
0.0
0.0
0.0
0.0
0.0
0.0
0.0
0.0
0.0
0.0
0.0
0.0
0.0
0.0
0.0
0.0
0.0
0.0
0.0
0.0
0.0
0.0
0.0
0.0
0.0
0.0
0.0
0.0
0.0
0.0
0.0
0.0
0.0
0.0
0.0
-2.300711825070594e-06
-8.403436365482723e-06
-1.7017324060727366e-05
-2.6861706792383276e-05
-3.680647485194624e-05
-4.593853029795033e-05
-5.358826559098527e-05
-5.930911798962327e-05
-6.283273958628227e-05
-6.402128166303894e-05
-6.283273958757239e-05
-5.930911799218783e-05
-5.358826559494691e-05
-4.593853030298022e-05
-3.680647485729074e-05
-2.6861706797159973e-05
-1.7017324064232005e-05
-8.40343636741254e-06
-2.3007118256428394e-06
-8.403436365200998e-06
-3.0739008790682244e-05
-6.258778764938894e-05
-9.94568710955762e-05
-0.00013717091739256395
-0.00017218574970620488
-0.00020177573150117985
-0.00022404845535976234
-0.00023782439320422873
-0.00024248060051478568
-0.00023782439320970707
-0.00022404845537069007
-0.0002017757315174338
-0.00017218574972621022
-0.00013717091741352185
-9.945687111414824e-05
-6.258778766288571e-05
-3.073900879806827e-05
-8.40343636740482e-06
-1.701732405951952e-05
-6.258778764708373e-05
-0.00012838017854156376
-0.0002057001949089091
-0.00028597720146135436
-0.0003614760128772402
-0.0004259330481154933
-0.00047480273990449414
-0.0005051705903020849
-0.0005154561235214421
-0.0005051705903148286
-0.0004748027399303443
-0.00042593304815233816
-0.0003614760129215801
-0.00028597720150711024
-0.00020570019494887357
-0.00012838017857047933
-6.258778766290074e-05
-1.701732406422103e-05
-2.6861706789484503e-05
-9.945687108816492e-05
-0.00020570019490095815
-0.000332728180500526
-0.00046706414557085447
-0.0005954832380610859
-0.0007065310875886527
-0.0007914912604670538
-0.0008445688071977696
-0.0008625993770113468
-0.0008445688072225296
-0.0007914912605148215
-0.0007065310876545839
-0.0005954832381378289
-0.0004670641456483227
-0.00033272818056735286
-0.0002057001949491634
-9.945687111438403e-05
-2.6861706797243372e-05
-3.6806474846645877e-05
-0.00013717091737717798
-0.00028597720143939335
-0.0004670641455523979
-0.000662789478235959
-0.0008540755104557921
-0.0010224203922768818
-0.0011528193426210782
-0.0012349030197512634
-0.0012628631014912832
-0.0012349030197930189
-0.0011528193426995521
-0.001022420392380965
-0.0008540755105727477
-0.0006627894783491337
-0.0004670641456487932
-0.0002859772015081199
-0.0001371709174143287
-3.6806474857601096e-05
-4.593853028969961e-05
-0.00017218574968088152
-0.0003614760128362267
-0.0005954832380148265
-0.0008540755104224886
-0.0011140425116422635
-0.001349200189085953
-0.00153475454349234
-0.0016529532776631338
-0.0016934124120760346
-0.0016529532777260815
-0.0015347545436080576
-0.0013492001892358202
-0.0011140425118041195
-0.0008540755105735224
-0.0005954832381397222
-0.0003614760129239465
-0.0001721857497279939
-4.593853030358704e-05
-5.35882655797209e-05
-0.00020177573146480638
-0.00042593304805233563
-0.0007065310875081282
-0.0010224203921983751
-0.00134920018903473
-0.0016566961727478497
-0.0019083310491974403
-0.0020713680196575764
-0.0021280171729103478
-0.0020713680197396093
-0.0019083310493511246
-0.0016566961729448265
-0.0013492001892405174
-0.0010224203923864896
-0.0007065310876598288
-0.0004259330481567849
-0.00020177573152023286
-5.358826559585926e-05
-5.930911797579551e-05
-0.00022404845531352933
-0.000474802739820512
-0.000791491260351846
-0.0011528193424929617
-0.0015347545433794002
-0.0019083310491288473
-0.0022337524347272363
-0.002456202730498929
-0.002533058510926843
-0.002456202730602688
-0.0022337524349193586
-0.0019083310493708417
-0.0015347545436282257
-0.0011528193427152902
-0.0007914912605267353
-0.00047480273993840945
-0.0002240484553748015
-5.930911799333394e-05
-6.283273957092255e-05
-0.00023782439315161443
-0.0005051705902027148
-0.0008445688070550163
-0.0012349030195819663
-0.0016529532774938668
-0.0020713680195183657
-0.002456202730419426
-0.0027527305583958353
-0.0028667529571310395
-0.002752730558524502
-0.0024562027306457277
-0.0020713680197951027
-0.001652953277773165
-0.0012349030198250091
-0.0008445688072426395
-0.0005051705903266545
-0.00023782439321493035
-6.283273958890715e-05
-6.402128164717981e-05
-0.0002424806004594203
-0.0005154561234151054
-0.0008625993768546181
-0.0012628631012961376
-0.001693412411868459
-0.0021280171727198513
-0.0025330585107801776
-0.0028667529570540694
-0.0030389911854329463
-0.0028667529571967595
-0.0025330585110257446
-0.0021280171730072516
-0.001693412412151935
-0.0012628631015407553
-0.0008625993770398489
-0.0005154561235359686
-0.00024248060052056253
-6.402128166427161e-05
-6.28327395718306e-05
-0.00023782439315469736
-0.0005051705902085582
-0.0008445688070637356
-0.0012349030195905636
-0.0016529532775003226
-0.002071368019521048
-0.0024562027304212957
-0.0027527305584010716
-0.0028667529571402904
-0.0027527305585372096
-0.0024562027306521427
-0.0020713680197926173
-0.0016529532777629084
-0.0012349030198152207
-0.0008445688072331204
-0.000505170590319079
-0.00023782439321020735
-6.283273958725744e-05
-5.9309117977244785e-05
-0.00022404845531875955
-0.000474802739830515
-0.0007914912603657431
-0.0011528193425073886
-0.0015347545433879789
-0.0019083310491301497
-0.002233752434731385
-0.002456202730510009
-0.0025330585109445583
-0.0024562027306218336
-0.0022337524349265872
-0.00190833104936496
-0.001534754543614285
-0.001152819342699226
-0.0007914912605112607
-0.0004748027399256236
-0.0002240484553669493
-5.930911799081063e-05
-5.358826558133765e-05
-0.00020177573147068213
-0.00042593304806362744
-0.0007065310875235933
-0.0010224203922141065
-0.0013492001890442506
-0.001656696172749982
-0.0019083310492005988
-0.0020713680196706805
-0.0021280171729300846
-0.0020713680197525807
-0.0019083310493509433
-0.0016566961729344127
-0.0013492001892258557
-0.001022420392368843
-0.0007065310876413286
-0.0004259330481418009
-0.00020177573151118204
-5.358826559288107e-05
-4.5938530291185834e-05
-0.00017218574968597957
-0.0003614760128461531
-0.0005954832380291331
-0.0008540755104381089
-0.0011140425116550608
-0.0013492001890933257
-0.0015347545434985783
-0.0016529532776743622
-0.0016934124120883986
-0.0016529532777314919
-0.001534754543602895
-0.0013492001892241939
-0.0011140425117885588
-0.0008540755105556242
-0.0005954832381203564
-0.00036147601290800464
-0.00017218574971844847
-4.5938530300656665e-05
-3.680647484771115e-05
-0.0001371709173810643
-0.00028597720144740897
-0.00046706414556392246
-0.0006627894782493137
-0.0008540755104709784
-0.0010224203922911145
-0.0011528193426336099
-0.0012349030197614705
-0.0012628631014979788
-0.0012349030197955034
-0.0011528193426957316
-0.0010224203923722942
-0.0008540755105596277
-0.0006627894783319019
-0.00046706414563100904
-0.00028597720149385245
-0.0001371709174060117
-3.6806474855059414e-05
-2.686170679011491e-05
-9.945687109068231e-05
-0.00020570019490618655
-0.0003327281805086951
-0.000467064145582312
-0.0005954832380759853
-0.0007065310876052755
-0.0007914912604831039
-0.0008445688072098174
-0.0008625993770184229
-0.0008445688072244951
-0.0007914912605135055
-0.0007065310876489554
-0.0005954832381281971
-0.0004670641456354881
-0.00033272818055430454
-0.00020570019493905702
-9.945687110848613e-05
-2.6861706795399354e-05
-1.7017324059796904e-05
-6.258778764827141e-05
-0.0001283801785443375
-0.0002057001949140278
-0.000285977201470137
-0.0003614760128900584
-0.00042593304813034165
-0.00047480273991908745
-0.0005051705903143449
-0.0005154561235298211
-0.0005051705903190395
-0.0004748027399305712
-0.00042593304814944545
-0.00036147601291585063
-0.000285977201499636
-0.0002057001949415797
-0.000128380178564747
-6.258778765953891e-05
-1.701732406316281e-05
-8.403436365248093e-06
-3.073900879098587e-05
-6.258778765045407e-05
-9.945687109824508e-05
-0.00013717091739766558
-0.000172185749713879
-0.00020177573151018645
-0.00022404845536886083
-0.00023782439321268965
-0.00024248060052133163
-0.0002378243932134728
-0.00022404845537161172
-0.00020177573151620968
-0.00017218574972360085
-0.00013717091741013851
-9.945687111094608e-05
-6.258778766044939e-05
-3.073900879667024e-05
-8.403436366964526e-06
-2.3007118250566875e-06
-8.403436365494202e-06
-1.7017324060928936e-05
-2.686170679314717e-05
-3.680647485354164e-05
-4.5938530300316544e-05
-5.3588265593797995e-05
-5.930911799257243e-05
-6.283273958919861e-05
-6.402128166551436e-05
-6.283273958907414e-05
-5.9309117992765966e-05
-5.358826559475109e-05
-4.593853030226512e-05
-3.6806474856433315e-05
-2.686170679636246e-05
-1.7017324063663247e-05
-8.403436367105834e-06
-2.3007118255490847e-06
-2.300662501454347e-06
-8.403385046289928e-06
-1.701726147681654e-05
-2.6861635826483985e-05
-3.680639527872948e-05
-4.593844255058944e-05
-5.358817012336324e-05
-5.930901620377057e-05
-6.283263361550612e-05
-6.402117348885307e-05
-6.283263361679621e-05
-5.930901620633487e-05
-5.358817012732491e-05
-4.5938442555619355e-05
-3.680639528407388e-05
-2.6861635831260692e-05
-1.7017261480321292e-05
-8.403385048219894e-06
-2.3006625020267323e-06
-8.403385046008204e-06
-3.0738962730578014e-05
-6.258773438279668e-05
-9.945681332914715e-05
-0.00013717085479958516
-0.00017218568231895523
-0.00020177566007209254
-0.00022404837992885806
-0.00023782431449853844
-0.00024248052417432043
-0.00023782431450401694
-0.00022404837993978568
-0.00020177566008834597
-0.00017218568233895955
-0.00013717085482054347
-9.945681334771907e-05
-6.258773439629352e-05
-3.07389627379644e-05
-8.403385048212226e-06
-1.7017261475608692e-05
-6.258773438049152e-05
-0.0001283801185054942
-0.0002057001318003929
-0.0002859771341201905
-0.0003614759423937742
-0.0004259329726124338
-0.00047480266154756177
-0.0005051705121720226
-0.0005154560290450779
-0.0005051705121847654
-0.0004748026615734129
-0.0004259329726492796
-0.0003614759424381146
-0.0002859771341659473
-0.00020570013184035798
-0.00012838011853441008
-6.258773439630828e-05
-1.7017261480310586e-05
-2.6861635823585245e-05
-9.945681332173555e-05
-0.00020570013179244226
-0.0003327281155772928
-0.0004670640792965601
-0.000595483167294742
-0.0007065310176972597
-0.0007914911838001835
-0.0008445687113629127
-0.0008625993482552125
-0.0008445687113876739
-0.0007914911838479542
-0.0007065310177631885
-0.0005954831673714855
-0.0004670640793740273
-0.00033272811564411876
-0.00020570013184064792
-9.945681334795507e-05
-2.6861635831344463e-05
-3.6806395273428985e-05
-0.00013717085478420044
-0.00028597713409822924
-0.0004670640792781036
-0.0006627894084560769
-0.000854075447059903
-0.0010224203150490478
-0.0011528192662181886
-0.001234903005389552
-0.0012628627717265132
-0.0012349030054313072
-0.0011528192662966588
-0.001022420315153132
-0.0008540754471768582
-0.0006627894085692528
-0.0004670640793744981
-0.00028597713416695606
-0.0001371708548213506
-3.680639528438486e-05
-4.593844254233875e-05
-0.0001721856822936319
-0.00036147594235276027
-0.0005954831672484813
-0.0008540754470265942
-0.0011140424328302408
-0.00134920014545321
-0.0015347544967982956
-0.001652952881045422
-0.0016934133959422143
-0.001652952881108372
-0.001534754496914012
-0.0013492001456030728
-0.0011140424329920938
-0.0008540754471776301
-0.0005954831673733796
-0.0003614759424404804
-0.0001721856823407446
-4.593844255622709e-05
-5.3588170112099506e-05
-0.00020177566003571856
-0.00042593297254927805
-0.000706531017616735
-0.0010224203149705412
-0.0013492001454019824
-0.00165669609412203
-0.0019083308454455011
-0.0020713692965788097
-0.00212801212485295
-0.002071369296660845
-0.0019083308455991892
-0.0016566960943190088
-0.0013492001456077707
-0.001022420315158656
-0.0007065310177684338
-0.00042593297265372705
-0.00020177566009114514
-5.35881701282383e-05
-5.930901618994284e-05
-0.00022404837988262527
-0.0004748026614635805
-0.0007914911836849802
-0.001152819266090071
-0.0015347544966853477
-0.0019083308453769138
-0.002233753571784875
-0.002456196551918702
-0.002533079837837706
-0.002456196552022463
-0.0022337535719770007
-0.001908330845618899
-0.0015347544969341832
-0.0011528192663124014
-0.0007914911838598671
-0.0004748026615814786
-0.00022404837994389795
-5.930901620748228e-05
-6.28326336001469e-05
-0.00023782431444592422
-0.0005051705120726525
-0.0008445687112201583
-0.001234903005220253
-0.0016529528808761655
-0.002071369296439601
-0.0024561965518391997
-0.0027527600996861724
-0.0028666516567802352
-0.0027527600998148443
-0.0024561965520654935
-0.002071369296716345
-0.0016529528811554531
-0.0012349030054633003
-0.0008445687114077829
-0.0005051705121965929
-0.00023782431450924038
-6.283263361813223e-05
-6.402117347299385e-05
-0.00024248052411895548
-0.0005154560289387425
-0.0008625993480984804
-0.001262862771531371
-0.001693413395734638
-0.002128012124662464
-0.0025330798376910347
-0.0028666516567032695
-0.0030393961370618
-0.0028666516568459613
-0.002533079837936607
-0.002128012124949857
-0.0016934133960181206
-0.0012628627717759884
-0.0008625993482837154
-0.0005154560290596058
-0.0002424805241801002
-6.402117349008631e-05
-6.28326336010545e-05
-0.00023782431444900785
-0.0005051705120784942
-0.0008445687112288791
-0.0012349030052288522
-0.0016529528808826193
-0.0020713692964422882
-0.0024561965518410675
-0.002752760099691412
-0.002866651656789496
-0.002752760099827548
-0.0024561965520719124
-0.0020713692967138527
-0.0016529528811452014
-0.0012349030054535138
-0.0008445687113982643
-0.000505170512189018
-0.0002378243145045174
-6.283263361648312e-05
-5.93090161913922e-05
-0.00022404837988785522
-0.0004748026614735846
-0.0007914911836988745
-0.0011528192661044998
-0.0015347544966939314
-0.0019083308453782084
-0.0022337535717890295
-0.0024561965519297796
-0.0025330798378554228
-0.00245619655204161
-0.0022337535719842315
-0.001908330845613024
-0.0015347544969202434
-0.0011528192662963346
-0.0007914911838443947
-0.00047480266156869346
-0.00022404837993604705
-5.93090162049587e-05
-5.3588170113715977e-05
-0.00020177566004159477
-0.0004259329725605676
-0.0007065310176321996
-0.0010224203149862736
-0.0013492001454115004
-0.0016566960941241696
-0.0019083308454486611
-0.002071369296591913
-0.0021280121248726963
-0.0020713692966738066
-0.0019083308455990155
-0.0016566960943085937
-0.0013492001455931138
-0.0010224203151410099
-0.0007065310177499349
-0.000425932972638744
-0.00020177566008209398
-5.3588170125260344e-05
-4.593844254382519e-05
-0.00017218568229872863
-0.000361475942362688
-0.000595483167262788
-0.0008540754470422181
-0.0011140424328430364
-0.0013492001454605792
-0.0015347544968045328
-0.0016529528810566502
-0.001693413395954586
-0.0016529528811137877
-0.0015347544969088482
-0.0013492001455914521
-0.0011140424329765344
-0.0008540754471597353
-0.0005954831673540135
-0.0003614759424245382
-0.0001721856823312002
-4.5938442553296363e-05
-3.680639527449418e-05
-0.00013717085478808617
-0.00028597713410624437
-0.00046706407928962765
-0.0006627894084694312
-0.0008540754470750912
-0.0010224203150632797
-0.0011528192662307172
-0.0012349030053997615
-0.0012628627717332119
-0.001234903005433793
-0.0011528192662928402
-0.0010224203151444613
-0.0008540754471637389
-0.0006627894085520206
-0.00046706407935671467
-0.00028597713415268996
-0.00013717085481303296
-3.6806395281843424e-05
-2.68616358242156e-05
-9.945681332425349e-05
-0.00020570013179767047
-0.000332728115585462
-0.00046706407930801664
-0.0005954831673096385
-0.0007065310177138844
-0.0007914911838162344
-0.0008445687113749604
-0.0008625993482622871
-0.0008445687113896343
-0.0007914911838466393
-0.0007065310177575615
-0.0005954831673618518
-0.0004670640793611926
-0.00033272811563107217
-0.00020570013183054034
-9.945681334205787e-05
-2.6861635829500286e-05
-1.7017261475886183e-05
-6.258773438167926e-05
-0.000128380118508268
-0.00020570013180551172
-0.00028597713412897326
-0.00036147594240659356
-0.0004259329726272823
-0.00047480266156215616
-0.0005051705121842834
-0.0005154560290534583
-0.0005051705121889775
-0.00047480266157363835
-0.00042593297264638684
-0.00036147594243238413
-0.00028597713415847277
-0.00020570013183306339
-0.00012838011852867823
-6.258773439294654e-05
-1.7017261479252377e-05
-8.403385046055391e-06
-3.073896273088166e-05
-6.258773438386214e-05
-9.945681333181618e-05
-0.00013717085480468742
-0.00017218568232662843
-0.00020177566008109903
-0.00022404837993795728
-0.00023782431450699936
-0.00024248052418086662
-0.00023782431450778232
-0.0002240483799407076
-0.00020177566008712129
-0.0001721856823363505
-0.00013717085481716005
-9.945681334451712e-05
-6.2587734393857e-05
-3.0738962736566415e-05
-8.40338504777176e-06
-2.300662501440493e-06
-8.403385046301478e-06
-1.7017261477018267e-05
-2.6861635827247927e-05
-3.680639528032486e-05
-4.593844255295642e-05
-5.358817012617635e-05
-5.930901620671968e-05
-6.283263361842242e-05
-6.402117349132743e-05
-6.283263361829738e-05
-5.930901620691265e-05
-5.358817012712904e-05
-4.593844255490432e-05
-3.680639528321633e-05
-2.6861635830463248e-05
-1.7017261479752533e-05
-8.403385047913022e-06
-2.300662501932945e-06
0.0
0.0
0.0
0.0
0.0
0.0
0.0
0.0
0.0
0.0
0.0
0.0
0.0
0.0
0.0
0.0
0.0
0.0
0.0
0.0
0.0
0.0
0.0
0.0
0.0
0.0
0.0
0.0
0.0
0.0
0.0
0.0
0.0
0.0
0.0
0.0
0.0
0.0
0.0
0.0
0.0
0.0
0.0
0.0
0.0
0.0
0.0
0.0
0.0
0.0
0.0
0.0
0.0
0.0
0.0
0.0
0.0
0.0
0.0
0.0
0.0
0.0
0.0
0.0
0.0
0.0
0.0
0.0
0.0
0.0
0.0
0.0
0.0
0.0
0.0
0.0
0.0
0.0
0.0
0.0
0.0
0.0
0.0
0.0
0.0
0.0
0.0
0.0
0.0
0.0
0.0
0.0
0.0
0.0
0.0
0.0
0.0
0.0
0.0
0.0
0.0
0.0
0.0
0.0
0.0
0.0
0.0
0.0
0.0
0.0
0.0
0.0
0.0
0.0
0.0
0.0
0.0
0.0
0.0
0.0
0.0
0.0
0.0
0.0
0.0
0.0
0.0
0.0
0.0
0.0
0.0
0.0
0.0
0.0
0.0
0.0
0.0
0.0
0.0
0.0
0.0
0.0
0.0
0.0
0.0
0.0
0.0
0.0
0.0
0.0
0.0
0.0
0.0
0.0
0.0
0.0
0.0
0.0
0.0
0.0
0.0
0.0
0.0
0.0
0.0
0.0
0.0
0.0
0.0
0.0
0.0
0.0
0.0
0.0
0.0
0.0
0.0
0.0
0.0
0.0
0.0
0.0
0.0
0.0
0.0
0.0
0.0
0.0
0.0
0.0
0.0
0.0
0.0
0.0
0.0
0.0
0.0
0.0
0.0
0.0
0.0
0.0
0.0
0.0
0.0
0.0
0.0
0.0
0.0
0.0
0.0
0.0
0.0
0.0
0.0
0.0
0.0
0.0
0.0
0.0
0.0
0.0
0.0
0.0
0.0
0.0
0.0
0.0
0.0
0.0
0.0
0.0
0.0
0.0
0.0
0.0
0.0
0.0
0.0
0.0
0.0
0.0
0.0
0.0
0.0
0.0
0.0
0.0
0.0
0.0
0.0
0.0
0.0
0.0
0.0
0.0
0.0
0.0
0.0
0.0
0.0
0.0
0.0
0.0
0.0
0.0
0.0
0.0
0.0
0.0
0.0
0.0
0.0
0.0
0.0
0.0
0.0
0.0
0.0
0.0
0.0
0.0
0.0
0.0
0.0
0.0
0.0
0.0
0.0
0.0
0.0
0.0
0.0
0.0
0.0
0.0
0.0
0.0
0.0
0.0
0.0
0.0
0.0
0.0
-2.2971562076723047e-06
-2.2953705279347707e-06
-2.2953606672955076e-06
-2.297126621668223e-06
-8.39622389424144e-06
-8.392611505250691e-06
-8.392601241291183e-06
-8.39619310248073e-06
-1.7003685530454648e-05
-1.6996860708947895e-05
-1.6996848195980155e-05
-1.700364798773747e-05
-2.684068562839874e-05
-2.6830169948896785e-05
-2.6830155758008575e-05
-2.684064305343799e-05
-3.677772541755836e-05
-3.6763346192960373e-05
-3.6763330281819194e-05
-3.677767768063161e-05
-4.5902524790039626e-05
-4.588451772735487e-05
-4.5884500181263625e-05
-4.5902472148381734e-05
-5.3546062514405726e-05
-5.3524956696648454e-05
-5.352493760689298e-05
-5.354600524136089e-05
-5.9262215064715354e-05
-5.923875919564816e-05
-5.9238738844223024e-05
-5.926215400472943e-05
-6.278291499649332e-05
-6.275799817885024e-05
-6.27579769785139e-05
-6.278285140148115e-05
-6.39704679961324e-05
-6.39450564683281e-05
-6.394503487554402e-05
-6.397040317632917e-05
-6.278291499778226e-05
-6.275799818013856e-05
-6.275797697980184e-05
-6.278285140277002e-05
-5.926221506727731e-05
-5.923875919820853e-05
-5.923873884678361e-05
-5.926215400729134e-05
-5.354606251836382e-05
-5.352495670060488e-05
-5.352493761084934e-05
-5.3546005245319036e-05
-4.5902524795065465e-05
-4.588451773237853e-05
-4.5884500186287256e-05
-4.590247215340762e-05
-3.677772542289861e-05
-3.6763346198298416e-05
-3.676333028715736e-05
-3.6777677685971844e-05
-2.6840685633171637e-05
-2.6830169953667803e-05
-2.683015576277958e-05
-2.6840643058210882e-05
-1.7003685533956522e-05
-1.699686071244839e-05
-1.6996848199480648e-05
-1.700364799123941e-05
-8.396223896169648e-06
-8.392611507178096e-06
-8.392601243218671e-06
-8.396193104409035e-06
-2.297156208243712e-06
-2.295370528505764e-06
-2.295360667866543e-06
-2.297126622239709e-06
-8.396223893959842e-06
-8.392611504969129e-06
-8.392601241009672e-06
-8.396193102199137e-06
-3.0733358305956044e-05
-3.0730525355024415e-05
-3.073051613810573e-05
-3.0733330660096037e-05
-6.257989821096421e-05
-6.257594588760381e-05
-6.257593523266112e-05
-6.257986624776159e-05
-9.944647038153126e-05
-9.944126005944795e-05
-9.944124850203103e-05
-9.944643571340868e-05
-0.00013715713247448006
-0.0001371502293096796
-0.00013715021678724609
-0.00013715709491101752
-0.00017216837155192556
-0.00017215967044912915
-0.00017215965696725966
-0.0001721683311107325
-0.00020175495724912687
-0.0002017445572525198
-0.0002017445429624467
-0.00020175491438318297
-0.00022402493328627275
-0.00022401315857152482
-0.00022401314347416092
-0.00022402488800525298
-0.00023779908958508798
-0.00023778642349771251
-0.00023778640778571018
-0.0002377990424204313
-0.0002424546791873967
-0.00024244170453070928
-0.00024244168913133132
-0.0002424546331189314
-0.00023779908959056526
-0.0002377864235031895
-0.00023778640779118692
-0.0002377990424259089
-0.0002240249332971985
-0.0002240131585824502
-0.00022401314348508564
-0.00022402488801617844
-0.00020175495726537873
-0.00020174455726877056
-0.0002017445429786981
-0.0002017549143994345
-0.0001721683715719288
-0.00017215967046913108
-0.00017215965698726233
-0.0001721683311307347
-0.00013715713249543636
-0.00013715022933063532
-0.00013715021680820184
-0.00013715709493197396
-9.944647040010194e-05
-9.944126007801755e-05
-9.944124852060057e-05
-9.944643573197918e-05
-6.257989822445957e-05
-6.257594590109861e-05
-6.257593524615609e-05
-6.257986626125702e-05
-3.0733358313341006e-05
-3.073052536240888e-05
-3.0730516145490164e-05
-3.0733330667481256e-05
-8.396223896161943e-06
-8.392611507170408e-06
-8.392601243210933e-06
-8.396193104401356e-06
-1.7003685529247358e-05
-1.6996860707740795e-05
-1.6996848194773137e-05
-1.7003647986530186e-05
-6.257989820865875e-05
-6.257594588529834e-05
-6.257593523035567e-05
-6.257986624545616e-05
-0.00012837178756233269
-0.0001283675881110102
-0.00012836757610748542
-0.00012837175154807495
-0.00020569173317577886
-0.00020568749687087834
-0.00020568748425035
-0.00020569169531301976
-0.00028596722658845366
-0.00028596223554412285
-0.00028596222207877525
-0.0002859671861895279
-0.00036146382157577255
-0.00036145772276297364
-0.0003614577086689179
-0.0003614637792909819
-0.0004259182904323126
-0.0004259109091467259
-0.00042591089404644977
-0.00042591824513109225
-0.0004747856574430982
-0.00047477711411981837
-0.0004747770984706642
-0.00047478561047368633
-0.0005051519065158216
-0.0005051425631372916
-0.0005051425474102175
-0.0005051518594344793
-0.0005154368787989156
-0.000515427253037054
-0.0005154272345249787
-0.0005154368228833243
-0.0005051519065285634
-0.0005051425631500324
-0.0005051425474229581
-0.0005051518594472204
-0.00047478565746894666
-0.0004747771141456651
-0.00047477709849651147
-0.00047478561049953534
-0.00042591829046915563
-0.0004259109091835678
-0.0004259108940832909
-0.0004259182451679364
-0.0003614638216201121
-0.0003614577228073141
-0.0003614577087132576
-0.00036146377933532177
-0.0002859672266342098
-0.0002859622355898791
-0.00028596222212453113
-0.00028596718623528493
-0.00020569173321574317
-0.00020568749691084266
-0.00020568748429031496
-0.00020569169535298494
-0.00012837178759124773
-0.00012836758813992508
-0.0001283675761364002
-0.00012837175157699013
-6.257989822447462e-05
-6.257594590111356e-05
-6.257593524617096e-05
-6.257986626127172e-05
-1.700368553394552e-05
-1.699686071243742e-05
-1.69968481994698e-05
-1.7003647991228614e-05
-2.6840685625501452e-05
-2.6830169946000234e-05
-2.6830155755112034e-05
-2.6840643050540744e-05
-9.94464703741194e-05
-9.944126005203543e-05
-9.944124849461876e-05
-9.944643570599641e-05
-0.00020569173316782705
-0.000205687496862926
-0.00020568748424239835
-0.00020569169530506846
-0.00033272336815794493
-0.00033272095227113944
-0.0003327209392846839
-0.0003327233292003791
-0.00046706125600922115
-0.0004670598027669635
-0.000467059789511446
-0.00046706121624333715
-0.0005954809088370087
-0.0005954797349304101
-0.0005954797207741936
-0.000595480866371261
-0.0007065281103725915
-0.000706526613034466
-0.0007065265990653443
-0.0007065280684562295
-0.0007914870835239884
-0.0007914849859951481
-0.0007914849706016008
-0.0007914870374028456
-0.000844563593107786
-0.0008445609748666694
-0.0008445609559989878
-0.0008445635362081336
-0.0008625937179607942
-0.0008625908852099036
-0.0008625908783623757
-0.0008625936985061116
-0.0008445635931325457
-0.0008445609748914275
-0.0008445609560237457
-0.0008445635362328934
-0.0007914870835717546
-0.0007914849860429139
-0.0007914849706493679
-0.0007914870374506152
-0.0007065281104385213
-0.0007065266131003955
-0.0007065265991312742
-0.0007065280685221577
-0.0005954809089137525
-0.0005954797350071551
-0.0005954797208509366
-0.000595480866448005
-0.000467061256086692
-0.00046705980284443495
-0.00046705978958891837
-0.0004670612163208069
-0.00033272336822477364
-0.0003327209523379696
-0.00033272093935151443
-0.0003327233292672069
-0.00020569173321603287
-0.00020568749691113263
-0.0002056874842906042
-0.0002056916953532746
-9.94464704003376e-05
-9.944126007825324e-05
-9.944124852083645e-05
-9.944643573221514e-05
-2.6840685633255066e-05
-2.6830169953751233e-05
-2.6830155762863015e-05
-2.6840643058294487e-05
-3.6777725412261026e-05
-3.676334618766437e-05
-3.6763330276523375e-05
-3.677767767533409e-05
-0.00013715713245909336
-0.00013715022929429292
-0.00013715021677185925
-0.00013715709489563202
-0.000285967226566491
-0.00028596223552215995
-0.000285962222056811
-0.00028596718616756447
-0.00046706125599076283
-0.00046705980274850366
-0.00046705978949298696
-0.0004670612162248793
-0.0006627924728676948
-0.0006627939629642789
-0.0006627939490076412
-0.0006627924309984086
-0.000854082861945269
-0.000854086530878394
-0.0008540865182078477
-0.0008540828239251217
-0.0010224295453778603
-0.0010224341153777725
-0.0010224340998953678
-0.001022429498967064
-0.001152828799800594
-0.0011528335222567982
-0.0011528335071486217
-0.0011528287543051785
-0.0012349119446231106
-0.0012349164088601213
-0.0012349164051692898
-0.0012349119343635561
-0.0012628719881837788
-0.0012628763984656398
-0.0012628763354896218
-0.0012628717962953715
-0.0012349119446648667
-0.0012349164089018804
-0.0012349164052110446
-0.0012349119344053114
-0.0011528287998790695
-0.0011528335223352703
-0.0011528335072270941
-0.001152828754383649
-0.001022429545481946
-0.0010224341154818606
-0.0010224340999994558
-0.0010224294990711506
-0.0008540828620622282
-0.0008540865309953548
-0.0008540865183248116
-0.0008540828240420815
-0.0006627924729808737
-0.0006627939630774606
-0.0006627939491208208
-0.0006627924311115884
-0.00046706125608716233
-0.0004670598028449053
-0.0004670597895893877
-0.0004670612163212777
-0.0002859672266352197
-0.0002859622355908891
-0.00028596222212554084
-0.00028596718623629346
-0.00013715713249624328
-0.00013715022933144226
-0.0001371502168090088
-0.00013715709493278107
-3.6777725423208886e-05
-3.676334619860865e-05
-3.6763330287467786e-05
-3.677767768628249e-05
-4.590252478179384e-05
-4.588451771911157e-05
-4.588450017302011e-05
-4.590247214013598e-05
-0.0001721683715266016
-0.00017215967042380476
-0.00017215965694193606
-0.0001721683310854083
-0.00036146382153475653
-0.00036145772272195664
-0.00036145770862790037
-0.00036146377924996573
-0.0005954809087907454
-0.0005954797348841463
-0.0005954797207279281
-0.000595480866324996
-0.0008540828619119618
-0.0008540865308450819
-0.0008540865181745378
-0.0008540828238918101
-0.001114059632719759
-0.0011140681816944552
-0.001114068165898168
-0.0011140595853644307
-0.0013492238052174642
-0.0013492356076661338
-0.0013492355990629165
-0.0013492237792855082
-0.0015347803221839919
-0.001534793207543514
-0.0015347931977311333
-0.0015347802932173245
-0.0016529800403488825
-0.0016529933813536567
-0.0016529933040884263
-0.0016529798065048318
-0.0016934381612307842
-0.0016934511425810237
-0.0016934513319175359
-0.0016934387366492826
-0.001652980040411835
-0.0016529933814166098
-0.001652993304151384
-0.0016529798065677863
-0.0015347803222997142
-0.0015347932076592474
-0.0015347931978468602
-0.0015347802933330485
-0.001349223805367339
-0.0013492356078160068
-0.0013492355992127903
-0.0013492237794353785
-0.0011140596328816227
-0.0011140681818563227
-0.001114068166060034
-0.0011140595855262912
-0.0008540828620630006
-0.0008540865309961252
-0.0008540865183255811
-0.0008540828240428519
-0.0005954809089156451
-0.0005954797350090479
-0.0005954797208528302
-0.0005954808664498984
-0.0003614638216224785
-0.00036145772280967944
-0.0003614577087156234
-0.00036146377933768766
-0.00017216837157371282
-0.00017215967047091557
-0.00017215965698904692
-0.00017216833113251986
-4.5902524795672165e-05
-4.588451773298536e-05
-4.588450018689412e-05
-4.590247215401486e-05
-5.3546062503148394e-05
-5.35249566853946e-05
-5.3524937595639384e-05
-5.3546005230104095e-05
-0.00020175495721275283
-0.00020174455721614604
-0.00020174454292607182
-0.0002017549143468085
-0.0004259182903691519
-0.00042591090908356325
-0.00042591089398328713
-0.0004259182450679328
-0.0007065281102920599
-0.0007065266129539319
-0.0007065265989848095
-0.000706528068375698
-0.0010224295452993472
-0.0010224341152992584
-0.0010224340998168525
-0.00102242949888855
-0.0013492238051662363
-0.0013492356076148986
-0.0013492355990116858
-0.0013492237792342764
-0.0016567347457814294
-0.0016567540173965825
-0.0016567540012885184
-0.0016567346978377665
-0.0019083779121023981
-0.00190840132400948
-0.0019084012844689023
-0.0019083777922763012
-0.002071415255801353
-0.0020714390071420613
-0.002071439257934759
-0.0020714160127573494
-0.00212806817524411
-0.0021280931601565427
-0.0021280921668243194
-0.002128065179001964
-0.0020714152558833896
-0.0020714390072241007
-0.0020714392580167933
-0.0020714160128393866
-0.001908377912256093
-0.0019084013241631786
-0.0019084012846226042
-0.0019083777924299985
-0.0016567347459784175
-0.0016567540175935747
-0.001656754001485516
-0.0016567346980347587
-0.001349223805372033
-0.0013492356078207005
-0.0013492355992174875
-0.001349223779440073
-0.001022429545487468
-0.001022434115487384
-0.001022434100004975
-0.0010224294990766722
-0.0007065281104437659
-0.0007065266131056395
-0.0007065265991365175
-0.0007065280685274016
-0.0004259182904736022
-0.0004259109091880144
-0.0004259108940877387
-0.0004259182451723834
-0.00020175495726817793
-0.00020174455727157035
-0.0002017445429814971
-0.00020175491440223365
-5.3546062519275833e-05
-5.352495670151659e-05
-5.352493761176148e-05
-5.354600524623172e-05
-5.9262215050896506e-05
-5.923875918183364e-05
-5.923873883040893e-05
-5.926215399091071e-05
-0.0002240249332400395
-0.0002240131585252914
-0.00022401314342792737
-0.00022402488795902
-0.0004747856573591118
-0.00047477711403582994
-0.00047477709838667626
-0.0004747856103897006
-0.0007914870834087722
-0.000791484985879928
-0.0007914849704863827
-0.0007914870372876334
-0.0011528287996724648
-0.0011528335221286587
-0.0011528335070204825
-0.0011528287541770473
-0.0015347803220710369
-0.0015347932074305595
-0.0015347931976181714
-0.001534780293104365
-0.0019083779120337985
-0.0019084013239408744
-0.001908401284400302
-0.0019083777922077067
-0.0022338238758484127
-0.002233859690968155
-0.002233859915454287
-0.002233824552224712
-0.0024562831518275615
-0.002456322750220301
-0.0024563215229706824
-0.002456279461619568
-0.0025331300258100977
-0.0025331679443503187
-0.002533172181619649
-0.0025331427657203005
-0.002456283151931325
-0.0024563227503240654
-0.002456321523074449
-0.0024562794617233328
-0.00223382387604055
-0.0022338596911603025
-0.0022338599156464384
-0.0022338245524168524
-0.001908377912275812
-0.0019084013241828961
-0.001908401284642321
-0.0019083777924497104
-0.0015347803223198797
-0.0015347932076794093
-0.001534793197867025
-0.0015347802933532153
-0.0011528287998948054
-0.0011528335223510056
-0.0011528335072428298
-0.0011528287543993892
-0.0007914870835836678
-0.0007914849860548275
-0.0007914849706612822
-0.0007914870374625276
-0.00047478565747701183
-0.00047477711415373113
-0.0004747770985045779
-0.00047478561050760056
-0.00022402493330130987
-0.0002240131585865615
-0.00022401314348919696
-0.00022402488802029033
-5.926221506842279e-05
-5.923875919935391e-05
-5.9238738847929437e-05
-5.926215400843767e-05
-6.2782914981144e-05
-6.275799816350593e-05
-6.275797696316957e-05
-6.278285138613225e-05
-0.00023779908953247471
-0.00023778642344510006
-0.00023778640773309742
-0.0002377990423678181
-0.0005051519064164477
-0.0005051425630379151
-0.0005051425473108404
-0.0005051518593351056
-0.0008445635929650231
-0.0008445609747239007
-0.0008445609558562195
-0.0008445635360653691
-0.001234911944453798
-0.0012349164086908019
-0.0012349164049999693
-0.0012349119341942428
-0.0016529800401796002
-0.0016529933811843666
-0.00165299330391914
-0.0016529798063355575
-0.0020714152556621265
-0.0020714390070028284
-0.00207143925779552
-0.002071416012618123
-0.002456283151748045
-0.0024563227501407815
-0.002456321522891165
-0.002456279461540054
-0.002752858518127044
-0.0027529254116778804
-0.0027529313062200013
-0.0027528762154966292
-0.0028668934479057903
-0.0028669536012882677
-0.0028669333725657316
-0.002866832730318977
-0.0027528585182557234
-0.002752925411806564
-0.002752931306348691
-0.0027528762156253136
-0.00245628315197437
-0.002456322750367117
-0.002456321523117493
-0.0024562794617663704
-0.002071415255938887
-0.0020714390072796014
-0.0020714392580722983
-0.0020714160128948913
-0.0016529800404589206
-0.0016529933814636974
-0.0016529933041984676
-0.0016529798066148684
-0.0012349119446968552
-0.0012349164089338676
-0.0012349164052430348
-0.0012349119344373036
-0.0008445635931526538
-0.000844560974911537
-0.0008445609560438555
-0.0008445635362530006
-0.00050515190654039
-0.0005051425631618585
-0.0005051425474347843
-0.0005051518594590476
-0.00023779908959578797
-0.00023778642350841186
-0.0002377864077964093
-0.00023779904243113157
-6.27829149991162e-05
-6.275799818147225e-05
-6.275797698113597e-05
-6.278285140410474e-05
-6.397046798028453e-05
-6.394505645248567e-05
-6.394503485970178e-05
-6.397040316048117e-05
-0.00024245467913203313
-0.00024244170447534644
-0.0002424416890759681
-0.00024245463306356809
-0.0005154368786925765
-0.0005154272529307147
-0.0005154272344186399
-0.0005154368227769867
-0.000862593717804056
-0.0008625908850531607
-0.0008625908782056329
-0.0008625936983493714
-0.0012628719879886183
-0.0012628763982704728
-0.0012628763352944554
-0.001262871796100213
-0.0016934381610231924
-0.001693451142373421
-0.0016934513317099324
-0.001693438736441691
-0.002128068175053595
-0.002128093159966024
-0.00212809216663381
-0.0021280651788114597
-0.0025331300256634126
-0.002533167944203626
-0.002533172181472946
-0.002533142765573607
-0.002866893447828809
-0.0028669536012112746
-0.002866933372488743
-0.0028668327302419972
-0.003039241376969883
-0.003039406673426812
-0.0030394876245974133
-0.003039484269797207
-0.0028668934479715216
-0.002866953601354002
-0.0028669333726314677
-0.002866832730384712
-0.0025331300259090125
-0.0025331679444492434
-0.0025331721817185696
-0.002533142765819214
-0.0021280681753410194
-0.0021280931602534595
-0.002128092166921242
-0.002128065179098877
-0.0016934381613066902
-0.0016934511426569283
-0.0016934513319934422
-0.0016934387367251926
-0.0012628719882332503
-0.0012628763985151124
-0.001262876335539094
-0.0012628717963448456
-0.0008625937179892949
-0.0008625908852384028
-0.0008625908783908758
-0.0008625936985346126
-0.0005154368788134405
-0.0005154272530515791
-0.0005154272345395036
-0.0005154368228978501
-0.0002424546791931727
-0.000242441704536485
-0.00024244168913710752
-0.00024245463312470958
-6.397046799736407e-05
-6.394505646955927e-05
-6.394503487677542e-05
-6.397040317756097e-05
-6.278291498205152e-05
-6.275799816441344e-05
-6.27579769640768e-05
-6.278285138703942e-05
-0.00023779908953555794
-0.0002377864234481835
-0.00023778640773618092
-0.0002377990423709019
-0.0005051519064222917
-0.0005051425630437594
-0.0005051425473166848
-0.0005051518593409477
-0.0008445635929737445
-0.0008445609747326249
-0.0008445609558649432
-0.0008445635360740916
-0.0012349119444623976
-0.0012349164086994024
-0.001234916405008569
-0.0012349119342028436
-0.0016529800401860583
-0.0016529933811908276
-0.0016529933039256008
-0.0016529798063420137
-0.002071415255664809
-0.0020714390070055116
-0.0020714392577982064
-0.002071416012620809
-0.0024562831517499135
-0.002456322750142647
-0.0024563215228930297
-0.002456279461541922
-0.0027528585181322784
-0.0027529254116831167
-0.0027529313062252393
-0.0027528762155018655
-0.0028668934479150446
-0.002866953601297523
-0.0028669333725749886
-0.0028668327303282377
-0.0027528585182684372
-0.0027529254118192825
-0.0027529313063614108
-0.0027528762156380235
-0.0024562831519807883
-0.0024563227503735362
-0.0024563215231239153
-0.0024562794617727928
-0.0020714152559364015
-0.002071439007277112
-0.0020714392580698086
-0.002071416012892398
-0.0016529800404486586
-0.001652993381453434
-0.001652993304188209
-0.001652979806604613
-0.0012349119446870664
-0.0012349164089240775
-0.0012349164052332464
-0.0012349119344275137
-0.0008445635931431331
-0.0008445609749020148
-0.0008445609560343323
-0.0008445635362434815
-0.0005051519065328129
-0.0005051425631542822
-0.0005051425474272077
-0.0005051518594514709
-0.00023779908959106435
-0.0002377864235036879
-0.00023778640779168522
-0.00023779904242640784
-6.278291499746705e-05
-6.275799817982349e-05
-6.275797697948742e-05
-6.278285140245611e-05
-5.926221505234478e-05
-5.923875918328142e-05
-5.9238738831856715e-05
-5.926215399235909e-05
-0.00022402493324527023
-0.00022401315853052254
-0.0002240131434331579
-0.00022402488796425008
-0.0004747856573691165
-0.0004747771140458357
-0.00047477709839668247
-0.000474785610399706
-0.0007914870834226719
-0.0007914849858938283
-0.0007914849705002822
-0.0007914870373015309
-0.001152828799686896
-0.001152833522143093
-0.0011528335070349162
-0.0011528287541914808
-0.0015347803220796172
-0.0015347932074391386
-0.0015347931976267537
-0.0015347802931129492
-0.0019083779120350963
-0.0019084013239421705
-0.001908401284401594
-0.0019083777922089965
-0.0022338238758525635
-0.002233859690972309
-0.002233859915458443
-0.0022338245522288665
-0.0024562831518386416
-0.0024563227502313787
-0.0024563215229817595
-0.0024562794616306474
-0.002533130025827819
-0.002533167944368051
-0.0025331721816373707
-0.0025331427657380224
-0.002456283151950477
-0.0024563227503432198
-0.002456321523093607
-0.0024562794617424884
-0.0022338238760477823
-0.002233859691167538
-0.0022338599156536713
-0.0022338245524240853
-0.001908377912269929
-0.0019084013241770143
-0.0019084012846364404
-0.0019083777924438332
-0.001534780322305937
-0.0015347932076654686
-0.0015347931978530827
-0.0015347802933392725
-0.0011528287998787382
-0.0011528335223349355
-0.0011528335072267578
-0.00115282875438332
-0.0007914870835681923
-0.000791484986039351
-0.0007914849706458065
-0.0007914870374470531
-0.0004747856574642243
-0.0004747771141409428
-0.00047477709849178895
-0.00047478561049481386
-0.00022402493329345673
-0.00022401315857870812
-0.00022401314348134392
-0.00022402488801243832
-5.9262215065900875e-05
-5.923875919683258e-05
-5.9238738845407914e-05
-5.926215400591544e-05
-5.354606250476395e-05
-5.352495668700934e-05
-5.35249375972541e-05
-5.3546005231719455e-05
-0.00020175495721862894
-0.00020174455722202252
-0.0002017445429319493
-0.00020175491435268485
-0.000425918290380444
-0.000425910909094855
-0.0004259108939945792
-0.0004259182450792237
-0.0007065281103075272
-0.0007065266129694002
-0.0007065265990002791
-0.0007065280683911649
-0.0010224295453150807
-0.0010224341153149924
-0.0010224340998325856
-0.0010224294989042856
-0.0013492238051757567
-0.0013492356076244194
-0.0013492355990212038
-0.0013492237792437946
-0.0016567347457835569
-0.0016567540173987095
-0.0016567540012906482
-0.0016567346978398996
-0.0019083779121055536
-0.001908401324012631
-0.0019084012844720582
-0.001908377792279457
-0.0020714152558144582
-0.0020714390071551684
-0.0020714392579478627
-0.002071416012770454
-0.002128068175263856
-0.002128093160176295
-0.0021280921668440805
-0.002128065179021719
-0.0020714152558963615
-0.0020714390072370703
-0.002071439258029763
-0.00207141601285235
-0.0019083779122559133
-0.0019084013241630002
-0.0019084012846224266
-0.0019083777924298218
-0.0016567347459680002
-0.0016567540175831575
-0.0016567540014750942
-0.0016567346980243393
-0.0013492238053573718
-0.0013492356078060402
-0.0013492355992028267
-0.0013492237794254156
-0.0010224295454698208
-0.0010224341154697345
-0.0010224340999873305
-0.0010224294990590261
-0.0007065281104252631
-0.0007065266130871367
-0.000706526599118014
-0.0007065280685089005
-0.0004259182904586169
-0.00042591090917302863
-0.00042591089407275316
-0.0004259182451573987
-0.00020175495725912668
-0.00020174455726251837
-0.00020174454297244496
-0.00020175491439318192
-5.354606251629924e-05
-5.3524956698540834e-05
-5.352493760878586e-05
-5.354600524325529e-05
-4.590252478327919e-05
-4.58845177205965e-05
-4.5884500174505136e-05
-4.590247214162153e-05
-0.0001721683715316992
-0.00017215967042890205
-0.00017215965694703284
-0.00017216833109050494
-0.0003614638215446836
-0.0003614577227318842
-0.00036145770863782825
-0.0003614637792598938
-0.0005954809088050539
-0.000595479734898455
-0.0005954797207422365
-0.000595480866339305
-0.0008540828619275838
-0.0008540865308607061
-0.0008540865181901632
-0.0008540828239074357
-0.001114059632732558
-0.0011140681817072547
-0.0011140681659109663
-0.0011140595853772277
-0.0013492238052248355
-0.0013492356076735008
-0.0013492355990702856
-0.0013492237792928753
-0.001534780322190224
-0.0015347932075497504
-0.0015347931977373664
-0.001534780293223558
-0.0016529800403601131
-0.001652993381364887
-0.0016529933040996575
-0.0016529798065160614
-0.001693438161243152
-0.0016934511425933912
-0.0016934513319299051
-0.0016934387366616564
-0.0016529800404172462
-0.0016529933814220228
-0.0016529933041567967
-0.0016529798065732023
-0.0015347803222945469
-0.0015347932076540765
-0.0015347931978416894
-0.0015347802933278797
-0.0013492238053557102
-0.0013492356078043798
-0.001349235599201168
-0.0013492237794237548
-0.0011140596328660618
-0.001114068181840762
-0.0011140681660444733
-0.0011140595855107308
-0.0008540828620451027
-0.000854086530978228
-0.000854086518307683
-0.000854082824024955
-0.0005954809088962772
-0.000595479734989679
-0.0005954797208334619
-0.0005954808664305301
-0.00036146382160653456
-0.00036145772279373435
-0.0003614577086996775
-0.00036146377932174317
-0.00017216837156416677
-0.00017215967046136957
-0.00017215965697950128
-0.00017216833112297463
-4.59025247927435e-05
-4.588451773005744e-05
-4.588450018396608e-05
-4.5902472151085904e-05
-3.677772541332545e-05
-3.676334618872846e-05
-3.676333027758728e-05
-3.6777677676398535e-05
-0.00013715713246297923
-0.00013715022929817832
-0.00013715021677574547
-0.0001371570948995172
-0.0002859672265745073
-0.0002859622355301757
-0.0002859622220648271
-0.0002859671861755804
-0.00046706125600228773
-0.000467059802760029
-0.0004670597895045127
-0.0004670612162364035
-0.0006627924728810502
-0.0006627939629776358
-0.0006627939490209951
-0.0006627924310117635
-0.0008540828619604557
-0.0008540865308935808
-0.0008540865182230372
-0.0008540828239403108
-0.001022429545392095
-0.0010224341153920093
-0.001022434099909603
-0.0010224294989812975
-0.001152828799813127
-0.0011528335222693279
-0.00115283350716115
-0.0011528287543177084
-0.0012349119446333167
-0.0012349164088703275
-0.0012349164051794971
-0.0012349119343737641
-0.0012628719881904724
-0.0012628763984723346
-0.0012628763354963159
-0.0012628717963020675
-0.0012349119446673515
-0.0012349164089043622
-0.0012349164052135307
-0.001234911934407797
-0.0011528287998752477
-0.001152833522331448
-0.0011528335072232717
-0.0011528287543798295
-0.0010224295454732749
-0.001022434115473191
-0.0010224340999907837
-0.0010224294990624798
-0.0008540828620491076
-0.0008540865309822337
-0.0008540865183116885
-0.0008540828240289606
-0.0006627924729636389
-0.000662793963060225
-0.0006627939491035856
-0.0006627924310943543
-0.00046706125606937556
-0.00046705980282711677
-0.0004670597895716001
-0.0004670612163034913
-0.0002859672266209505
-0.0002859622355766195
-0.00028596222211127166
-0.0002859671862220256
-0.00013715713248792566
-0.00013715022932312408
-0.0001371502168006903
-0.00013715709492446288
-3.677772542066877e-05
-3.6763346196069445e-05
-3.676333028492866e-05
-3.67776776837426e-05
-2.684068562613129e-05
-2.6830169946629773e-05
-2.6830155755741528e-05
-2.6840643051170476e-05
-9.944647037663659e-05
-9.944126005455258e-05
-9.944124849713582e-05
-9.944643570851416e-05
-0.0002056917331730552
-0.0002056874968681544
-0.00020568748424762613
-0.00020569169531029643
-0.00033272336816611374
-0.0003327209522793085
-0.00033272093929285297
-0.00033272332920854806
-0.00046706125602067857
-0.00046705980277842043
-0.0004670597895229042
-0.00046706121625479413
-0.0005954809088519094
-0.0005954797349453117
-0.0005954797207890933
-0.0005954808663861585
-0.0007065281103892166
-0.0007065266130510929
-0.0007065265990819725
-0.0007065280684728564
-0.0007914870835400414
-0.0007914849860112031
-0.0007914849706176578
-0.0007914870374188998
-0.0008445635931198358
-0.0008445609748787205
-0.0008445609560110379
-0.0008445635362201823
-0.00086259371796787
-0.0008625908852169769
-0.0008625908783694507
-0.0008625936985131857
-0.000844563593134509
-0.0008445609748933904
-0.0008445609560257076
-0.0008445635362348534
-0.0007914870835704393
-0.0007914849860415996
-0.0007914849706480542
-0.0007914870374493003
-0.000706528110432893
-0.0007065266130947681
-0.0007065265991256459
-0.0007065280685165307
-0.0005954809089041201
-0.0005954797349975224
-0.0005954797208413046
-0.0005954808664383711
-0.0004670612560738558
-0.00046705980283159794
-0.00046705978957608114
-0.0004670612163079709
-0.0003327233682117241
-0.0003327209523249194
-0.00033272093933846395
-0.0003327233292541591
-0.00020569173320592605
-0.00020568749690102507
-0.00020568748428049662
-0.00020569169534316654
-9.944647039443968e-05
-9.944126007235552e-05
-9.944124851493897e-05
-9.944643572631779e-05
-2.6840685631412136e-05
-2.683016995190883e-05
-2.683015576102059e-05
-2.6840643056451442e-05
-1.7003685529524463e-05
-1.6996860708017822e-05
-1.699684819505014e-05
-1.700364798680737e-05
-6.257989820984599e-05
-6.257594588648538e-05
-6.257593523154278e-05
-6.257986624664347e-05
-0.0001283717875651061
-0.0001283675881137833
-0.00012836757611025832
-0.00012837175155084823
-0.00020569173318089664
-0.00020568749687599605
-0.00020568748425546765
-0.00020569169531813782
-0.0002859672265972367
-0.00028596223555290597
-0.0002859622220875578
-0.00028596718619831066
-0.00036146382158859275
-0.0003614577227757951
-0.0003614577086817387
-0.00036146377930380315
-0.00042591829044716286
-0.00042591090916157653
-0.0004259108940613008
-0.00042591824514594305
-0.0004747856574576937
-0.0004747771141344146
-0.0004747770984852608
-0.0004747856104882822
-0.0005051519065280841
-0.0005051425631495552
-0.0005051425474224805
-0.0005051518594467422
-0.0005154368788072958
-0.0005154272530454358
-0.0005154272345333609
-0.0005154368228917057
-0.0005051519065327756
-0.000505142563154245
-0.0005051425474271707
-0.0005051518594514335
-0.0004747856574691737
-0.0004747771141458925
-0.0004747770984967385
-0.000474785610499761
-0.00042591829046626303
-0.00042591090918067524
-0.00042591089408039944
-0.00042591824516504355
-0.0003614638216143824
-0.00036145772280158305
-0.00036145770870752624
-0.00036146377932959117
-0.00028596722662673564
-0.00028596223558240543
-0.0002859622221170572
-0.0002859671862278102
-0.00020569173320844937
-0.0002056874969035489
-0.00020568748428302064
-0.00020569169534569027
-0.0001283717875855155
-0.00012836758813419293
-0.00012836757613066824
-0.00012837175157125836
-6.257989822111294e-05
-6.257594589775196e-05
-6.257593524280925e-05
-6.25798662579101e-05
-1.7003685532888017e-05
-1.699686071138027e-05
-1.6996848198412648e-05
-1.7003647990171134e-05
-8.39622389400682e-06
-8.392611505016085e-06
-8.392601241056603e-06
-8.396193102246176e-06
-3.073335830625926e-05
-3.0730525355327436e-05
-3.073051613840867e-05
-3.073333066039926e-05
-6.257989821202879e-05
-6.257594588866828e-05
-6.257593523372578e-05
-6.257986624882643e-05
-9.944647038419975e-05
-9.944126006211588e-05
-9.94412485046992e-05
-9.944643571607723e-05
-0.00013715713247958186
-0.00013715022931478168
-0.00013715021679234842
-0.00013715709491611967
-0.00017216837155960033
-0.00017215967045680413
-0.000172159656974935
-0.00017216833111840632
-0.0002017549572581343
-0.00020174455726152795
-0.00020174454297145484
-0.0002017549143921903
-0.00022402493329537205
-0.00022401315858062507
-0.0002240131434832606
-0.00022402488801435275
-0.00023779908959354996
-0.00023778642350617523
-0.00023778640779417273
-0.0002377990424288935
-0.0002424546791939441
-0.0002424417045372569
-0.00024244168913787874
-0.00024245463312547907
-0.0002377990895943319
-0.00023778642350695648
-0.00023778640779495357
-0.00023779904242967516
-0.00022402493329812023
-0.0002240131585833718
-0.0002240131434860074
-0.00022402488801710063
-0.0002017549572641544
-0.00020174455726754636
-0.00020174454297747286
-0.00020175491439820988
-0.00017216837156931955
-0.00017215967046652227
-0.00017215965698465333
-0.00017216833112812586
-0.00013715713249205314
-0.00013715022932725204
-0.00013715021680481867
-0.0001371570949285908
-9.944647039690007e-05
-9.944126007481594e-05
-9.944124851739919e-05
-9.944643572877765e-05
-6.257989822202374e-05
-6.257594589866288e-05
-6.257593524372024e-05
-6.257986625882089e-05
-3.073335831194325e-05
-3.07305253610113e-05
-3.0730516144092634e-05
-3.073333066608356e-05
-8.39622389572199e-06
-8.39261150673061e-06
-8.392601242771118e-06
-8.396193103961284e-06
-2.2971562076583892e-06
-2.295370527920839e-06
-2.295360667281595e-06
-2.2971266216543286e-06
-8.396223894252778e-06
-8.392611505261968e-06
-8.3926012413025e-06
-8.396193102492115e-06
-1.7003685530655855e-05
-1.6996860709148916e-05
-1.6996848196181214e-05
-1.7003647987938778e-05
-2.6840685629161997e-05
-2.6830169949659728e-05
-2.6830155758771467e-05
-2.6840643054201258e-05
-3.677772541915277e-05
-3.676334619455415e-05
-3.676333028341313e-05
-3.677767768222601e-05
-4.5902524792404555e-05
-4.5884517729719186e-05
-4.588450018362793e-05
-4.5902472150747185e-05
-5.3546062517216724e-05
-5.35249566994585e-05
-5.352493760970329e-05
-5.354600524417222e-05
-5.926221506766275e-05
-5.923875919859454e-05
-5.9238738847169716e-05
-5.926215400767687e-05
-6.278291499940823e-05
-6.275799818176433e-05
-6.27579769814278e-05
-6.278285140439608e-05
-6.397046799860672e-05
-6.394505647080182e-05
-6.394503487801764e-05
-6.397040317880273e-05
-6.278291499928314e-05
-6.275799818163896e-05
-6.275797698130237e-05
-6.278285140427066e-05
-5.9262215067855245e-05
-5.9238759198786416e-05
-5.9238738847361565e-05
-5.926215400786908e-05
-5.354606251816823e-05
-5.352495670040913e-05
-5.352493761065379e-05
-5.354600524512339e-05
-4.5902524794350746e-05
-4.588451773166416e-05
-4.588450018557275e-05
-4.5902472152693e-05
-3.6777725422041844e-05
-3.676334619744191e-05
-3.676333028630082e-05
-3.67776776851149e-05
-2.68406856323748e-05
-2.683016995287128e-05
-2.683015576198304e-05
-2.6840643057414064e-05
-1.700368553338827e-05
-1.6996860711880398e-05
-1.69968481989127e-05
-1.7003647990671195e-05
-8.396223895863262e-06
-8.392611506871863e-06
-8.392601242912367e-06
-8.39619310410253e-06
-2.297156208150114e-06
-2.295370528412235e-06
-2.295360667773006e-06
-2.297126622146092e-06
SCALARS von_mises_stress float
LOOKUP_TABLE default
631.0796307255687
760.8079897302594
611.2958523471211
646.3487654467405
676.61293606567
597.2854828286808
693.320009821567
617.9835648238864
495.9665372461465
732.4740248357978
1088.364700333822
1484.9969670135504
1922.6101855440402
2344.254504556852
2666.4225201624517
2954.2629256501764
3160.6357755421745
3195.685886637356
3167.173596850252
2943.0736763271625
2685.5579585872233
2312.400357959069
1914.9531527317138
1485.8305157096736
1114.6789422034606
774.6796383627978
503.52857837354065
540.5453537557189
779.8415575992146
1093.6700985081916
1507.335735415849
1939.3791322822074
2332.7527225137856
2672.967793006844
2969.262108636786
3120.676291219925
3200.5903860777653
3137.9076650810284
2938.970577033675
2683.7128560885617
2317.0616077407913
1895.204224352615
1492.7796224535691
1081.8096078118958
755.4607976029031
462.43492455439866
486.68802857716236
732.6562831456979
1106.5270162993215
1493.5106045508248
1938.0555697545994
2323.657838169489
2682.5082107908356
2966.1163621660407
3172.983329812065
3184.851619787274
3131.3388226979628
2996.24233357807
2657.499388535324
2298.5636429480387
1926.9254678561379
1515.1759294385122
1091.4992639344455
744.6734070629662
495.82329236872033
495.8084330117116
721.7700280066583
1050.1060613404459
1473.1384369988439
1911.1870529505209
2370.1505496840045
2699.4453518217374
2971.512244810473
3132.076246371216
3216.7858533186595
3133.4491685425583
2952.8210743123936
2669.3429216187865
2372.3664862348887
1936.5195207057907
1531.6955096204922
1117.0414907423674
726.4494815815079
485.1511283588146
476.46155080472704
719.963518282155
1074.459550423703
1526.410734782178
1928.0948690231614
2356.367770846641
2711.524421279412
2971.697438252328
3144.186108280358
3209.6358062049057
3121.5565251174426
3009.446096343945
2762.3417257068086
2359.21711317392
1967.3212329162513
1517.0037142354024
1085.1125928066044
690.445804940428
517.9353000460924
483.0550038437625
721.3474504875602
1085.3394190376516
1489.1859571672942
1932.8654197818405
2359.3457058731096
2727.4903779362044
2959.008926430581
3134.1325514397768
3213.0173186603884
3162.079986885947
2998.9897743649303
2719.0789306650263
2339.5539073296077
1928.89929534985
1506.7272053967167
1053.0730830489415
697.0022368488468
512.4218803251075
483.55139252885004
774.7073656320125
1107.894939120778
1492.356558610528
1939.636309001004
2352.543753556062
2730.7035058327738
2979.931093146722
3068.6156200697733
3216.0401788782547
3141.710905274032
2942.8549088784275
2749.164276709864
2405.9585895276946
1928.373041965962
1474.288827983922
1049.0391949761758
742.3359739852035
466.2857794744951
488.2830673357143
703.4042413911342
1082.2004750591768
1532.704385867024
1957.7207895704828
2321.7448604001233
2666.4324476026386
2927.4381149204446
3160.514262453347
3184.145538068126
3143.3076643756363
2983.1456248365985
2692.7887604951793
2287.526709116818
1925.5030273313832
1495.7441854560745
1112.128880249467
743.6144544627577
469.250195274925
375.58659835483485
142.83457213690338
178.6186041538976
419.50989650857684
491.9400815380963
234.838765414837
109.31946101834471
333.4550888906856
357.36871692404293
130.7917375033289
194.38406965088916
436.4413533355887
398.9637536651436
169.48631207127053
147.33823136463252
371.4485384696441
650.7747774357866
1260.390679866199
2286.3904125580325
3469.2025353666368
4738.788142484824
5909.774020877882
6942.790960500875
7734.258694093212
8189.866400359992
8373.564019073789
8190.263374831215
7715.181190064354
6941.732262649891
5911.082030151605
4725.491364461849
3475.6693419455337
2285.0952760658615
1274.291481237357
692.92965950737
1271.5482699920103
1233.5793914361782
1605.7318800309947
2150.5580001849075
2819.9020911580174
3527.623713106356
4213.0473131556755
4745.600442672252
5072.377788454436
5249.857061462384
5100.64315778425
4773.9727920873465
4183.241600652378
3550.9944153703914
2850.0734539971845
2155.5505539605506
1614.3037693381912
1211.1058076675429
1271.0420711142567
2284.292459912361
1634.1411224321346
1585.4230268961314
1612.6902872027495
1859.988434376033
2259.1638779671052
2717.4488846913814
3141.033191788528
3427.977469089252
3517.6756295030377
3429.7009251589434
3130.0788057053655
2705.5864117162855
2231.632311984355
1885.4091457192005
1634.8683429538207
1603.834742923479
1617.1125210066457
2299.5540533490334
3453.8509820977556
2146.2645925177117
1607.7629364173354
1005.1561536068394
613.3274972948984
485.76538989760877
594.1332090595532
790.3135898094955
970.1267230501091
1046.3343126687432
955.5875001748723
790.7803709327317
595.857997439751
465.2648980639444
616.4208959539832
1010.2564800728919
1620.6116435047982
2136.458761845906
3465.5807334836472
4742.051204477149
2828.436564505729
1876.7209203780374
617.7347502728032
519.8936435126317
1373.078801873946
1766.4964302238357
1811.2704649082502
1777.375673674232
1737.162366547594
1754.0611233774391
1834.4830073888393
1771.9567264369605
1380.8239348774148
532.7179182461855
598.1481196061292
1870.3654365680507
2832.0742290027865
4732.093629879687
5919.265660909767
3525.647002561386
2258.5991739760593
465.0382281452388
1357.6243510001793
3157.2338921197443
4425.503303194615
4979.194374908829
5140.617591532433
5064.0297619778785
5142.519246643562
4974.648764132375
4428.688573503479
3158.8940808048237
1378.3678994978764
479.8817142824003
2261.191741174453
3537.1933752424197
5928.702591516584
6954.772568870115
4206.422076634399
2715.3210243208073
603.494954202167
1730.984106795764
4417.026495747539
7131.7143866248425
8862.764043643696
9263.512759633519
9627.85657075876
9243.02493787919
8873.0988695738
7151.245731527757
4404.385477708533
1771.906759540245
599.0740757568229
2740.0867817575713
4230.4593884472615
6933.4253994946075
7723.2932648338365
4749.280375142498
3127.1161576110144
804.7398795243578
1835.8598355699728
4996.015733230978
8840.824411499274
13122.049565168829
15304.864690990133
14462.643142332425
15279.470238682
13162.08482971139
8866.67503683863
4971.46191964046
1846.2142067176906
791.3467494668331
3128.3446666778445
4747.882302275378
7703.906683734019
8194.3815452136
5108.0065023571
3429.9849921386367
982.0127847308646
1792.7249260238716
5125.779517066685
9223.786215574335
15334.332872905978
23062.142817038544
28114.110613987566
23083.497409589767
15288.246870940578
9258.044821607835
5126.044627394401
1783.7648529818061
960.3271089797681
3393.768159059941
5095.763917722334
8193.829772397374
8354.027824398623
5221.53030719925
3496.5864102833116
1052.8650031978373
1729.9817358763457
5081.75979540835
9675.839587070062
14457.000494874384
28104.204730063702
31486.139644435174
28085.22485924044
14471.623500659258
9639.122797070386
5078.549055707087
1740.1486096511653
1066.9576456586922
3554.778885540103
5219.7868045861305
8350.143641881807
8188.249313630575
5100.46988598372
3450.379788591352
982.4192301572567
1782.6971266595167
5135.3120655988105
9242.795232268034
15288.196701309984
23048.712651687703
28139.30189906696
23075.371903921277
15251.104467413354
9234.516382237807
5134.045331609245
1791.5309707629258
976.265880771911
3431.330762150139
5121.057672073376
8157.304613021123
7750.877654894602
4757.473470735592
3119.580713932464
767.5290502723591
1831.5222657981
4960.883860684641
8853.475966904602
13121.563569270005
15315.679084898447
14452.349836238565
15305.328972760266
13119.415417014756
8849.308968294496
5012.926277902817
1845.6326347040115
796.5757320951027
3160.0292912317373
4724.109181882094
7714.032528491681
6965.829442453194
4183.870617734072
2741.332319196293
587.2108935037778
1753.8145612809114
4430.761504521662
7150.623190728396
8839.521043719242
9271.141417496858
9638.896808462274
9215.740463665377
8871.640770196505
7149.440651948248
4432.417449826152
1757.4153626521777
585.9043462252434
2723.6164412979515
4233.204033641266
6947.144633587331
5920.002065689548
3520.324695566639
2240.597615575165
485.35657766630925
1365.4121826919625
3149.5831101872513
4432.641674858353
4963.69427917534
5113.915545603024
5068.3218282099215
5136.867122157214
4959.922011651863
4440.098192726895
3163.304808603526
1363.2903661980445
471.133087269528
2261.2718882424138
3515.2520005158167
5943.983335979605
4715.983777798739
2832.2852091296163
1884.5050761097086
628.5189796060682
539.7393700113838
1344.6462318347228
1742.9042792561272
1816.6276722255814
1758.1580963058245
1765.3006425959188
1766.252671984985
1857.4390469543673
1722.8564624183402
1358.0885801109007
556.631182701757
630.4856645749769
1878.5820162816792
2829.187535700987
4727.900051904905
3472.762955417612
2131.7710049504585
1613.2421200875663
980.6482644817116
606.2508730565858
483.3790943218674
568.8715987923898
791.9110376272201
951.7488066744401
1066.6104701765164
988.1782466179421
788.3080320946317
564.6789302586437
503.7171946938869
636.0422626402593
973.3565232624891
1623.0642084939052
2159.1311890394827
3474.6771710353896
2297.388776614186
1633.700155909572
1571.228249158118
1609.8680350068219
1877.6681690226435
2274.038983806958
2716.002354285356
3145.137503871489
3447.8335752978433
3528.382742923695
3452.446997720875
3148.675141897809
2697.5330784634307
2273.87503180175
1875.8260877630878
1612.869000776343
1595.7375784507512
1626.4432451971054
2269.8627091757435
1253.7972499545992
1218.22638263365
1609.2088893536923
2183.61555047589
2814.486552772556
3540.467706893908
4216.492697736627
4768.146854038729
5094.025603473148
5236.894219744891
5088.725454862548
4751.087531294097
4226.588246767431
3560.0272896041065
2792.384066823873
2141.7764543298813
1652.1901953840134
1182.857376917354
1304.2022767508604
668.5560620985672
1264.266345383669
2284.999544382176
3487.5005458369637
4726.178884584346
5941.096287644406
6950.30396648796
7704.661550830001
8234.758367058212
8385.962046732911
8224.43323100222
7733.030303300892
6925.568249433749
5919.7709899065485
4731.276113597235
3480.911131155313
2290.7091545067765
1268.053278701446
715.8607827656826
664.3184721846043
1260.9566554444639
2270.3993389462576
3476.7898385003236
4739.306865372171
5902.680221596222
6925.493387073657
7732.8375493390395
8216.221996996552
8392.835418059785
8197.215206903486
7737.1829093185925
6941.84670788206
5920.516662162515
4720.302521132202
3484.9449601503725
2292.0340323503065
1284.3259226588552
679.7471903466195
1259.4046907283625
1235.9029158064195
1605.699185432909
2160.175802957103
2818.7072653150162
3548.299761311025
4210.201248940157
4756.87754490412
5083.436082804114
5232.766907527751
5115.840093373643
4774.614781917517
4204.275403341588
3542.5595318997266
2855.553844882201
2159.7555513193724
1609.622367601066
1215.5092951524084
1301.0528583855105
2296.130862021277
1617.3000625510529
1592.7714713684848
1632.143386342524
1872.863878258202
2238.711638399747
2723.5532194420634
3143.1528570643427
3457.431126083394
3523.0945300744024
3434.474086392647
3137.2280561313746
2724.7961912027235
2242.454844540784
1891.8495893890592
1639.7425707096695
1595.0979659201682
1637.5971843616564
2301.6669964566936
3471.7278722476276
2192.268429038709
1593.54024868009
994.4041972039302
624.4522836175239
498.3687500984846
581.5868966054637
811.4448420102168
979.1340559927155
1034.1678119362784
961.565572662157
769.6309701262289
588.8700913066027
466.1963619586992
618.4163460510808
972.7765893050323
1618.7870304735432
2139.112221748685
3456.5646132379243
4714.699114382438
2811.621498634608
1848.96929826174
606.97141540709
509.81243203834714
1370.3888855322582
1746.3656042751572
1850.8830304653184
1761.1873966156109
1752.5750306465795
1771.1775296819242
1826.5885154447178
1751.4739916143305
1351.0173636670204
545.5206814822426
623.7072812162585
1880.7115314419773
2841.753788061513
4742.647177104715
5943.292046556973
3528.6961217798225
2245.178091680128
486.8198567387439
1341.1518854604567
3153.1802016446304
4424.616121150831
5001.914193479093
5144.223352752495
5056.768991909908
5148.143246031404
4964.076219211318
4422.856673214803
3166.5628281301906
1393.432445341006
484.2636028087489
2249.5367492804057
3541.3200611156144
5901.882527392005
6960.6303678973245
4208.2386569085575
2735.8293457686636
603.2254682863396
1749.872617402576
4401.469510731429
7135.463580245401
8823.264321322953
9257.550262335993
9627.90627651788
9264.94866651535
8870.954723374067
7139.963899675009
4436.207666401931
1755.4752981238355
589.8484577869995
2734.6639482904775
4212.945787664001
6952.171483381424
7713.254758606188
4743.734394285621
3141.4192461271637
802.0737026905226
1830.6963704470436
4973.736634521034
8846.499437203982
13145.023702902057
15294.106786862323
14458.321441320306
15292.975343802023
13155.071534214178
8863.362088780379
4963.26480673431
1834.8352535240751
799.9716232146961
3143.768782376183
4752.6536431753
7707.569665105967
8201.094339735451
5101.897316463966
3437.603443158988
979.6297303850023
1764.9345771766418
5114.05005340142
9235.165911680415
15310.428622018166
23074.970462793044
28165.89517897266
23032.964185673387
15288.159498260226
9236.186730825586
5122.50042513772
1784.477432910146
965.6149735803431
3424.159969305128
5119.142624814486
8186.9734478073615
8372.294064359165
5247.986527708236
3505.9175785817415
1089.9131787910758
1768.1248554352003
5091.971202942168
9647.078194920756
14459.360063789094
28171.257442109643
31578.190129375547
28156.053237845066
14454.349600764037
9623.261406159863
5081.536709476256
1748.7196414897564
1062.0121852499908
3558.4815689786483
5238.32057856015
8342.763887579962
8202.348923062016
5108.155701319525
3428.045692746363
985.7792818045177
1773.969654824155
5131.728433296554
9249.763109110232
15291.652340817518
23049.91383609669
28151.846872477614
23048.496982002038
15313.366041241505
9204.353142121547
5132.500849067886
1809.049606787839
989.4289231243077
3428.4245206233563
5110.895399302368
8209.540894667529
7719.976970308997
4767.432175509963
3134.554057017341
773.4622150374386
1828.4623154443375
4969.261435444023
8872.889167064925
13127.529574893862
15301.906226342664
14462.048117542432
15307.31692295369
13116.152516430206
8848.990207697578
4976.137216261277
1823.0009785986224
783.036026927149
3177.4367601634913
4749.860851905437
7715.217518714691
6944.036038929993
4213.615085812035
2752.7321096412265
594.8502791608216
1762.9224789735765
4441.398586094415
7127.367168413702
8869.332596226264
9232.03666745041
9645.101653996295
9209.032112626544
8869.407236442265
7141.25329096986
4445.302616167506
1743.5702277278747
573.3036021190077
2733.61723783502
4206.6510059060465
6927.745111127317
5918.393969732917
3524.5622307118606
2250.8257132857507
480.5550773187328
1319.936561411379
3147.33253659236
4429.046879524405
4950.529161305541
5126.287455245802
5044.81459045993
5145.483062179794
4956.254467678463
4439.028552623849
3142.7520905493766
1360.2352769540125
492.40725315423884
2235.9185523102065
3522.456942946145
5952.059184194363
4728.237736217593
2813.162444567075
1884.5896311915976
606.8591142316304
546.4708587991756
1357.06575145426
1743.0649156082757
1837.4025527575445
1770.5421931058672
1750.9001463970362
1754.676316623081
1873.1091505288018
1757.0600341581112
1340.4239066028904
537.6831597311374
605.9709865526196
1886.1753056981263
2818.6824261118572
4755.1391215795165
3476.992327812596
2166.5233252808607
1612.448517470404
987.8725532886302
601.1153541815099
494.1339162501087
581.8302021217123
805.1030274604159
974.2456755588543
1054.529743776016
993.5666708657508
786.0581798508983
602.1454212170232
484.79907098156536
627.0305887740979
997.3944651252427
1619.7617501555176
2143.4854307818914
3463.0626738929336
2279.785913100161
1588.53476171967
1580.7924531702147
1618.9380458051298
1898.845305048291
2271.2536186001316
2718.4160536095233
3173.9760269690737
3430.3427080509923
3544.9815206399358
3435.7699848217853
3158.0938182835903
2730.405631027043
2264.045690199293
1871.7516619437706
1620.9527188085135
1605.913214974437
1604.7263097247887
2280.299132878157
1238.1070152799468
1200.9388031820588
1647.3581647122583
2175.3852512144945
2814.079329659927
3543.265484284317
4208.461629114909
4768.106693803378
5100.105395195456
5256.014296481883
5075.339601266808
4777.563828679082
4199.378291781812
3556.6995163759516
2807.2556573073534
2151.689595728831
1626.4285856060487
1231.06898713482
1278.0933304864818
680.1866802981042
1300.6355307585382
2262.0575221930517
3493.0409204296957
4742.024867458497
5924.5972334203425
6950.41024495532
7725.180849630006
8219.485332439863
8374.842685914115
8243.732687589965
7725.803271334299
6917.830612914677
5948.294468933296
4720.424174010583
3479.21578601979
2293.8672026860063
1281.2405468805553
692.4064726967193
305.8962818856159
138.17307581906775
124.47489408079973
287.392502488338
468.1359409226459
257.929397705812
251.2546443748427
456.8648908922618
715.5809845725481
435.7315557049109
429.12147157623866
703.2980243152269
986.4076034939374
631.8880016133681
649.5500627997649
1021.3842787503288
1294.6344193896314
848.8451437242908
851.0997875210317
1299.2216405980728
1582.3386824239578
1044.5229247466593
1049.3033036614522
1592.2287975371473
1803.3258857539527
1202.6242485263515
1220.7729036745966
1840.7760987484533
2000.110746978171
1331.3521306675948
1338.876336675721
2015.267553617583
2140.566774156914
1418.3334843232826
1411.4874136346498
2126.642043229777
2163.0378458267733
1436.8826320957119
1441.947963682148
2173.8742061208313
2149.519348683524
1425.3922802767497
1406.346408143279
2110.7434460200748
1987.4865318125287
1324.4026691647512
1351.3670525917694
2042.8966201207945
1807.511061924364
1198.677653073684
1230.8909259026198
1872.789237101684
1559.8123375845298
1036.1363591486388
1056.018242697926
1600.0015739951361
1283.3785873274778
841.0596888053725
862.8316270791612
1327.3815742070433
988.3104092874491
633.5322495539377
647.0996587337395
1015.0146874657195
732.6471981367126
442.19671118591395
428.3365619421775
706.8722245063082
504.395987354
280.79208199672615
236.81933848948552
429.2054506367042
304.7703294967007
131.20480973204766
140.14916025575883
317.33475412022955
339.20275701878415
157.9428118728913
117.38917355762646
284.548669122559
502.76912937096625
274.5979385588493
242.61139442488468
449.609265218174
717.1061761949471
434.2029179553694
430.105828872829
709.6024915010387
1006.722270963141
641.8914762435339
634.3048359704044
991.6075539257904
1304.0172594580508
850.0687353994249
848.0610237682897
1299.4731080141212
1573.367115359365
1040.29109121736
1051.6365875881208
1596.2241884394473
1804.079022417432
1199.7949723502245
1222.490389050129
1850.2914474282404
2012.889737503093
1337.8180180450279
1333.442743361154
2004.052497695659
2114.3134470195487
1408.9656688156804
1414.834314377376
2126.1309793543846
2165.4796963819726
1437.7797317288075
1443.1338100531943
2176.264662921805
2122.824219029383
1410.6996405281186
1420.0465200967164
2142.3823495730157
1985.8810257411358
1324.1158881982826
1348.6664602955514
2036.242267159272
1812.8370139298484
1203.778866797565
1218.4747908998938
1842.7712457350933
1566.4369237561689
1040.0871463766857
1048.9898641780976
1584.8921188194786
1275.5602189986732
841.512141049932
855.6456494748493
1304.1610558724403
994.4362043640783
635.8040868216572
641.5401353880584
1005.9458408510347
714.5280074449039
437.8648715506938
424.5418151169257
689.4367914030848
488.4331922905417
270.47866090132186
240.19661963727216
436.65101909439323
274.109599393062
115.72521264865726
149.6788411412309
320.8077180707184
297.35184431143324
132.61693456083918
131.26204514478243
295.1421567037891
458.6376026546731
246.64448666009622
269.7268572461512
496.88717149137636
722.7011832948755
434.5886728041466
435.23844600444045
723.9117947999085
997.2655140540431
639.3054130253865
639.3026664809912
996.940379854836
1302.0168254608013
848.4154057094257
849.5867097329799
1304.0320995023117
1568.248763869637
1039.12087188219
1051.3671885416534
1593.0135567437549
1810.4787803824056
1202.5879213221
1222.7411970663309
1851.4268853740807
2007.4892938941637
1333.8476159705403
1339.3450477975296
2018.8752628417683
2161.0945522798215
1433.9967168711253
1391.3884914672358
2073.468205410804
2154.232262717093
1432.3847635989364
1444.6832583831774
2179.771729270177
2121.0530944917145
1410.9823810752546
1414.705565573852
2129.073295105366
2034.2315834175938
1348.4231336457499
1326.701544459534
1989.6045863605743
1790.5133900980009
1193.1255571795302
1230.655382895475
1867.3488617348962
1542.5244626738618
1023.9164909462195
1068.2303371211863
1632.7352792045242
1297.567878109706
849.6704873456927
850.0256093802664
1298.4529033406827
1015.4096132548917
648.1515214558091
630.4284277261114
980.4621583824259
722.3836701834539
442.01577907940907
421.9787812477794
684.8567815022618
473.29740777999353
256.9565630500535
255.0116949422521
470.4287422309753
307.49672350123484
140.9136331837681
120.68995844558276
279.80682481969626
303.73294701428506
135.34924399300485
130.16589503183107
296.6930158951648
463.5708662246863
258.43218829266016
248.29621038390536
446.56318481940656
687.749922961453
424.4388424707833
438.9072605991015
715.3242172309707
976.8411660429804
627.3958637544446
653.2815383477955
1027.7962270379207
1281.8245390037828
840.467699486452
859.777856125132
1320.90465190405
1605.1154577204713
1055.7932354341629
1035.6101059819139
1564.1573498987261
1832.6610849994197
1216.9507992050485
1202.8129392883473
1804.1117852973346
2020.1092170362224
1344.2922167577826
1325.504167440181
1982.051456514726
2118.8355966933377
1408.4422180445147
1419.1805460159312
2141.488126180903
2181.5716071125735
1447.025059486805
1433.4194280289269
2153.839102071679
2122.2130740370076
1411.3044262267092
1414.876929676198
2129.8714310070914
1997.4263017472251
1329.0644357926597
1341.4455137299813
2022.8514540059348
1807.9920568796633
1205.599911885793
1214.860937349732
1827.24837985316
1613.0456374028863
1063.799442128634
1028.3260893196625
1540.9141644391616
1304.1313398190318
851.6373526937938
846.8205214912952
1294.580202954618
1023.1141091325562
648.2812881805647
632.4810638584757
992.2244428323928
728.9067095189066
435.6363019065462
433.3376332473573
724.6845848116494
459.9397609725392
251.75170911451085
260.8339244763966
475.2949382141834
299.0600634447009
136.3439581859823
126.0030027043257
284.5923463127891
375.7386693917574
121.30672516937234
134.50156052716972
389.22888441347845
736.4415778807187
248.6108861766039
249.3552875330294
737.1461192070523
1341.7989188888382
452.5912562790244
438.6631421810744
1327.0274214901533
2032.3746814269505
675.4163019874118
682.3099253081831
2039.5944310184625
2779.3372892264997
925.2128990953403
924.8470329192278
2779.2553338658063
3467.063287846672
1154.5448721963392
1149.1819643030935
3461.1250678995875
4074.947115148397
1358.7703726939983
1344.1207911320676
4059.320454809811
4537.455758080911
1508.3210044524485
1504.9548910926792
4534.737086327223
4800.457270317227
1588.0972635518435
1607.2000593592654
4822.098482263258
4909.155590613801
1625.7764461050913
1639.5496161152505
4924.860265010163
4804.034346080084
1595.0666647569983
1596.6708064279712
4807.439541379505
4522.585345340427
1497.0476248497127
1513.3681294038392
4540.923603421347
4072.1617300467187
1353.6595186108616
1352.2594404950696
4071.273457867071
3465.1945539191497
1149.347818362689
1158.179176427324
3474.291769499898
2772.498678720118
924.7221261632315
918.8855356339898
2766.849941793118
2036.5327733472454
676.9771314720958
683.5978671389076
2044.118551053476
1337.6999953765276
445.220175306114
450.05570284991137
1343.2954927153974
743.6102620768098
248.86684294998676
256.53325010669437
752.2270977595063
405.2527217386222
138.73060060199222
127.91133356343931
393.5164284382549
745.8976824059039
256.03716229669925
243.64499969482833
733.3821057611271
716.1284107828786
237.59504711112984
239.49242328718805
718.2206820951174
934.190900878237
311.91387496282096
312.0168832314248
934.2773004527801
1251.1631102472572
416.1231081421788
423.4281725413013
1259.3439525656927
1643.4121821965953
549.6411242201792
549.0919080406401
1642.643829133738
2052.7827963327227
679.1758794431023
698.4265752566935
2072.7499237633783
2457.6048005977163
820.5830841795943
817.1856254426581
2454.3716188116737
2766.98506485441
919.9862540182228
925.9027008493455
2774.7494133927653
2957.239607210184
982.6845723690642
989.034914347222
2965.2167163755034
3065.553930646889
1025.8887228513688
1008.9350377840351
3048.4020368796173
2973.017771742184
986.3336705238319
997.1504709701122
2985.398183303311
2784.8713043753664
928.1280287119977
926.8030246067092
2784.1964240917027
2436.2905606749405
807.2198819137251
823.6907618484751
2454.4682611635344
2072.209656890718
694.7495415416303
686.3043639430746
2063.666224484712
1660.170032679391
553.2145839665712
558.3129399479644
1665.474260634345
1254.7342522665392
418.59517060630816
421.69263037978413
1258.2830376828692
940.1212264453928
315.3603212266911
310.9370939129539
935.5556128621622
702.3844378691596
232.51539645751905
236.29022367362813
706.4144159448437
738.7236549546889
242.1349216243523
265.533894653074
764.7676600097108
1336.6018031113413
443.6962316460267
452.1821521341721
1346.3071971888762
953.8784118123511
323.15121356142106
308.3714517156545
938.245093727412
921.4947023209166
300.47236369528804
307.09693843788136
928.3943508148586
936.8569934596211
304.8169547569157
319.0453562700001
952.9094366518481
1082.5516053007789
353.47241079674313
362.8448855848736
1093.1162985828257
1321.1177956834717
440.6391045244114
422.6882781874453
1302.3031480075235
1585.3651465506928
520.1097773664786
524.0611656404324
1590.0395883294827
1835.0853149590364
604.7530284757747
601.2632326472198
1833.4676444271859
1998.0343126670537
650.0009257687229
671.5356943235626
2022.2226629999216
2053.4089164643337
674.1648572180364
677.0507219134951
2057.1411630021375
2002.5699693179567
657.9911197066323
659.356443050522
2005.0705427927094
1826.8050332868124
599.4695864301153
603.2072825612589
1831.6913664784431
1576.506224056947
513.8391273796392
528.3103467990363
1592.5847333673537
1301.0918052738912
426.7116389810521
431.8694442891855
1308.1659084242317
1099.1173862493993
361.4047596771273
363.51855001729257
1102.7041168335277
951.5292922945933
312.9093331339682
316.7192634098252
955.7233000619814
934.4207282986263
308.68712030515866
302.9129470375796
927.6640095031308
937.5109364729561
307.1626103149508
325.03489586503827
956.4881146081163
1347.5319279769228
450.4244493511736
449.57186905269515
1347.681693447049
2022.6214518525928
670.4703722853318
683.4520224365114
2037.3680375341705
1243.6551932049786
404.6177104310699
440.6139624411029
1283.4736456912563
939.0295266303812
314.6413756888641
300.67112734771047
924.9362488979167
587.8871660334271
203.61063026074504
193.68510934137905
577.4495275008595
357.6513348190185
127.1447276622632
134.11195717268043
366.4597637819228
285.2175456854658
109.68820329031287
116.41715166368756
294.7227802798851
352.16327886413256
134.91875509686207
123.45132830481447
339.30993847776966
461.1437116545655
158.47860790431378
173.53799454368172
478.9570204240101
568.5570415650884
194.89012504539303
198.95825367650977
574.3968173938839
616.1903667461063
216.69227124078628
205.84708397088625
604.5297159989915
559.6094905987884
191.85730038750896
195.9094267618284
564.4308641804149
468.02839653493925
171.6131940735199
153.31606436189725
447.8244359228464
351.7299394669639
132.4807328563276
126.58479828621564
344.9614547650566
274.30339492850015
108.7871439503606
109.26921738817173
274.98376647213854
360.542410012311
130.01901444883953
131.02632119522545
361.96338765957023
595.3978376578765
213.5783230172507
180.62032657380146
560.0624507621403
944.386945896852
312.5944942289429
310.24086750395037
942.1997774139612
1244.3151399250337
416.23750764149287
416.52176646160996
1245.4140400674216
2033.0467217317755
680.3381386557302
672.6182361820382
2024.8643117653182
2785.224604763224
934.4223998180986
911.5593901794398
2760.691225222516
1650.7000666144188
556.0579545652075
543.091935873055
1636.307073268092
1098.5523711958954
369.743951466857
345.248431777195
1072.9174426312632
363.1718380995613
133.82054718872942
125.15894617776111
353.2361338406527
307.8747954867769
114.61636784180077
107.1001746511849
298.98062036218306
802.0448486626359
270.0347888499812
268.859742527867
800.3488677841411
1031.5315679708235
348.26429571496476
332.2223683748209
1013.9850604178772
1044.810908934315
333.3389402246007
369.5437639028059
1082.3750903360649
1032.493106021905
344.3472450460024
332.4026867875743
1019.0765215005375
1004.0606919281594
324.84855857253535
337.114632096247
1017.4202785037635
1014.1206915469586
329.86444066567555
344.2889423437923
1029.5532557705467
1066.5675109695521
354.3939547225074
348.45792449535696
1059.9653710255068
1035.4791617155508
350.4288558156207
331.8817638077681
1016.1148053640446
811.5334491696248
281.41892600002495
255.2181720661769
783.7067390059634
311.5997192836237
109.71104834121721
120.26632664802838
323.58534038784654
346.51060179428595
120.21357236215171
138.1563848663136
368.1734576741571
1089.112022712065
356.4267496732942
363.42015798975456
1097.242340798579
1650.035407941514
550.1230389826355
555.5501799641322
1656.9720145638476
2774.346371715378
921.4409626125703
927.9867403822446
2782.3049124924805
3468.02413434983
1146.467282648229
1166.7955062878827
3489.747803925177
2054.7986085631896
685.2336952579601
688.2176687534817
2057.8507539238867
1320.0113071195192
438.7041402157178
425.70888684503706
1306.858341075491
271.58934761767614
104.18062959647419
117.50205418695377
289.48545232547923
794.8512829655424
271.11168864422615
259.11601313758865
781.1770281273066
1842.2320607706492
609.5606176558744
607.1090562208522
1839.2414654615998
2579.0910419034894
849.9721156987805
850.5366038436492
2579.191894110543
2894.2992849411244
945.4552375041628
967.3646264354986
2916.557556945861
2988.8328476203296
979.4446638753892
984.4101313528591
2993.3738669114846
2946.392661299957
976.482600218546
969.6327154815123
2939.3709791618453
2990.0641022931386
979.7488809283167
985.3031841495485
2995.663440312843
2897.0242334732056
955.9051778908029
948.4181306000273
2888.4978853828666
2582.475173986858
853.3459190528829
847.3114138213668
2576.5094829202876
1841.8122814695216
606.7969129430377
612.5900610811706
1848.2651796815082
802.310928107632
265.32132033999727
278.96907913245036
816.6449174878319
282.0487584473233
109.92448921154956
113.61825805519832
286.44027775113085
1320.451893086332
437.44737600256633
428.2827627286258
1310.4375990020192
2062.1124902878546
688.1093647249184
689.8747551684429
2064.700316839068
3483.1306483137055
1167.4076741591048
1139.8882965761632
3455.6748637078754
4079.164841661886
1354.7601195522504
1357.488356637632
4082.958285153535
2453.1788931736946
818.2313248079386
818.0158961971812
2453.6426833352507
1581.8233851661205
514.9779646524821
531.1545629519694
1599.47227041489
356.20460987021454
133.3916011726342
129.88663092805106
353.4658275609951
1003.7051431028367
327.60415552425894
346.43272873644196
1022.7404786616829
2576.50446546793
853.3480794282624
841.0607044741423
2563.0986425951182
4156.99794091302
1365.329258301699
1370.2207910045245
4161.520927351769
5170.321704284018
1711.3909692398058
1679.2386988767603
5135.670318021067
5391.742269471962
1773.4843315043054
1771.7963072977655
5388.622728137083
5607.916169743363
1848.5298160594607
1847.3154414596322
5607.160960286027
5375.978132738372
1761.4344321550384
1781.3942685674658
5396.641786154275
5170.38042953849
1700.7463108690047
1701.1421974386533
5169.939203806331
4170.897431944468
1374.1772524386708
1366.070200016801
4161.744484758262
2560.7183907264757
833.9736035019549
864.5704750305009
2591.824568699893
1033.929496521711
347.91222140092685
335.24998287948654
1019.8951011683271
353.52625458863974
133.05310740877647
126.71278514108076
345.69423269103595
1600.3147711211793
528.0312393486438
522.7078720362824
1594.9488428750226
2470.3723338298023
829.0315871165691
812.4140642544533
2453.279617101019
4064.5692202763194
1346.351686275926
1359.7783519268335
4079.8934727640744
4531.108525753188
1507.2156359741878
1499.9973376628388
4522.923212580802
2771.267322463788
925.4571667648335
918.716741870922
2764.86706453408
1824.2309880398886
596.9780120596247
605.9978668937993
1835.024914075187
472.9154650843944
167.77261610083013
165.16628173864933
470.16101830438765
1066.726964136266
353.36321837390096
350.50630086776226
1063.1052107765413
2911.087720093214
963.1625155829455
947.3151920739301
2893.0715532913737
5150.132701510066
1691.9199432887683
1699.0650470610449
5156.802488935294
7648.601959265919
2506.6782041553925
2526.7648236841987
7669.698546709305
8921.936868376786
2940.1003750976224
2932.0687103024475
8912.992134299762
8432.040872289086
2871.01648509568
2874.5630771004176
8433.04665858454
8902.51900256507
2926.233280072495
2940.9866299924233
8916.914434821336
7676.829589767181
2524.0953580021906
2519.2165813906545
7671.2470225223315
5166.774413853224
1699.8896057748593
1699.394303478081
5165.35424037437
2894.1738539688954
953.5599522200134
950.135440674374
2889.1516943999736
1073.3268391064257
356.6214803578949
349.9339954251081
1065.0429435231788
464.1481727514205
163.09527248650699
167.13370892696938
469.8971062334427
1824.2005855596892
595.9457676127103
607.6642065468171
1837.1673763687213
2769.132252571131
922.2714171082131
923.3395383952972
2771.4727145110737
4518.609505970401
1500.558830478945
1501.8493758692425
4520.706177188647
4805.435949767171
1594.3017452053639
1598.950093876099
4810.799470349983
2980.6626438279254
994.5621240960147
987.4473328984699
2973.8116151063123
2002.4855815317128
657.398415507162
660.6130816730392
2007.1723688873633
576.6567717072141
199.69989612115324
196.25172253267664
573.4502804072436
1043.8289130790843
351.70427247929376
329.10275042075654
1019.3650164475443
2981.613264695366
980.3407984872126
974.6796663267342
2973.9270975373847
5365.382248844518
1759.884392077785
1773.3397313491298
5378.18612202968
8941.635456063814
2950.4118138053227
2930.7819869169753
8920.556086878476
13456.754616119226
4422.97797920292
4438.394187604913
13471.322483211794
16471.27801850467
5596.746868104099
5634.6909695004015
16514.80442988199
13480.001456158105
4448.893760753261
4408.603820160419
13436.22559703964
8910.70863437369
2933.7207629169648
2934.1837094406183
8911.004132354034
5391.485228744385
1778.4505892754194
1761.5933587445752
5372.930976040755
2981.208434393349
978.761301389581
978.0531273484401
2979.5577849014685
1033.4725160323326
339.7657440063566
342.9026739040905
1035.838339507478
563.2069041076486
194.01142267788154
195.38181961324207
565.910256770435
1977.5505302734732
642.9461166049499
665.3124129050649
2002.6049987458016
2969.3708423334815
983.3932131800939
999.7978615671782
2988.261492499857
4808.131799505556
1599.9365870561014
1590.575830281601
4799.560333815922
4898.714557142902
1623.833050016489
1633.8584261374403
4911.570932886516
3042.2055878241317
1006.6010465108048
1025.8489625052177
3064.05013589075
2040.2712475240248
668.6605298218234
675.0280035981215
2047.6285367205426
613.2640708234215
203.65658355645147
230.41246435399967
644.3196082801047
994.9070127993417
313.9007162279854
349.73632266396373
1031.5555120677896
2953.0598743142095
972.4291143988683
983.7649652159405
2964.100461185315
5640.580718636775
1866.9293525941503
1842.010037338049
5614.3347486265675
8427.407336557273
2867.443043462661
2877.112257279568
8434.87129033955
16463.63564485381
5590.824043199562
5639.589771316838
16519.71714474857
18371.627872589845
6004.502189191255
6104.38047761339
18468.88807283148
16451.994358211417
5586.246122576345
5637.824632008671
16511.27304968695
8439.638457633293
2877.156886525049
2869.509839893257
8428.57285787425
5616.169941265569
1854.543202030668
1842.6153290076795
5602.918520853464
2951.9119104048705
973.7062627993625
979.9871993718135
2957.139227974808
1005.8362707661347
326.1526410009862
335.61787551062866
1015.0280421236292
627.7747337034582
218.86539561665793
212.33334079509652
621.5589520693725
2076.3720787514153
683.0754875838066
682.3712253639268
2077.1468132898403
3042.5094478445685
1008.9414803196825
1021.0629046883547
3056.8970684844367
4900.240804102001
1631.034974369749
1619.897777711886
4890.312931524471
4800.818448429631
1590.9239933908614
1601.2579114219454
4812.499583686754
2973.828265791514
988.2869110516597
993.6656742675009
2980.03347386183
2018.1165823524236
669.521797754999
650.6712542327931
1998.0763697964023
577.0558705612311
199.40279190441706
197.93561847236742
577.1511360749633
1034.655234187152
343.14980448900457
337.19385751550874
1027.7607554565893
2986.7506829776066
980.6316256269879
979.755459233658
2984.9793518233573
5377.612398917222
1765.489030222762
1774.2832522208766
5385.832383870519
8910.497473516261
2933.0660477124297
2935.5879481326397
8913.36519739661
13450.439264672035
4423.8599073583355
4430.126848765006
13455.017429468044
16492.827838439043
5614.867875995253
5618.804008860121
16499.818992300534
13472.10791543594
4440.562756868498
4418.322537931062
13448.285924617763
8878.974873328736
2905.8625895890013
2959.771713926592
8935.830444941746
5378.21030684752
1775.5711006180527
1753.7865752059529
5353.581774110796
2985.057947315503
978.7966288164044
981.5092981319771
2986.3599268370313
1035.121515180444
335.21130225241285
353.7564853802944
1053.4298145301207
570.1843370577252
192.7800732009601
204.10279228655833
582.4542567528378
2003.9708454733575
659.7949180436249
656.5970356752179
2000.8536414686491
2990.5729218799515
1000.7708324357825
985.7739114960449
2977.062633701298
4777.278810686591
1573.511216879369
1614.3423162466402
4822.185759343835
4551.796027754912
1521.129858954357
1492.6819956667064
4522.363790807885
2773.2344961273316
921.1879413168714
928.8355039094969
2781.7439912080217
1818.6226951641813
593.6863445854109
606.414565179837
1832.1060770575805
450.2395548567419
159.12998592656382
161.66839464561073
454.0172000386171
1063.3598489557905
351.2102012568474
351.2596235934164
1062.3854264966815
2885.7053582975627
946.6243266858745
956.1489508392725
2894.8835169243553
5155.489703541457
1689.9827482479186
1708.6935429490147
5174.5017862337745
7651.40511203905
2512.8354281345287
2517.0463643811145
7656.231517385737
8928.61050207304
2942.814844017815
2933.17109016577
8917.5772703195
8423.702379535116
2864.5803125829043
2879.846219346779
8437.499982525687
8920.416123539995
2936.141571381312
2938.8722559134403
8922.922673457057
7651.802963180507
2515.6726334794703
2511.6902530231
7648.073086811977
5155.265748193156
1694.353464881312
1698.725378350045
5158.081208441905
2923.424821344351
971.4516810556197
942.7490699611324
2891.9650539995455
1075.0034821467225
360.6089776427247
343.5129358850698
1055.9706731437727
469.80034639866693
169.6959616866789
158.51671277833117
457.26474415001786
1842.6281370600418
601.4699891716714
615.0019087563916
1857.4520081830703
2751.8461571465004
911.0077393359245
929.3223393635476
2772.822248823576
4525.262096133594
1503.75342632952
1502.0737588654088
4524.540660908169
4089.3059242884865
1364.8765624402033
1346.0847335724736
4069.4028040230082
2434.8688828005265
803.9229357317682
828.9587845069022
2461.7547365810233
1598.8493983870264
523.2825585764073
531.2869142357829
1608.0058216801774
344.4534071199102
127.1221772567197
132.04628069705615
350.70090651152356
1018.2173324441145
334.48518404514186
346.5758016911416
1029.420241253061
2579.3885275860353
845.6455899724534
859.1719883123601
2591.9959144055483
4172.666542901976
1378.3526099142093
1359.3495160426996
4152.227948487638
5145.627239342771
1683.8636031978488
1711.2838472888934
5173.9191978829485
5402.2659975260485
1787.157954319602
1754.8304775837375
5367.620311134287
5612.814380666036
1847.4969134834726
1853.9346606502995
5619.217745928563
5363.733433994137
1764.6786482233715
1761.8092782063936
5359.583365641218
5169.930782275612
1700.9747179146646
1700.5847840593096
5168.940242123368
4169.420523163254
1372.926355881834
1367.1555300689936
4162.844412784336
2580.1843837529195
845.6385227521628
860.2323897758379
2594.2628101447303
1024.5732938385381
343.62750162031773
334.33821261630976
1013.6779257317281
347.1467104902947
133.14170301018902
122.17041809254793
334.63980740111305
1588.964519231213
520.8934228303649
526.478751353575
1596.0441875761364
2473.855623020098
833.2038737609793
808.0386589773999
2447.9582887695406
4077.9801629731587
1360.5718503946898
1343.530703894169
4060.040892779499
3472.2465702470176
1154.7473177601921
1154.1159688156636
3471.316968021698
2051.6199382801324
684.0499200707371
687.6727671147071
2055.495059972576
1306.0665800382526
428.06582467080085
433.97635582944434
1313.443830877368
287.5093259088402
114.31862849642062
108.99446643389906
281.6788593214819
803.9155004005374
281.9856657505247
245.71325149170812
763.9816731865102
1836.6492969945978
606.3039548656142
607.6082250881925
1836.7818246382883
2583.528390003307
851.8081916869103
851.0060623625031
2581.8108650572967
2890.7228677679363
954.2247545730412
945.5294036691618
2880.522838203129
2971.5503480303732
971.0622653568673
984.1579318744868
2984.434190094851
2950.3339585796934
980.8720368371162
963.8418386157159
2931.050315744191
2985.840118211813
977.0231017797673
986.3762978007749
2994.9831271401513
2887.071351637682
950.5801708948437
949.4476201174717
2885.1079757928114
2587.3269447251205
852.1623577947422
854.0309226467195
2588.229659177478
1848.074832884707
615.7268130936071
599.9276887653193
1830.6226594616408
795.9447489218401
267.9161293759573
267.3527728406507
794.5410595247403
275.06177965188675
104.63917984559534
117.96684471919299
292.70772861515763
1324.422212569507
444.59709522994547
418.6600108913446
1298.6413164257724
2048.798069967061
682.9909900520053
686.9749272885045
2053.9229328834203
3485.310474546164
1156.8604480468707
1163.1273235542146
3492.2258694126085
2763.7237299392764
916.6137554349508
926.8709417302215
2774.7711432798937
1653.9409218286762
558.3771092840014
541.6446489590131
1636.2102665709194
1099.141918346467
362.6332071742792
360.7263577581329
1097.908862699253
371.39136381166014
139.2226803902418
121.6448770149534
351.2998564215951
316.80203668839187
113.15318539432045
119.15265629590971
323.45161120517594
782.7836628420974
259.7217899372611
271.4088988431347
794.9221725253847
1013.948772673843
336.43682753941727
338.6983131662881
1015.5420682637166
1051.0942868791228
340.7799382821188
360.67353833852036
1071.4184698683464
1016.4600625555267
330.86865697219736
344.02463278278645
1029.4338273858518
1024.5980157495094
338.9332945185195
328.30544839721193
1012.7080330034023
1025.7647040823783
341.55245313162686
331.9957215979709
1015.4916996923062
1076.558128531252
351.09029693966136
365.1097272661843
1091.2138371247722
997.0792188630891
321.936295602326
351.93788984318434
1028.776725458879
795.379231224215
271.92118422272705
258.5386445926196
780.3499679451536
330.1139266686815
122.87601094941961
110.52952276604121
314.7679930318698
374.0791974250584
142.15444003989
119.5570069950579
349.33874012526115
1093.9979615111747
358.2951579705303
364.2012989367218
1100.4848033807582
1650.5464616929673
554.6305200883662
545.8390295305439
1641.0815005695158
2767.9052140051626
913.2374886858868
937.6152705619791
2793.4364816720517
2035.500062027861
677.8036614691042
680.5462795596462
2038.7910244579903
1235.6796483709893
403.7935280401658
433.4766786849747
1267.482365973771
939.3545889887295
310.1246120250536
310.03142980460416
939.0356750912977
570.128822676723
192.58114448329562
198.74052525836404
576.8178480222526
355.6172065741093
130.09707779647667
125.48547203034829
350.5140106364409
283.3307047804726
109.03849980934652
116.40353584389526
292.7295079698406
333.26239288430514
123.03073584679588
130.7395680525867
343.41219132088247
463.7855761744296
161.8850917963959
169.51256104391658
473.61529288434366
554.8309973951106
186.18102528706288
203.41674563144554
574.3597016295571
628.5318059417485
220.92649947033513
209.10938076461053
616.2241669743995
578.5253188673643
197.53867346229498
202.21810867328927
583.568127445848
463.449262688299
165.10017180221197
162.12641613551838
460.56043993305775
327.21818222459234
115.62830847060565
141.15226972763696
359.0221091453225
300.7996264832723
121.8061604072187
105.79034549287773
281.84982230789876
374.2590866488168
137.3679633391094
128.50989943211704
364.80790605739367
563.8110197326844
186.89960927906134
204.90479864153147
584.3229739502298
946.1487112209397
313.6908274662937
309.7030538089621
942.3742831390247
1259.611920878137
425.107664852821
412.9489710454831
1246.1367887045233
2038.323325516042
682.2843605590042
673.9350140622427
2028.8372517812497
1348.468130637761
455.09071212090527
440.2612200952703
1332.5846015515026
957.1647866094895
330.9703564795208
295.08144409668097
917.7515846160719
911.6496260212376
295.26022855669623
307.1586863023309
922.7802197150951
935.9030119643844
306.3813379296515
314.327024960253
944.2668268003601
1092.0492416321254
354.69002775570897
370.0293457631837
1109.387675348184
1327.3714193146259
438.1161178400773
434.34233742198603
1323.9313680874352
1585.5553846634864
521.8737318072782
520.8916384441625
1585.6982702598716
1833.0909209016477
596.4847945603301
616.2913341518147
1855.9535481308171
2017.003813117698
669.2813015028205
650.7972860218215
1998.8380495093656
2057.906064199445
672.4438999431701
685.1341684552991
2071.902235647895
2018.9767761284986
668.9411865470453
653.1077428953271
2002.839762857012
1838.0813248587408
603.2410445214916
607.2274548013462
1843.8654025119959
1570.0562594072414
508.4854532540201
533.0143363048128
1597.4010217688433
1328.5545785382876
440.68954547319294
430.385659694549
1318.4009864171358
1094.3187936951074
361.79231134866234
357.37002589166354
1089.9972892412927
938.4460492884483
308.1085745267474
313.48897161021097
944.7650516038146
927.7290674319918
302.4154038830506
309.7236369312839
936.0025289889306
950.2642048301386
323.62743447860584
303.97470358135337
929.6920833906047
1327.6069762098693
440.3935981364558
449.4190815144261
1337.1967952045457
735.5925615767611
253.27130564803394
239.088054403272
720.6447051764831
710.131829605452
241.04861369195078
226.263932577418
694.3688713839606
930.0224158710806
299.8584315663863
332.78051384239603
965.1059492959452
1274.5653818901683
429.8449641967518
418.9010584263104
1264.4170719128745
1642.1195657547478
551.3354669977798
545.2222881210348
1637.8544543592532
2064.2735974044704
689.0934850711009
689.6358613469005
2065.5841818417603
2460.2654304339026
822.7581180528647
815.3319608457225
2452.558999890082
2782.655898495269
928.9712996816276
923.3266113180784
2778.8508339068107
2971.577507754548
989.6295049869781
989.2909398702251
2973.397546624006
3051.691168521934
1010.9150169306705
1026.012497634812
3068.278533389219
2970.329009473575
993.2907243036433
979.7782712700865
2956.726515013197
2767.622878413308
915.8651686660835
935.1208128688992
2789.505715015825
2469.501004672893
831.3605298967049
807.0444732656969
2443.9535251251436
2076.4719685473374
694.4029752692142
690.8167796192823
2072.951603120651
1625.8048080699955
540.89821360288
550.3584277440376
1637.2271805347812
1246.4786798052905
415.18675989899987
421.029862022859
1253.7672508655783
965.8999152189792
329.5004651387144
306.9529428602735
942.0358872719513
678.4946598958783
212.44545884915038
253.806394649013
722.6155869540535
766.4889118836899
265.7180882179389
244.31559692393657
743.1315953956973
387.4524323824878
126.79440680802104
135.27341402602025
397.1275670499576
733.5988380451322
238.59765394658896
267.79509940780633
765.7685005455264
1342.8759968239208
455.89395690812063
433.5007677723132
1320.0958914943953
2043.809962187764
680.0155064035296
684.32259124419
2048.5745750307187
2768.9821289973156
917.0356156865553
930.9301800266146
2783.656232241684
3487.64789981738
1164.5292959965986
1149.4254399176125
3472.0042078267893
4076.5719625015136
1354.426930641372
1354.6688832943328
4076.771775442553
4516.2256099652195
1495.00165705996
1510.8062454464468
4533.730411641612
4832.840191910394
1609.4707562710194
1595.2183167007267
4818.192038586778
4920.639999999331
1637.365235679452
1626.7521492164024
4909.801345207693
4821.947959447103
1597.1121714756819
1610.169400895002
4837.182167481954
4537.5249761428295
1509.8877834650125
1501.5790388757841
4529.539988953477
4063.317002099977
1352.4255129837468
1345.5085919791122
4056.1077704396057
3468.111285913671
1145.7985954441065
1168.6308507463275
3493.0081397495105
2777.3698040156723
928.5651443469776
916.4422939015226
2765.5954097867207
2041.9085122344425
682.3276644790715
678.205808186652
2038.5826841241246
1341.077935265908
446.7609463804741
449.7860370047302
1344.2011388425415
738.3883066119195
245.1227052750089
257.9446029336319
751.5900104553072
420.0433168097395
145.93660911435325
127.75330178005315
399.8816859230852
