# vtk DataFile Version 2.0
Generated Volume Mesh
ASCII
DATASET UNSTRUCTURED_GRID
POINTS 2646 float
0.0 0.0 0.0
20.0 0.0 0.0
20.0 20.0 0.0
0.0 20.0 0.0
0.0 0.0 0.1
20.0 0.0 0.1
20.0 20.0 0.1
0.0 20.0 0.1
0.999999999999102 0.0 0.0
1.999999999998378 0.0 0.0
2.999999999996569 0.0 0.0
3.999999999993648 0.0 0.0
4.999999999990727 0.0 0.0
5.999999999987806 0.0 0.0
6.999999999984885 0.0 0.0
7.999999999982034 0.0 0.0
8.999999999983277 0.0 0.0
9.999999999984798 0.0 0.0
10.99999999998632 0.0 0.0
11.99999999998784 0.0 0.0
12.99999999998936 0.0 0.0
13.99999999999088 0.0 0.0
14.9999999999924 0.0 0.0
15.99999999999392 0.0 0.0
16.99999999999544 0.0 0.0
17.99999999999696 0.0 0.0
18.99999999999848 0.0 0.0
20.0 0.999999999999102 0.0
20.0 1.999999999998378 0.0
20.0 2.999999999996569 0.0
20.0 3.999999999993648 0.0
20.0 4.999999999990727 0.0
20.0 5.999999999987806 0.0
20.0 6.999999999984885 0.0
20.0 7.999999999982034 0.0
20.0 8.999999999983277 0.0
20.0 9.999999999984798 0.0
20.0 10.99999999998632 0.0
20.0 11.99999999998784 0.0
20.0 12.99999999998936 0.0
20.0 13.99999999999088 0.0
20.0 14.9999999999924 0.0
20.0 15.99999999999392 0.0
20.0 16.99999999999544 0.0
20.0 17.99999999999696 0.0
20.0 18.99999999999848 0.0
19.0 20.0 0.0
18.0 20.0 0.0
17.0 20.0 0.0
15.99999999999999 20.0 0.0
14.99999999999999 20.0 0.0
13.99999999999999 20.0 0.0
12.99999999999999 20.0 0.0
11.99999999999999 20.0 0.0
10.99999999999999 20.0 0.0
9.999999999999993 20.0 0.0
8.999999999999995 20.0 0.0
7.999999999999993 20.0 0.0
6.999999999999995 20.0 0.0
5.999999999999996 20.0 0.0
4.999999999999996 20.0 0.0
3.999999999999996 20.0 0.0
3.0 20.0 0.0
1.999999999999996 20.0 0.0
1.0 20.0 0.0
0.0 19.0 0.0
0.0 18.0 0.0
0.0 17.0 0.0
0.0 15.99999999999999 0.0
0.0 14.99999999999999 0.0
0.0 13.99999999999999 0.0
0.0 12.99999999999999 0.0
0.0 11.99999999999999 0.0
0.0 10.99999999999999 0.0
0.0 9.999999999999993 0.0
0.0 8.999999999999995 0.0
0.0 7.999999999999993 0.0
0.0 6.999999999999995 0.0
0.0 5.999999999999996 0.0
0.0 4.999999999999996 0.0
0.0 3.999999999999996 0.0
0.0 3.0 0.0
0.0 1.999999999999996 0.0
0.0 1.0 0.0
0.999999999999102 0.0 0.1
1.999999999998378 0.0 0.1
2.999999999996569 0.0 0.1
3.999999999993648 0.0 0.1
4.999999999990727 0.0 0.1
5.999999999987806 0.0 0.1
6.999999999984885 0.0 0.1
7.999999999982034 0.0 0.1
8.999999999983277 0.0 0.1
9.999999999984798 0.0 0.1
10.99999999998632 0.0 0.1
11.99999999998784 0.0 0.1
12.99999999998936 0.0 0.1
13.99999999999088 0.0 0.1
14.9999999999924 0.0 0.1
15.99999999999392 0.0 0.1
16.99999999999544 0.0 0.1
17.99999999999696 0.0 0.1
18.99999999999848 0.0 0.1
20.0 0.999999999999102 0.1
20.0 1.999999999998378 0.1
20.0 2.999999999996569 0.1
20.0 3.999999999993648 0.1
20.0 4.999999999990727 0.1
20.0 5.999999999987806 0.1
20.0 6.999999999984885 0.1
20.0 7.999999999982034 0.1
20.0 8.999999999983277 0.1
20.0 9.999999999984798 0.1
20.0 10.99999999998632 0.1
20.0 11.99999999998784 0.1
20.0 12.99999999998936 0.1
20.0 13.99999999999088 0.1
20.0 14.9999999999924 0.1
20.0 15.99999999999392 0.1
20.0 16.99999999999544 0.1
20.0 17.99999999999696 0.1
20.0 18.99999999999848 0.1
19.0 20.0 0.1
18.0 20.0 0.1
17.0 20.0 0.1
15.99999999999999 20.0 0.1
14.99999999999999 20.0 0.1
13.99999999999999 20.0 0.1
12.99999999999999 20.0 0.1
11.99999999999999 20.0 0.1
10.99999999999999 20.0 0.1
9.999999999999993 20.0 0.1
8.999999999999995 20.0 0.1
7.999999999999993 20.0 0.1
6.999999999999995 20.0 0.1
5.999999999999996 20.0 0.1
4.999999999999996 20.0 0.1
3.999999999999996 20.0 0.1
3.0 20.0 0.1
1.999999999999996 20.0 0.1
1.0 20.0 0.1
0.0 19.0 0.1
0.0 18.0 0.1
0.0 17.0 0.1
0.0 15.99999999999999 0.1
0.0 14.99999999999999 0.1
0.0 13.99999999999999 0.1
0.0 12.99999999999999 0.1
0.0 11.99999999999999 0.1
0.0 10.99999999999999 0.1
0.0 9.999999999999993 0.1
0.0 8.999999999999995 0.1
0.0 7.999999999999993 0.1
0.0 6.999999999999995 0.1
0.0 5.999999999999996 0.1
0.0 4.999999999999996 0.1
0.0 3.999999999999996 0.1
0.0 3.0 0.1
0.0 1.999999999999996 0.1
0.0 1.0 0.1
0.0 0.0 0.01999999999995601
0.0 0.0 0.0399999999998959
0.0 0.0 0.0599999999998943
0.0 0.0 0.07999999999994742
20.0 0.0 0.01999999999995601
20.0 0.0 0.0399999999998959
20.0 0.0 0.0599999999998943
20.0 0.0 0.07999999999994742
20.0 20.0 0.01999999999995601
20.0 20.0 0.0399999999998959
20.0 20.0 0.0599999999998943
20.0 20.0 0.07999999999994742
0.0 20.0 0.01999999999995601
0.0 20.0 0.0399999999998959
0.0 20.0 0.0599999999998943
0.0 20.0 0.07999999999994742
0.999999999999147 0.999999999999955 0.0
0.9999999999991918 1.999999999999916 0.0
0.9999999999992367 2.999999999999829 0.0
0.9999999999992815 3.999999999999678 0.0
0.9999999999993263 4.999999999999535 0.0
0.9999999999993713 5.999999999999385 0.0
0.9999999999994164 6.999999999999237 0.0
0.9999999999994611 7.999999999999095 0.0
0.9999999999995062 8.999999999999158 0.0
0.999999999999551 9.999999999999236 0.0
0.999999999999596 10.99999999999931 0.0
0.9999999999996407 11.99999999999939 0.0
0.9999999999996858 12.99999999999946 0.0
0.9999999999997308 13.99999999999953 0.0
0.9999999999997753 14.99999999999961 0.0
0.9999999999998204 15.99999999999969 0.0
0.9999999999998653 16.99999999999977 0.0
0.9999999999999102 17.99999999999985 0.0
0.999999999999955 18.99999999999992 0.0
1.999999999998458 0.9999999999999103 0.0
1.999999999998539 1.999999999999834 0.0
1.999999999998621 2.999999999999657 0.0
1.999999999998701 3.999999999999361 0.0
1.999999999998782 4.999999999999068 0.0
1.999999999998863 5.999999999998779 0.0
1.999999999998944 6.999999999998483 0.0
1.999999999999025 7.999999999998196 0.0
1.999999999999106 8.99999999999832 0.0
1.999999999999187 9.999999999998472 0.0
1.999999999999268 10.99999999999863 0.0
1.999999999999349 11.99999999999878 0.0
1.99999999999943 12.99999999999893 0.0
1.999999999999511 13.99999999999907 0.0
1.999999999999592 14.99999999999923 0.0
1.999999999999672 15.99999999999939 0.0
1.999999999999754 16.99999999999954 0.0
1.999999999999834 17.99999999999969 0.0
1.999999999999915 18.99999999999985 0.0
2.999999999996741 0.9999999999998653 0.0
2.999999999996913 1.999999999999754 0.0
2.999999999997084 2.999999999999486 0.0
2.999999999997256 3.999999999999044 0.0
2.999999999997427 4.999999999998607 0.0
2.999999999997598 5.999999999998168 0.0
2.99999999999777 6.999999999997728 0.0
2.999999999997941 7.999999999997296 0.0
2.999999999998114 8.999999999997488 0.0
2.999999999998284 9.999999999997716 0.0
2.999999999998456 10.99999999999794 0.0
2.999999999998628 11.99999999999817 0.0
2.999999999998799 12.9999999999984 0.0
2.999999999998971 13.99999999999862 0.0
2.999999999999142 14.99999999999885 0.0
2.999999999999313 15.99999999999908 0.0
2.999999999999485 16.99999999999931 0.0
2.999999999999657 17.99999999999953 0.0
2.999999999999828 18.99999999999977 0.0
3.999999999993964 0.9999999999998204 0.0
3.999999999994283 1.999999999999672 0.0
3.9999999999946 2.999999999999314 0.0
3.999999999994917 3.999999999998726 0.0
3.999999999995235 4.999999999998141 0.0
3.999999999995553 5.999999999997558 0.0
3.999999999995869 6.999999999996973 0.0
3.999999999996187 7.999999999996401 0.0
3.999999999996505 8.999999999996648 0.0
3.999999999996822 9.999999999996955 0.0
3.99999999999714 10.99999999999726 0.0
3.999999999997456 11.99999999999756 0.0
3.999999999997774 12.99999999999786 0.0
3.999999999998092 13.99999999999817 0.0
3.999999999998409 14.99999999999847 0.0
3.999999999998727 15.99999999999878 0.0
3.999999999999044 16.99999999999908 0.0
3.999999999999361 17.99999999999939 0.0
3.999999999999678 18.99999999999969 0.0
4.999999999991191 0.9999999999997755 0.0
4.999999999991652 1.999999999999592 0.0
4.999999999992117 2.999999999999143 0.0
4.999999999992581 3.99999999999841 0.0
4.999999999993044 4.99999999999768 0.0
4.999999999993507 5.999999999996948 0.0
4.999999999993971 6.999999999996218 0.0
4.999999999994435 7.999999999995502 0.0
4.999999999994898 8.999999999995817 0.0
4.999999999995362 9.999999999996195 0.0
4.999999999995826 10.99999999999658 0.0
4.999999999996289 11.99999999999696 0.0
4.999999999996753 12.99999999999733 0.0
4.999999999997216 13.99999999999771 0.0
4.99999999999768 14.99999999999809 0.0
4.999999999998142 15.99999999999848 0.0
4.999999999998607 16.99999999999886 0.0
4.999999999999069 17.99999999999923 0.0
4.999999999999532 18.99999999999962 0.0
5.999999999988415 0.9999999999997308 0.0
5.999999999989027 1.999999999999511 0.0
5.999999999989636 2.999999999998971 0.0
5.999999999990243 3.999999999998092 0.0
5.999999999990854 4.999999999997215 0.0
5.999999999991464 5.99999999999634 0.0
5.999999999992072 6.999999999995461 0.0
5.999999999992681 7.999999999994603 0.0
5.999999999993292 8.99999999999498 0.0
5.999999999993901 9.999999999995435 0.0
5.99999999999451 10.99999999999589 0.0
5.999999999995119 11.99999999999634 0.0
5.999999999995731 12.9999999999968 0.0
5.999999999996339 13.99999999999726 0.0
5.999999999996948 14.99999999999771 0.0
5.999999999997558 15.99999999999817 0.0
5.999999999998169 16.99999999999863 0.0
5.999999999998778 17.99999999999908 0.0
5.999999999999385 18.99999999999955 0.0
6.999999999985641 0.9999999999996855 0.0
6.999999999986395 1.99999999999943 0.0
6.999999999987152 2.9999999999988 0.0
6.999999999987908 3.999999999997774 0.0
6.999999999988663 4.999999999996753 0.0
6.999999999989418 5.999999999995731 0.0
6.999999999990174 6.999999999994707 0.0
6.99999999999093 7.999999999993706 0.0
6.999999999991685 8.999999999994142 0.0
6.99999999999244 9.999999999994674 0.0
6.999999999993195 10.99999999999521 0.0
6.999999999993952 11.99999999999574 0.0
6.999999999994706 12.99999999999627 0.0
6.999999999995461 13.9999999999968 0.0
6.999999999996219 14.99999999999733 0.0
6.999999999996972 15.99999999999787 0.0
6.999999999997728 16.9999999999984 0.0
6.999999999998485 17.99999999999894 0.0
6.999999999999239 18.99999999999947 0.0
7.999999999982932 0.999999999999641 0.0
7.999999999983829 1.999999999999349 0.0
7.999999999984725 2.999999999998627 0.0
7.999999999985626 3.999999999997457 0.0
7.999999999986523 4.999999999996289 0.0
7.99999999998742 5.999999999995119 0.0
7.999999999988319 6.999999999993952 0.0
7.999999999989218 7.99999999999281 0.0
7.999999999990116 8.99999999999331 0.0
7.999999999991013 9.999999999993914 0.0
7.99999999999191 10.99999999999453 0.0
7.99999999999281 11.99999999999513 0.0
7.999999999993705 12.99999999999574 0.0
7.999999999994604 13.99999999999634 0.0
7.999999999995502 14.99999999999696 0.0
7.999999999996402 15.99999999999757 0.0
7.999999999997299 16.99999999999818 0.0
7.999999999998197 17.99999999999878 0.0
7.999999999999095 18.9999999999994 0.0
8.999999999984112 0.9999999999995959 0.0
8.99999999998495 1.999999999999268 0.0
8.999999999985786 2.999999999998457 0.0
8.999999999986622 3.99999999999714 0.0
8.999999999987454 4.999999999995826 0.0
8.999999999988294 5.999999999994511 0.0
8.999999999989129 6.999999999993195 0.0
8.999999999989964 7.99999999999191 0.0
8.999999999990802 8.999999999992472 0.0
8.999999999991637 9.999999999993154 0.0
8.999999999992472 10.99999999999384 0.0
8.99999999999331 11.99999999999452 0.0
8.999999999994142 12.99999999999521 0.0
8.99999999999498 13.99999999999589 0.0
8.999999999995815 14.99999999999658 0.0
8.99999999999665 15.99999999999726 0.0
8.999999999997488 16.99999999999795 0.0
8.999999999998323 17.99999999999862 0.0
8.999999999999158 18.99999999999932 0.0
9.999999999985562 0.9999999999995508 0.0
9.999999999986315 1.999999999999187 0.0
9.999999999987079 2.999999999998284 0.0
9.999999999987839 3.999999999996822 0.0
9.9999999999886 4.999999999995362 0.0
9.999999999989356 5.999999999993901 0.0
9.999999999990116 6.99999999999244 0.0
9.999999999990877 7.999999999991012 0.0
9.999999999991637 8.999999999991637 0.0
9.999999999992394 9.999999999992394 0.0
9.999999999993154 10.99999999999316 0.0
9.999999999993914 11.99999999999391 0.0
9.999999999994674 12.99999999999467 0.0
9.999999999995435 13.99999999999543 0.0
9.999999999996195 14.9999999999962 0.0
9.999999999996955 15.99999999999696 0.0
9.999999999997716 16.99999999999772 0.0
9.999999999998476 17.99999999999848 0.0
9.999999999999233 18.99999999999924 0.0
10.999999999987 0.9999999999995061 0.0
10.99999999998769 1.999999999999106 0.0
10.99999999998837 2.999999999998113 0.0
10.99999999998906 3.999999999996505 0.0
10.99999999998974 4.999999999994898 0.0
10.99999999999042 5.999999999993292 0.0
10.99999999999111 6.999999999991685 0.0
10.99999999999179 7.999999999990116 0.0
10.99999999999247 8.999999999990802 0.0
10.99999999999315 9.999999999991637 0.0
10.99999999999384 10.99999999999247 0.0
10.99999999999452 11.99999999999331 0.0
10.99999999999521 12.99999999999414 0.0
10.99999999999589 13.99999999999498 0.0
10.99999999999658 14.99999999999581 0.0
10.99999999999726 15.99999999999665 0.0
10.99999999999794 16.99999999999748 0.0
10.99999999999863 17.99999999999832 0.0
10.99999999999931 18.99999999999916 0.0
11.99999999998845 0.9999999999994611 0.0
11.99999999998906 1.999999999999025 0.0
11.99999999998966 2.999999999997942 0.0
11.99999999999027 3.999999999996188 0.0
11.99999999999088 4.999999999994435 0.0
11.99999999999148 5.999999999992681 0.0
11.99999999999209 6.999999999990928 0.0
11.9999999999927 7.999999999989218 0.0
11.99999999999331 8.999999999989964 0.0
11.99999999999391 9.999999999990877 0.0
11.99999999999453 10.99999999999179 0.0
11.99999999999513 11.9999999999927 0.0
11.99999999999574 12.99999999999361 0.0
11.99999999999634 13.99999999999452 0.0
11.99999999999696 14.99999999999544 0.0
11.99999999999756 15.99999999999635 0.0
11.99999999999817 16.99999999999726 0.0
11.99999999999878 17.99999999999817 0.0
11.99999999999939 18.99999999999908 0.0
12.99999999998989 0.9999999999994165 0.0
12.99999999999042 1.999999999998944 0.0
12.99999999999096 2.99999999999777 0.0
12.99999999999148 3.99999999999587 0.0
12.99999999999202 4.999999999993971 0.0
12.99999999999255 5.999999999992071 0.0
12.99999999999308 6.999999999990173 0.0
12.99999999999361 7.999999999988319 0.0
12.99999999999415 8.999999999989129 0.0
12.99999999999467 9.999999999990116 0.0
12.99999999999521 10.99999999999111 0.0
12.99999999999574 11.99999999999209 0.0
12.99999999999627 12.99999999999308 0.0
12.9999999999968 13.99999999999407 0.0
12.99999999999733 14.99999999999506 0.0
12.99999999999787 15.99999999999605 0.0
12.9999999999984 16.99999999999703 0.0
12.99999999999893 17.99999999999802 0.0
12.99999999999946 18.99999999999901 0.0
13.99999999999133 0.9999999999993715 0.0
13.99999999999178 1.999999999998863 0.0
13.99999999999225 2.999999999997599 0.0
13.9999999999927 3.999999999995553 0.0
13.99999999999315 4.999999999993509 0.0
13.99999999999361 5.999999999991465 0.0
13.99999999999406 6.999999999989418 0.0
13.99999999999452 7.999999999987421 0.0
13.99999999999498 8.999999999988294 0.0
13.99999999999543 9.999999999989356 0.0
13.99999999999589 10.99999999999042 0.0
13.99999999999635 11.99999999999148 0.0
13.9999999999968 12.99999999999255 0.0
13.99999999999726 13.99999999999361 0.0
13.99999999999771 14.99999999999467 0.0
13.99999999999817 15.99999999999574 0.0
13.99999999999862 16.9999999999968 0.0
13.99999999999908 17.99999999999787 0.0
13.99999999999953 18.99999999999893 0.0
14.99999999999278 0.9999999999993265 0.0
14.99999999999316 1.999999999998782 0.0
14.99999999999354 2.999999999997427 0.0
14.99999999999392 3.999999999995236 0.0
14.9999999999943 4.999999999993044 0.0
14.99999999999468 5.999999999990852 0.0
14.99999999999505 6.999999999988662 0.0
14.99999999999543 7.999999999986523 0.0
14.99999999999581 8.999999999987455 0.0
14.9999999999962 9.9999999999886 0.0
14.99999999999658 10.99999999998974 0.0
14.99999999999696 11.99999999999088 0.0
14.99999999999733 12.99999999999202 0.0
14.99999999999772 13.99999999999315 0.0
14.99999999999809 14.9999999999943 0.0
14.99999999999847 15.99999999999544 0.0
14.99999999999886 16.99999999999658 0.0
14.99999999999923 17.99999999999771 0.0
14.99999999999961 18.99999999999886 0.0
15.99999999999423 0.9999999999992817 0.0
15.99999999999453 1.999999999998701 0.0
15.99999999999483 2.999999999997256 0.0
15.99999999999513 3.999999999994917 0.0
15.99999999999544 4.999999999992582 0.0
15.99999999999574 5.999999999990245 0.0
15.99999999999605 6.999999999987907 0.0
15.99999999999635 7.999999999985627 0.0
15.99999999999665 8.99999999998662 0.0
15.99999999999696 9.999999999987839 0.0
15.99999999999726 10.99999999998905 0.0
15.99999999999757 11.99999999999027 0.0
15.99999999999787 12.99999999999149 0.0
15.99999999999817 13.9999999999927 0.0
15.99999999999848 14.99999999999392 0.0
15.99999999999878 15.99999999999514 0.0
15.99999999999908 16.99999999999634 0.0
15.99999999999939 17.99999999999757 0.0
15.99999999999969 18.99999999999878 0.0
16.99999999999567 0.9999999999992367 0.0
16.99999999999589 1.99999999999862 0.0
16.99999999999612 2.999999999997084 0.0
16.99999999999635 3.999999999994599 0.0
16.99999999999658 4.999999999992117 0.0
16.99999999999681 5.999999999989635 0.0
16.99999999999703 6.999999999987152 0.0
16.99999999999726 7.999999999984728 0.0
16.99999999999748 8.999999999985786 0.0
16.99999999999771 9.999999999987079 0.0
16.99999999999795 10.99999999998837 0.0
16.99999999999817 11.99999999998966 0.0
16.9999999999984 12.99999999999095 0.0
16.99999999999862 13.99999999999224 0.0
16.99999999999885 14.99999999999354 0.0
16.99999999999908 15.99999999999483 0.0
16.99999999999931 16.99999999999611 0.0
16.99999999999954 17.99999999999741 0.0
16.99999999999977 18.99999999999871 0.0
17.9999999999971 0.9999999999991919 0.0
17.99999999999726 1.999999999998539 0.0
17.99999999999742 2.999999999996913 0.0
17.99999999999756 3.999999999994282 0.0
17.99999999999771 4.999999999991655 0.0
17.99999999999787 5.999999999989024 0.0
17.99999999999802 6.999999999986395 0.0
17.99999999999817 7.999999999983828 0.0
17.99999999999832 8.999999999984947 0.0
17.99999999999847 9.999999999986318 0.0
17.99999999999863 10.99999999998769 0.0
17.99999999999878 11.99999999998906 0.0
17.99999999999893 12.99999999999042 0.0
17.99999999999909 13.99999999999179 0.0
17.99999999999923 14.99999999999316 0.0
17.99999999999939 15.99999999999453 0.0
17.99999999999954 16.99999999999589 0.0
17.99999999999969 17.99999999999726 0.0
17.99999999999984 18.99999999999863 0.0
18.99999999999856 0.9999999999991468 0.0
18.99999999999863 1.999999999998458 0.0
18.99999999999871 2.999999999996741 0.0
18.99999999999878 3.999999999993965 0.0
18.99999999999886 4.99999999999119 0.0
18.99999999999893 5.999999999988415 0.0
18.99999999999901 6.999999999985643 0.0
18.99999999999909 7.999999999982932 0.0
18.99999999999917 8.999999999984116 0.0
18.99999999999924 9.999999999985558 0.0
18.99999999999932 10.999999999987 0.0
18.9999999999994 11.99999999998845 0.0
18.99999999999947 12.99999999998989 0.0
18.99999999999954 13.99999999999133 0.0
18.99999999999962 14.99999999999278 0.0
18.99999999999969 15.99999999999423 0.0
18.99999999999977 16.99999999999566 0.0
18.99999999999985 17.99999999999711 0.0
18.99999999999992 18.99999999999856 0.0
0.999999999999147 0.999999999999955 0.1
0.9999999999991918 1.999999999999916 0.1
0.9999999999992367 2.999999999999829 0.1
0.9999999999992815 3.999999999999678 0.1
0.9999999999993263 4.999999999999535 0.1
0.9999999999993713 5.999999999999385 0.1
0.9999999999994164 6.999999999999237 0.1
0.9999999999994611 7.999999999999095 0.1
0.9999999999995062 8.999999999999158 0.1
0.999999999999551 9.999999999999236 0.1
0.999999999999596 10.99999999999931 0.1
0.9999999999996407 11.99999999999939 0.1
0.9999999999996858 12.99999999999946 0.1
0.9999999999997308 13.99999999999953 0.1
0.9999999999997753 14.99999999999961 0.1
0.9999999999998204 15.99999999999969 0.1
0.9999999999998653 16.99999999999977 0.1
0.9999999999999102 17.99999999999985 0.1
0.999999999999955 18.99999999999992 0.1
1.999999999998458 0.9999999999999103 0.1
1.999999999998539 1.999999999999834 0.1
1.999999999998621 2.999999999999657 0.1
1.999999999998701 3.999999999999361 0.1
1.999999999998782 4.999999999999068 0.1
1.999999999998863 5.999999999998779 0.1
1.999999999998944 6.999999999998483 0.1
1.999999999999025 7.999999999998196 0.1
1.999999999999106 8.99999999999832 0.1
1.999999999999187 9.999999999998472 0.1
1.999999999999268 10.99999999999863 0.1
1.999999999999349 11.99999999999878 0.1
1.99999999999943 12.99999999999893 0.1
1.999999999999511 13.99999999999907 0.1
1.999999999999592 14.99999999999923 0.1
1.999999999999672 15.99999999999939 0.1
1.999999999999754 16.99999999999954 0.1
1.999999999999834 17.99999999999969 0.1
1.999999999999915 18.99999999999985 0.1
2.999999999996741 0.9999999999998653 0.1
2.999999999996913 1.999999999999754 0.1
2.999999999997084 2.999999999999486 0.1
2.999999999997256 3.999999999999044 0.1
2.999999999997427 4.999999999998607 0.1
2.999999999997598 5.999999999998168 0.1
2.99999999999777 6.999999999997728 0.1
2.999999999997941 7.999999999997296 0.1
2.999999999998114 8.999999999997488 0.1
2.999999999998284 9.999999999997716 0.1
2.999999999998456 10.99999999999794 0.1
2.999999999998628 11.99999999999817 0.1
2.999999999998799 12.9999999999984 0.1
2.999999999998971 13.99999999999862 0.1
2.999999999999142 14.99999999999885 0.1
2.999999999999313 15.99999999999908 0.1
2.999999999999485 16.99999999999931 0.1
2.999999999999657 17.99999999999953 0.1
2.999999999999828 18.99999999999977 0.1
3.999999999993964 0.9999999999998204 0.1
3.999999999994283 1.999999999999672 0.1
3.9999999999946 2.999999999999314 0.1
3.999999999994917 3.999999999998726 0.1
3.999999999995235 4.999999999998141 0.1
3.999999999995553 5.999999999997558 0.1
3.999999999995869 6.999999999996973 0.1
3.999999999996187 7.999999999996401 0.1
3.999999999996505 8.999999999996648 0.1
3.999999999996822 9.999999999996955 0.1
3.99999999999714 10.99999999999726 0.1
3.999999999997456 11.99999999999756 0.1
3.999999999997774 12.99999999999786 0.1
3.999999999998092 13.99999999999817 0.1
3.999999999998409 14.99999999999847 0.1
3.999999999998727 15.99999999999878 0.1
3.999999999999044 16.99999999999908 0.1
3.999999999999361 17.99999999999939 0.1
3.999999999999678 18.99999999999969 0.1
4.999999999991191 0.9999999999997755 0.1
4.999999999991652 1.999999999999592 0.1
4.999999999992117 2.999999999999143 0.1
4.999999999992581 3.99999999999841 0.1
4.999999999993044 4.99999999999768 0.1
4.999999999993507 5.999999999996948 0.1
4.999999999993971 6.999999999996218 0.1
4.999999999994435 7.999999999995502 0.1
4.999999999994898 8.999999999995817 0.1
4.999999999995362 9.999999999996195 0.1
4.999999999995826 10.99999999999658 0.1
4.999999999996289 11.99999999999696 0.1
4.999999999996753 12.99999999999733 0.1
4.999999999997216 13.99999999999771 0.1
4.99999999999768 14.99999999999809 0.1
4.999999999998142 15.99999999999848 0.1
4.999999999998607 16.99999999999886 0.1
4.999999999999069 17.99999999999923 0.1
4.999999999999532 18.99999999999962 0.1
5.999999999988415 0.9999999999997308 0.1
5.999999999989027 1.999999999999511 0.1
5.999999999989636 2.999999999998971 0.1
5.999999999990243 3.999999999998092 0.1
5.999999999990854 4.999999999997215 0.1
5.999999999991464 5.99999999999634 0.1
5.999999999992072 6.999999999995461 0.1
5.999999999992681 7.999999999994603 0.1
5.999999999993292 8.99999999999498 0.1
5.999999999993901 9.999999999995435 0.1
5.99999999999451 10.99999999999589 0.1
5.999999999995119 11.99999999999634 0.1
5.999999999995731 12.9999999999968 0.1
5.999999999996339 13.99999999999726 0.1
5.999999999996948 14.99999999999771 0.1
5.999999999997558 15.99999999999817 0.1
5.999999999998169 16.99999999999863 0.1
5.999999999998778 17.99999999999908 0.1
5.999999999999385 18.99999999999955 0.1
6.999999999985641 0.9999999999996855 0.1
6.999999999986395 1.99999999999943 0.1
6.999999999987152 2.9999999999988 0.1
6.999999999987908 3.999999999997774 0.1
6.999999999988663 4.999999999996753 0.1
6.999999999989418 5.999999999995731 0.1
6.999999999990174 6.999999999994707 0.1
6.99999999999093 7.999999999993706 0.1
6.999999999991685 8.999999999994142 0.1
6.99999999999244 9.999999999994674 0.1
6.999999999993195 10.99999999999521 0.1
6.999999999993952 11.99999999999574 0.1
6.999999999994706 12.99999999999627 0.1
6.999999999995461 13.9999999999968 0.1
6.999999999996219 14.99999999999733 0.1
6.999999999996972 15.99999999999787 0.1
6.999999999997728 16.9999999999984 0.1
6.999999999998485 17.99999999999894 0.1
6.999999999999239 18.99999999999947 0.1
7.999999999982932 0.999999999999641 0.1
7.999999999983829 1.999999999999349 0.1
7.999999999984725 2.999999999998627 0.1
7.999999999985626 3.999999999997457 0.1
7.999999999986523 4.999999999996289 0.1
7.99999999998742 5.999999999995119 0.1
7.999999999988319 6.999999999993952 0.1
7.999999999989218 7.99999999999281 0.1
7.999999999990116 8.99999999999331 0.1
7.999999999991013 9.999999999993914 0.1
7.99999999999191 10.99999999999453 0.1
7.99999999999281 11.99999999999513 0.1
7.999999999993705 12.99999999999574 0.1
7.999999999994604 13.99999999999634 0.1
7.999999999995502 14.99999999999696 0.1
7.999999999996402 15.99999999999757 0.1
7.999999999997299 16.99999999999818 0.1
7.999999999998197 17.99999999999878 0.1
7.999999999999095 18.9999999999994 0.1
8.999999999984112 0.9999999999995959 0.1
8.99999999998495 1.999999999999268 0.1
8.999999999985786 2.999999999998457 0.1
8.999999999986622 3.99999999999714 0.1
8.999999999987454 4.999999999995826 0.1
8.999999999988294 5.999999999994511 0.1
8.999999999989129 6.999999999993195 0.1
8.999999999989964 7.99999999999191 0.1
8.999999999990802 8.999999999992472 0.1
8.999999999991637 9.999999999993154 0.1
8.999999999992472 10.99999999999384 0.1
8.99999999999331 11.99999999999452 0.1
8.999999999994142 12.99999999999521 0.1
8.99999999999498 13.99999999999589 0.1
8.999999999995815 14.99999999999658 0.1
8.99999999999665 15.99999999999726 0.1
8.999999999997488 16.99999999999795 0.1
8.999999999998323 17.99999999999862 0.1
8.999999999999158 18.99999999999932 0.1
9.999999999985562 0.9999999999995508 0.1
9.999999999986315 1.999999999999187 0.1
9.999999999987079 2.999999999998284 0.1
9.999999999987839 3.999999999996822 0.1
9.9999999999886 4.999999999995362 0.1
9.999999999989356 5.999999999993901 0.1
9.999999999990116 6.99999999999244 0.1
9.999999999990877 7.999999999991012 0.1
9.999999999991637 8.999999999991637 0.1
9.999999999992394 9.999999999992394 0.1
9.999999999993154 10.99999999999316 0.1
9.999999999993914 11.99999999999391 0.1
9.999999999994674 12.99999999999467 0.1
9.999999999995435 13.99999999999543 0.1
9.999999999996195 14.9999999999962 0.1
9.999999999996955 15.99999999999696 0.1
9.999999999997716 16.99999999999772 0.1
9.999999999998476 17.99999999999848 0.1
9.999999999999233 18.99999999999924 0.1
10.999999999987 0.9999999999995061 0.1
10.99999999998769 1.999999999999106 0.1
10.99999999998837 2.999999999998113 0.1
10.99999999998906 3.999999999996505 0.1
10.99999999998974 4.999999999994898 0.1
10.99999999999042 5.999999999993292 0.1
10.99999999999111 6.999999999991685 0.1
10.99999999999179 7.999999999990116 0.1
10.99999999999247 8.999999999990802 0.1
10.99999999999315 9.999999999991637 0.1
10.99999999999384 10.99999999999247 0.1
10.99999999999452 11.99999999999331 0.1
10.99999999999521 12.99999999999414 0.1
10.99999999999589 13.99999999999498 0.1
10.99999999999658 14.99999999999581 0.1
10.99999999999726 15.99999999999665 0.1
10.99999999999794 16.99999999999748 0.1
10.99999999999863 17.99999999999832 0.1
10.99999999999931 18.99999999999916 0.1
11.99999999998845 0.9999999999994611 0.1
11.99999999998906 1.999999999999025 0.1
11.99999999998966 2.999999999997942 0.1
11.99999999999027 3.999999999996188 0.1
11.99999999999088 4.999999999994435 0.1
11.99999999999148 5.999999999992681 0.1
11.99999999999209 6.999999999990928 0.1
11.9999999999927 7.999999999989218 0.1
11.99999999999331 8.999999999989964 0.1
11.99999999999391 9.999999999990877 0.1
11.99999999999453 10.99999999999179 0.1
11.99999999999513 11.9999999999927 0.1
11.99999999999574 12.99999999999361 0.1
11.99999999999634 13.99999999999452 0.1
11.99999999999696 14.99999999999544 0.1
11.99999999999756 15.99999999999635 0.1
11.99999999999817 16.99999999999726 0.1
11.99999999999878 17.99999999999817 0.1
11.99999999999939 18.99999999999908 0.1
12.99999999998989 0.9999999999994165 0.1
12.99999999999042 1.999999999998944 0.1
12.99999999999096 2.99999999999777 0.1
12.99999999999148 3.99999999999587 0.1
12.99999999999202 4.999999999993971 0.1
12.99999999999255 5.999999999992071 0.1
12.99999999999308 6.999999999990173 0.1
12.99999999999361 7.999999999988319 0.1
12.99999999999415 8.999999999989129 0.1
12.99999999999467 9.999999999990116 0.1
12.99999999999521 10.99999999999111 0.1
12.99999999999574 11.99999999999209 0.1
12.99999999999627 12.99999999999308 0.1
12.9999999999968 13.99999999999407 0.1
12.99999999999733 14.99999999999506 0.1
12.99999999999787 15.99999999999605 0.1
12.9999999999984 16.99999999999703 0.1
12.99999999999893 17.99999999999802 0.1
12.99999999999946 18.99999999999901 0.1
13.99999999999133 0.9999999999993715 0.1
13.99999999999178 1.999999999998863 0.1
13.99999999999225 2.999999999997599 0.1
13.9999999999927 3.999999999995553 0.1
13.99999999999315 4.999999999993509 0.1
13.99999999999361 5.999999999991465 0.1
13.99999999999406 6.999999999989418 0.1
13.99999999999452 7.999999999987421 0.1
13.99999999999498 8.999999999988294 0.1
13.99999999999543 9.999999999989356 0.1
13.99999999999589 10.99999999999042 0.1
13.99999999999635 11.99999999999148 0.1
13.9999999999968 12.99999999999255 0.1
13.99999999999726 13.99999999999361 0.1
13.99999999999771 14.99999999999467 0.1
13.99999999999817 15.99999999999574 0.1
13.99999999999862 16.9999999999968 0.1
13.99999999999908 17.99999999999787 0.1
13.99999999999953 18.99999999999893 0.1
14.99999999999278 0.9999999999993265 0.1
14.99999999999316 1.999999999998782 0.1
14.99999999999354 2.999999999997427 0.1
14.99999999999392 3.999999999995236 0.1
14.9999999999943 4.999999999993044 0.1
14.99999999999468 5.999999999990852 0.1
14.99999999999505 6.999999999988662 0.1
14.99999999999543 7.999999999986523 0.1
14.99999999999581 8.999999999987455 0.1
14.9999999999962 9.9999999999886 0.1
14.99999999999658 10.99999999998974 0.1
14.99999999999696 11.99999999999088 0.1
14.99999999999733 12.99999999999202 0.1
14.99999999999772 13.99999999999315 0.1
14.99999999999809 14.9999999999943 0.1
14.99999999999847 15.99999999999544 0.1
14.99999999999886 16.99999999999658 0.1
14.99999999999923 17.99999999999771 0.1
14.99999999999961 18.99999999999886 0.1
15.99999999999423 0.9999999999992817 0.1
15.99999999999453 1.999999999998701 0.1
15.99999999999483 2.999999999997256 0.1
15.99999999999513 3.999999999994917 0.1
15.99999999999544 4.999999999992582 0.1
15.99999999999574 5.999999999990245 0.1
15.99999999999605 6.999999999987907 0.1
15.99999999999635 7.999999999985627 0.1
15.99999999999665 8.99999999998662 0.1
15.99999999999696 9.999999999987839 0.1
15.99999999999726 10.99999999998905 0.1
15.99999999999757 11.99999999999027 0.1
15.99999999999787 12.99999999999149 0.1
15.99999999999817 13.9999999999927 0.1
15.99999999999848 14.99999999999392 0.1
15.99999999999878 15.99999999999514 0.1
15.99999999999908 16.99999999999634 0.1
15.99999999999939 17.99999999999757 0.1
15.99999999999969 18.99999999999878 0.1
16.99999999999567 0.9999999999992367 0.1
16.99999999999589 1.99999999999862 0.1
16.99999999999612 2.999999999997084 0.1
16.99999999999635 3.999999999994599 0.1
16.99999999999658 4.999999999992117 0.1
16.99999999999681 5.999999999989635 0.1
16.99999999999703 6.999999999987152 0.1
16.99999999999726 7.999999999984728 0.1
16.99999999999748 8.999999999985786 0.1
16.99999999999771 9.999999999987079 0.1
16.99999999999795 10.99999999998837 0.1
16.99999999999817 11.99999999998966 0.1
16.9999999999984 12.99999999999095 0.1
16.99999999999862 13.99999999999224 0.1
16.99999999999885 14.99999999999354 0.1
16.99999999999908 15.99999999999483 0.1
16.99999999999931 16.99999999999611 0.1
16.99999999999954 17.99999999999741 0.1
16.99999999999977 18.99999999999871 0.1
17.9999999999971 0.9999999999991919 0.1
17.99999999999726 1.999999999998539 0.1
17.99999999999742 2.999999999996913 0.1
17.99999999999756 3.999999999994282 0.1
17.99999999999771 4.999999999991655 0.1
17.99999999999787 5.999999999989024 0.1
17.99999999999802 6.999999999986395 0.1
17.99999999999817 7.999999999983828 0.1
17.99999999999832 8.999999999984947 0.1
17.99999999999847 9.999999999986318 0.1
17.99999999999863 10.99999999998769 0.1
17.99999999999878 11.99999999998906 0.1
17.99999999999893 12.99999999999042 0.1
17.99999999999909 13.99999999999179 0.1
17.99999999999923 14.99999999999316 0.1
17.99999999999939 15.99999999999453 0.1
17.99999999999954 16.99999999999589 0.1
17.99999999999969 17.99999999999726 0.1
17.99999999999984 18.99999999999863 0.1
18.99999999999856 0.9999999999991468 0.1
18.99999999999863 1.999999999998458 0.1
18.99999999999871 2.999999999996741 0.1
18.99999999999878 3.999999999993965 0.1
18.99999999999886 4.99999999999119 0.1
18.99999999999893 5.999999999988415 0.1
18.99999999999901 6.999999999985643 0.1
18.99999999999909 7.999999999982932 0.1
18.99999999999917 8.999999999984116 0.1
18.99999999999924 9.999999999985558 0.1
18.99999999999932 10.999999999987 0.1
18.9999999999994 11.99999999998845 0.1
18.99999999999947 12.99999999998989 0.1
18.99999999999954 13.99999999999133 0.1
18.99999999999962 14.99999999999278 0.1
18.99999999999969 15.99999999999423 0.1
18.99999999999977 16.99999999999566 0.1
18.99999999999985 17.99999999999711 0.1
18.99999999999992 18.99999999999856 0.1
0.999999999999102 0.0 0.01999999999995601
0.999999999999102 0.0 0.03999999999989589
0.999999999999102 0.0 0.0599999999998943
0.999999999999102 0.0 0.07999999999994742
1.999999999998378 0.0 0.01999999999995601
1.999999999998377 0.0 0.03999999999989589
1.999999999998378 0.0 0.0599999999998943
1.999999999998377 0.0 0.07999999999994742
2.999999999996569 0.0 0.01999999999995601
2.999999999996569 0.0 0.0399999999998959
2.999999999996569 0.0 0.05999999999989429
2.999999999996569 0.0 0.07999999999994743
3.999999999993649 0.0 0.01999999999995601
3.999999999993649 0.0 0.0399999999998959
3.999999999993648 0.0 0.05999999999989429
3.999999999993649 0.0 0.07999999999994742
4.999999999990727 0.0 0.01999999999995601
4.999999999990727 0.0 0.0399999999998959
4.999999999990727 0.0 0.0599999999998943
4.999999999990727 0.0 0.07999999999994742
5.999999999987807 0.0 0.01999999999995602
5.999999999987805 0.0 0.0399999999998959
5.999999999987806 0.0 0.05999999999989429
5.999999999987807 0.0 0.07999999999994742
6.999999999984883 0.0 0.01999999999995601
6.999999999984885 0.0 0.0399999999998959
6.999999999984885 0.0 0.05999999999989429
6.999999999984885 0.0 0.07999999999994742
7.999999999982033 0.0 0.01999999999995602
7.999999999982034 0.0 0.0399999999998959
7.999999999982034 0.0 0.0599999999998943
7.999999999982034 0.0 0.07999999999994742
8.999999999983277 0.0 0.01999999999995601
8.999999999983277 0.0 0.0399999999998959
8.999999999983277 0.0 0.05999999999989432
8.999999999983277 0.0 0.07999999999994742
9.999999999984798 0.0 0.01999999999995601
9.999999999984798 0.0 0.0399999999998959
9.999999999984798 0.0 0.05999999999989429
9.999999999984798 0.0 0.07999999999994742
10.99999999998632 0.0 0.01999999999995601
10.99999999998632 0.0 0.0399999999998959
10.99999999998632 0.0 0.05999999999989428
10.99999999998632 0.0 0.07999999999994742
11.99999999998784 0.0 0.01999999999995601
11.99999999998784 0.0 0.0399999999998959
11.99999999998784 0.0 0.05999999999989428
11.99999999998784 0.0 0.07999999999994742
12.99999999998936 0.0 0.01999999999995601
12.99999999998936 0.0 0.0399999999998959
12.99999999998936 0.0 0.05999999999989429
12.99999999998936 0.0 0.07999999999994742
13.99999999999088 0.0 0.01999999999995602
13.99999999999088 0.0 0.0399999999998959
13.99999999999087 0.0 0.05999999999989429
13.99999999999088 0.0 0.07999999999994742
14.9999999999924 0.0 0.01999999999995601
14.9999999999924 0.0 0.03999999999989589
14.9999999999924 0.0 0.0599999999998943
14.9999999999924 0.0 0.07999999999994742
15.99999999999392 0.0 0.01999999999995601
15.99999999999392 0.0 0.0399999999998959
15.99999999999392 0.0 0.0599999999998943
15.99999999999392 0.0 0.07999999999994742
16.99999999999544 0.0 0.01999999999995601
16.99999999999544 0.0 0.0399999999998959
16.99999999999544 0.0 0.0599999999998943
16.99999999999544 0.0 0.07999999999994742
17.99999999999696 0.0 0.01999999999995601
17.99999999999696 0.0 0.0399999999998959
17.99999999999696 0.0 0.0599999999998943
17.99999999999696 0.0 0.07999999999994743
18.99999999999848 0.0 0.01999999999995601
18.99999999999848 0.0 0.0399999999998959
18.99999999999848 0.0 0.0599999999998943
18.99999999999848 0.0 0.07999999999994742
20.0 0.999999999999102 0.01999999999995601
20.0 0.999999999999102 0.03999999999989589
20.0 0.999999999999102 0.0599999999998943
20.0 0.999999999999102 0.07999999999994742
20.0 1.999999999998378 0.01999999999995601
20.0 1.999999999998377 0.03999999999989589
20.0 1.999999999998378 0.0599999999998943
20.0 1.999999999998377 0.07999999999994742
20.0 2.999999999996569 0.01999999999995601
20.0 2.999999999996569 0.0399999999998959
20.0 2.999999999996569 0.05999999999989429
20.0 2.999999999996569 0.07999999999994743
20.0 3.999999999993649 0.01999999999995601
20.0 3.999999999993649 0.0399999999998959
20.0 3.999999999993648 0.05999999999989429
20.0 3.999999999993649 0.07999999999994742
20.0 4.999999999990727 0.01999999999995601
20.0 4.999999999990727 0.0399999999998959
20.0 4.999999999990727 0.0599999999998943
20.0 4.999999999990727 0.07999999999994742
20.0 5.999999999987807 0.01999999999995602
20.0 5.999999999987805 0.0399999999998959
20.0 5.999999999987806 0.05999999999989429
20.0 5.999999999987807 0.07999999999994742
20.0 6.999999999984883 0.01999999999995601
20.0 6.999999999984885 0.0399999999998959
20.0 6.999999999984885 0.05999999999989429
20.0 6.999999999984885 0.07999999999994742
20.0 7.999999999982033 0.01999999999995602
20.0 7.999999999982034 0.0399999999998959
20.0 7.999999999982034 0.0599999999998943
20.0 7.999999999982034 0.07999999999994742
20.0 8.999999999983277 0.01999999999995601
20.0 8.999999999983277 0.0399999999998959
20.0 8.999999999983277 0.05999999999989432
20.0 8.999999999983277 0.07999999999994742
20.0 9.999999999984798 0.01999999999995601
20.0 9.999999999984798 0.0399999999998959
20.0 9.999999999984798 0.05999999999989429
20.0 9.999999999984798 0.07999999999994742
20.0 10.99999999998632 0.01999999999995601
20.0 10.99999999998632 0.0399999999998959
20.0 10.99999999998632 0.05999999999989428
20.0 10.99999999998632 0.07999999999994742
20.0 11.99999999998784 0.01999999999995601
20.0 11.99999999998784 0.0399999999998959
20.0 11.99999999998784 0.05999999999989428
20.0 11.99999999998784 0.07999999999994742
20.0 12.99999999998936 0.01999999999995601
20.0 12.99999999998936 0.0399999999998959
20.0 12.99999999998936 0.05999999999989429
20.0 12.99999999998936 0.07999999999994742
20.0 13.99999999999088 0.01999999999995602
20.0 13.99999999999088 0.0399999999998959
20.0 13.99999999999087 0.05999999999989429
20.0 13.99999999999088 0.07999999999994742
20.0 14.9999999999924 0.01999999999995601
20.0 14.9999999999924 0.03999999999989589
20.0 14.9999999999924 0.0599999999998943
20.0 14.9999999999924 0.07999999999994742
20.0 15.99999999999392 0.01999999999995601
20.0 15.99999999999392 0.0399999999998959
20.0 15.99999999999392 0.0599999999998943
20.0 15.99999999999392 0.07999999999994742
20.0 16.99999999999544 0.01999999999995601
20.0 16.99999999999544 0.0399999999998959
20.0 16.99999999999544 0.0599999999998943
20.0 16.99999999999544 0.07999999999994742
20.0 17.99999999999696 0.01999999999995601
20.0 17.99999999999696 0.0399999999998959
20.0 17.99999999999696 0.0599999999998943
20.0 17.99999999999696 0.07999999999994743
20.0 18.99999999999848 0.01999999999995601
20.0 18.99999999999848 0.0399999999998959
20.0 18.99999999999848 0.0599999999998943
20.0 18.99999999999848 0.07999999999994742
19.0 20.0 0.01999999999995601
19.0 20.0 0.03999999999989589
19.0 20.0 0.0599999999998943
19.0 20.0 0.07999999999994742
18.0 20.0 0.01999999999995601
17.99999999999999 20.0 0.0399999999998959
17.99999999999999 20.0 0.05999999999989428
18.0 20.0 0.07999999999994742
16.99999999999999 20.0 0.01999999999995602
17.0 20.0 0.03999999999989589
17.0 20.0 0.0599999999998943
17.0 20.0 0.07999999999994742
15.99999999999999 20.0 0.01999999999995601
15.99999999999999 20.0 0.0399999999998959
15.99999999999999 20.0 0.0599999999998943
15.99999999999999 20.0 0.07999999999994742
14.99999999999999 20.0 0.01999999999995601
14.99999999999999 20.0 0.0399999999998959
14.99999999999999 20.0 0.05999999999989429
14.99999999999999 20.0 0.07999999999994742
13.99999999999999 20.0 0.01999999999995601
13.99999999999999 20.0 0.0399999999998959
13.99999999999999 20.0 0.0599999999998943
13.99999999999999 20.0 0.07999999999994742
12.99999999999999 20.0 0.01999999999995601
12.99999999999999 20.0 0.0399999999998959
12.99999999999999 20.0 0.0599999999998943
12.99999999999999 20.0 0.07999999999994742
11.99999999999999 20.0 0.01999999999995601
12.0 20.0 0.0399999999998959
11.99999999999999 20.0 0.05999999999989429
11.99999999999999 20.0 0.07999999999994742
11.0 20.0 0.01999999999995601
10.99999999999999 20.0 0.0399999999998959
10.99999999999999 20.0 0.05999999999989429
10.99999999999999 20.0 0.07999999999994742
9.999999999999993 20.0 0.01999999999995601
9.999999999999993 20.0 0.0399999999998959
9.999999999999993 20.0 0.0599999999998943
9.999999999999993 20.0 0.07999999999994742
8.999999999999993 20.0 0.01999999999995601
8.999999999999995 20.0 0.0399999999998959
8.999999999999995 20.0 0.0599999999998943
8.999999999999995 20.0 0.07999999999994742
7.999999999999996 20.0 0.01999999999995601
7.999999999999991 20.0 0.0399999999998959
7.999999999999992 20.0 0.0599999999998943
7.999999999999992 20.0 0.07999999999994742
6.999999999999995 20.0 0.01999999999995601
6.999999999999995 20.0 0.0399999999998959
6.999999999999995 20.0 0.05999999999989428
6.999999999999995 20.0 0.07999999999994742
5.999999999999996 20.0 0.01999999999995602
5.999999999999996 20.0 0.0399999999998959
5.999999999999996 20.0 0.0599999999998943
5.999999999999996 20.0 0.07999999999994742
4.999999999999996 20.0 0.01999999999995601
4.999999999999996 20.0 0.03999999999989589
4.999999999999997 20.0 0.0599999999998943
4.999999999999995 20.0 0.07999999999994742
3.999999999999998 20.0 0.019999999999956
3.999999999999996 20.0 0.03999999999989589
3.999999999999996 20.0 0.05999999999989432
3.999999999999996 20.0 0.07999999999994742
3.0 20.0 0.01999999999995601
3.0 20.0 0.0399999999998959
3.0 20.0 0.0599999999998943
2.999999999999999 20.0 0.07999999999994742
1.999999999999997 20.0 0.01999999999995601
1.999999999999996 20.0 0.0399999999998959
1.999999999999996 20.0 0.0599999999998943
1.999999999999996 20.0 0.07999999999994742
1.0 20.0 0.01999999999995601
1.0 20.0 0.03999999999989589
1.0 20.0 0.0599999999998943
1.0 20.0 0.0799999999999474
0.0 19.0 0.01999999999995601
0.0 19.0 0.03999999999989589
0.0 19.0 0.0599999999998943
0.0 19.0 0.07999999999994742
0.0 18.0 0.01999999999995601
0.0 17.99999999999999 0.0399999999998959
0.0 17.99999999999999 0.05999999999989428
0.0 18.0 0.07999999999994742
0.0 16.99999999999999 0.01999999999995602
0.0 17.0 0.03999999999989589
0.0 17.0 0.0599999999998943
0.0 17.0 0.07999999999994742
0.0 15.99999999999999 0.01999999999995601
0.0 15.99999999999999 0.0399999999998959
0.0 15.99999999999999 0.0599999999998943
0.0 15.99999999999999 0.07999999999994742
0.0 14.99999999999999 0.01999999999995601
0.0 14.99999999999999 0.0399999999998959
0.0 14.99999999999999 0.05999999999989429
0.0 14.99999999999999 0.07999999999994742
0.0 13.99999999999999 0.01999999999995601
0.0 13.99999999999999 0.0399999999998959
0.0 13.99999999999999 0.0599999999998943
0.0 13.99999999999999 0.07999999999994742
0.0 12.99999999999999 0.01999999999995601
0.0 12.99999999999999 0.0399999999998959
0.0 12.99999999999999 0.0599999999998943
0.0 12.99999999999999 0.07999999999994742
0.0 11.99999999999999 0.01999999999995601
0.0 12.0 0.0399999999998959
0.0 11.99999999999999 0.05999999999989429
0.0 11.99999999999999 0.07999999999994742
0.0 11.0 0.01999999999995601
0.0 10.99999999999999 0.0399999999998959
0.0 10.99999999999999 0.05999999999989429
0.0 10.99999999999999 0.07999999999994742
0.0 9.999999999999993 0.01999999999995601
0.0 9.999999999999993 0.0399999999998959
0.0 9.999999999999993 0.0599999999998943
0.0 9.999999999999993 0.07999999999994742
0.0 8.999999999999993 0.01999999999995601
0.0 8.999999999999995 0.0399999999998959
0.0 8.999999999999995 0.0599999999998943
0.0 8.999999999999995 0.07999999999994742
0.0 7.999999999999996 0.01999999999995601
0.0 7.999999999999991 0.0399999999998959
0.0 7.999999999999992 0.0599999999998943
0.0 7.999999999999992 0.07999999999994742
0.0 6.999999999999995 0.01999999999995601
0.0 6.999999999999995 0.0399999999998959
0.0 6.999999999999995 0.05999999999989428
0.0 6.999999999999995 0.07999999999994742
0.0 5.999999999999996 0.01999999999995602
0.0 5.999999999999996 0.0399999999998959
0.0 5.999999999999996 0.0599999999998943
0.0 5.999999999999996 0.07999999999994742
0.0 4.999999999999996 0.01999999999995601
0.0 4.999999999999996 0.03999999999989589
0.0 4.999999999999997 0.0599999999998943
0.0 4.999999999999995 0.07999999999994742
0.0 3.999999999999998 0.019999999999956
0.0 3.999999999999996 0.03999999999989589
0.0 3.999999999999996 0.05999999999989432
0.0 3.999999999999996 0.07999999999994742
0.0 3.0 0.01999999999995601
0.0 3.0 0.0399999999998959
0.0 3.0 0.0599999999998943
0.0 2.999999999999999 0.07999999999994742
0.0 1.999999999999997 0.01999999999995601
0.0 1.999999999999996 0.0399999999998959
0.0 1.999999999999996 0.0599999999998943
0.0 1.999999999999996 0.07999999999994742
0.0 1.0 0.01999999999995601
0.0 1.0 0.03999999999989589
0.0 1.0 0.0599999999998943
0.0 1.0 0.0799999999999474
0.9999999999991473 0.9999999999999553 0.01999999999995602
0.9999999999991472 0.9999999999999551 0.03999999999989586
0.9999999999991472 0.9999999999999551 0.0599999999998943
0.9999999999991473 0.9999999999999547 0.0799999999999474
0.9999999999991918 1.999999999999917 0.01999999999995602
0.9999999999991916 1.999999999999915 0.03999999999989589
0.9999999999991918 1.999999999999917 0.0599999999998943
0.9999999999991915 1.999999999999916 0.07999999999994743
0.9999999999992367 2.999999999999827 0.01999999999995601
0.9999999999992367 2.999999999999829 0.0399999999998959
0.9999999999992366 2.999999999999829 0.05999999999989429
0.9999999999992367 2.999999999999828 0.07999999999994743
0.9999999999992814 3.999999999999679 0.01999999999995601
0.9999999999992817 3.999999999999678 0.03999999999989588
0.9999999999992818 3.999999999999678 0.05999999999989433
0.9999999999992817 3.999999999999676 0.07999999999994738
0.9999999999993268 4.999999999999536 0.01999999999995602
0.999999999999326 4.999999999999533 0.03999999999989589
0.9999999999993261 4.999999999999536 0.05999999999989428
0.9999999999993265 4.999999999999533 0.07999999999994742
0.9999999999993711 5.999999999999384 0.01999999999995603
0.9999999999993713 5.999999999999384 0.03999999999989588
0.9999999999993713 5.999999999999385 0.05999999999989428
0.9999999999993712 5.999999999999385 0.07999999999994742
0.9999999999994166 6.999999999999236 0.019999999999956
0.9999999999994164 6.999999999999238 0.03999999999989588
0.9999999999994167 6.999999999999234 0.0599999999998943
0.9999999999994167 6.999999999999238 0.07999999999994742
0.9999999999994608 7.999999999999097 0.01999999999995603
0.9999999999994614 7.999999999999093 0.03999999999989587
0.9999999999994613 7.999999999999098 0.05999999999989429
0.9999999999994612 7.999999999999096 0.0799999999999474
0.9999999999995067 8.999999999999156 0.01999999999995601
0.9999999999995062 8.999999999999162 0.0399999999998959
0.9999999999995062 8.999999999999156 0.05999999999989432
0.9999999999995063 8.99999999999916 0.07999999999994743
0.9999999999995509 9.999999999999236 0.01999999999995602
0.9999999999995515 9.999999999999236 0.03999999999989589
0.9999999999995511 9.999999999999236 0.05999999999989433
0.999999999999551 9.999999999999236 0.07999999999994739
0.9999999999995958 10.99999999999931 0.01999999999995601
0.999999999999596 10.99999999999931 0.0399999999998959
0.9999999999995963 10.9999999999993 0.0599999999998943
0.9999999999995958 10.9999999999993 0.0799999999999474
0.9999999999996406 11.99999999999938 0.01999999999995602
0.9999999999996406 11.99999999999939 0.0399999999998959
0.9999999999996406 11.99999999999939 0.05999999999989429
0.9999999999996407 11.99999999999939 0.07999999999994742
0.9999999999996859 12.99999999999947 0.01999999999995602
0.9999999999996855 12.99999999999947 0.03999999999989589
0.9999999999996856 12.99999999999946 0.05999999999989432
0.9999999999996856 12.99999999999946 0.0799999999999474
0.9999999999997309 13.99999999999954 0.01999999999995601
0.9999999999997309 13.99999999999953 0.0399999999998959
0.9999999999997307 13.99999999999953 0.0599999999998943
0.9999999999997307 13.99999999999953 0.07999999999994742
0.9999999999997751 14.99999999999961 0.01999999999995601
0.9999999999997755 14.99999999999961 0.03999999999989587
0.9999999999997751 14.99999999999961 0.05999999999989428
0.9999999999997751 14.99999999999962 0.07999999999994742
0.9999999999998208 15.99999999999969 0.01999999999995601
0.9999999999998204 15.9999999999997 0.03999999999989589
0.9999999999998208 15.9999999999997 0.05999999999989432
0.9999999999998208 15.9999999999997 0.07999999999994742
0.9999999999998656 16.99999999999976 0.01999999999995602
0.9999999999998653 16.99999999999978 0.03999999999989588
0.9999999999998657 16.99999999999977 0.05999999999989435
0.9999999999998654 16.99999999999978 0.07999999999994742
0.9999999999999103 17.99999999999984 0.01999999999995602
0.9999999999999104 17.99999999999985 0.03999999999989588
0.9999999999999103 17.99999999999985 0.05999999999989428
0.9999999999999104 17.99999999999985 0.07999999999994742
0.9999999999999551 18.99999999999992 0.01999999999995602
0.999999999999955 18.99999999999993 0.03999999999989588
0.999999999999955 18.99999999999993 0.05999999999989431
0.9999999999999546 18.99999999999992 0.07999999999994742
1.999999999998459 0.999999999999911 0.01999999999995601
1.999999999998457 0.9999999999999104 0.03999999999989586
1.999999999998458 0.9999999999999103 0.05999999999989433
1.999999999998458 0.9999999999999103 0.07999999999994742
1.99999999999854 1.999999999999835 0.01999999999995601
1.999999999998538 1.999999999999833 0.0399999999998959
1.999999999998539 1.999999999999833 0.05999999999989433
1.999999999998539 1.999999999999833 0.07999999999994742
1.999999999998622 2.999999999999658 0.01999999999995601
1.99999999999862 2.999999999999656 0.03999999999989588
1.999999999998621 2.999999999999657 0.0599999999998943
1.99999999999862 2.999999999999657 0.07999999999994743
1.999999999998703 3.999999999999363 0.019999999999956
1.999999999998701 3.999999999999361 0.0399999999998959
1.999999999998701 3.999999999999364 0.05999999999989433
1.999999999998701 3.999999999999362 0.07999999999994736
1.999999999998783 4.999999999999067 0.01999999999995603
1.999999999998781 4.999999999999069 0.03999999999989589
1.999999999998783 4.999999999999069 0.0599999999998943
1.999999999998782 4.999999999999067 0.07999999999994739
1.999999999998863 5.999999999998781 0.01999999999995603
1.999999999998863 5.999999999998778 0.03999999999989589
1.999999999998862 5.999999999998779 0.05999999999989432
1.999999999998863 5.999999999998779 0.07999999999994742
1.999999999998944 6.999999999998481 0.019999999999956
1.999999999998942 6.999999999998481 0.03999999999989587
1.999999999998944 6.999999999998484 0.05999999999989427
1.999999999998944 6.999999999998483 0.07999999999994742
1.999999999999026 7.999999999998201 0.01999999999995603
1.999999999999025 7.999999999998193 0.03999999999989588
1.999999999999025 7.999999999998198 0.05999999999989428
1.999999999999024 7.999999999998197 0.07999999999994742
1.999999999999106 8.999999999998318 0.01999999999995601
1.999999999999105 8.999999999998318 0.0399999999998959
1.999999999999106 8.99999999999832 0.05999999999989433
1.999999999999106 8.99999999999832 0.07999999999994742
1.999999999999187 9.99999999999847 0.01999999999995602
1.999999999999187 9.999999999998472 0.03999999999989589
1.999999999999187 9.99999999999847 0.05999999999989434
1.999999999999187 9.99999999999847 0.07999999999994742
1.999999999999268 10.99999999999863 0.01999999999995601
1.999999999999267 10.99999999999863 0.0399999999998959
1.999999999999268 10.99999999999863 0.0599999999998943
1.999999999999268 10.99999999999863 0.07999999999994742
1.999999999999349 11.99999999999878 0.01999999999995603
1.999999999999349 11.99999999999878 0.0399999999998959
1.999999999999348 11.99999999999878 0.05999999999989429
1.999999999999348 11.99999999999878 0.07999999999994742
1.999999999999431 12.99999999999894 0.01999999999995601
1.999999999999429 12.99999999999893 0.03999999999989589
1.99999999999943 12.99999999999893 0.05999999999989433
1.999999999999431 12.99999999999893 0.07999999999994742
1.999999999999512 13.99999999999908 0.01999999999995601
1.99999999999951 13.99999999999907 0.0399999999998959
1.999999999999512 13.99999999999907 0.05999999999989431
1.999999999999512 13.99999999999908 0.07999999999994742
1.999999999999593 14.99999999999923 0.01999999999995601
1.999999999999591 14.99999999999923 0.03999999999989588
1.999999999999592 14.99999999999923 0.05999999999989429
1.999999999999592 14.99999999999923 0.07999999999994742
1.999999999999672 15.99999999999939 0.01999999999995601
1.999999999999672 15.99999999999939 0.0399999999998959
1.999999999999672 15.99999999999939 0.05999999999989429
1.999999999999672 15.99999999999939 0.07999999999994742
1.999999999999754 16.99999999999954 0.01999999999995602
1.999999999999753 16.99999999999955 0.0399999999998959
1.999999999999754 16.99999999999955 0.05999999999989433
1.999999999999754 16.99999999999954 0.07999999999994742
1.999999999999835 17.9999999999997 0.01999999999995603
1.999999999999834 17.99999999999968 0.0399999999998959
1.999999999999834 17.99999999999968 0.05999999999989429
1.999999999999834 17.99999999999969 0.07999999999994745
1.999999999999917 18.99999999999985 0.01999999999995602
1.999999999999916 18.99999999999985 0.0399999999998959
1.999999999999915 18.99999999999985 0.05999999999989433
1.999999999999916 18.99999999999985 0.07999999999994743
2.999999999996741 0.9999999999998658 0.01999999999995601
2.999999999996743 0.9999999999998658 0.03999999999989588
2.999999999996743 0.9999999999998657 0.05999999999989429
2.999999999996743 0.9999999999998658 0.07999999999994743
2.999999999996914 1.999999999999754 0.01999999999995601
2.999999999996912 1.999999999999753 0.03999999999989589
2.999999999996914 1.999999999999753 0.0599999999998943
2.999999999996913 1.999999999999753 0.07999999999994743
2.999999999997084 2.999999999999485 0.01999999999995601
2.999999999997084 2.999999999999485 0.0399999999998959
2.999999999997084 2.999999999999487 0.05999999999989427
2.999999999997084 2.999999999999484 0.07999999999994747
2.999999999997256 3.999999999999047 0.01999999999995599
2.999999999997256 3.999999999999045 0.0399999999998959
2.999999999997256 3.999999999999044 0.05999999999989432
2.999999999997256 3.999999999999043 0.07999999999994742
2.999999999997428 4.999999999998607 0.01999999999995601
2.999999999997426 4.999999999998606 0.0399999999998959
2.999999999997426 4.999999999998607 0.0599999999998943
2.999999999997428 4.999999999998605 0.07999999999994743
2.999999999997597 5.999999999998167 0.01999999999995603
2.999999999997598 5.999999999998168 0.0399999999998959
2.999999999997597 5.999999999998167 0.05999999999989429
2.999999999997597 5.999999999998169 0.07999999999994745
2.999999999997769 6.99999999999773 0.019999999999956
2.99999999999777 6.999999999997732 0.0399999999998959
2.99999999999777 6.999999999997732 0.05999999999989426
2.999999999997769 6.999999999997729 0.07999999999994742
2.999999999997942 7.999999999997295 0.01999999999995601
2.999999999997939 7.999999999997293 0.0399999999998959
2.99999999999794 7.999999999997293 0.05999999999989428
2.99999999999794 7.999999999997296 0.07999999999994742
2.999999999998113 8.999999999997485 0.01999999999995601
2.999999999998113 8.999999999997492 0.03999999999989589
2.999999999998114 8.999999999997488 0.05999999999989435
2.999999999998114 8.999999999997492 0.07999999999994742
2.999999999998285 9.999999999997716 0.01999999999995601
2.999999999998285 9.999999999997716 0.03999999999989589
2.999999999998285 9.999999999997714 0.0599999999998943
2.999999999998284 9.999999999997712 0.07999999999994742
2.999999999998457 10.99999999999795 0.01999999999995601
2.999999999998457 10.99999999999795 0.0399999999998959
2.999999999998456 10.99999999999795 0.05999999999989426
2.999999999998456 10.99999999999795 0.07999999999994743
2.999999999998627 11.99999999999818 0.01999999999995601
2.999999999998627 11.99999999999817 0.0399999999998959
2.999999999998627 11.99999999999817 0.0599999999998943
2.999999999998629 11.99999999999818 0.07999999999994743
2.9999999999988 12.99999999999841 0.019999999999956
2.999999999998798 12.9999999999984 0.0399999999998959
2.9999999999988 12.9999999999984 0.05999999999989432
2.999999999998798 12.9999999999984 0.07999999999994742
2.999999999998973 13.99999999999862 0.01999999999995601
2.999999999998971 13.99999999999862 0.0399999999998959
2.999999999998971 13.99999999999862 0.05999999999989429
2.999999999998971 13.99999999999862 0.07999999999994742
2.999999999999144 14.99999999999885 0.01999999999995601
2.999999999999142 14.99999999999885 0.03999999999989588
2.999999999999143 14.99999999999885 0.0599999999998943
2.999999999999141 14.99999999999885 0.07999999999994742
2.999999999999312 15.99999999999908 0.01999999999995601
2.999999999999314 15.99999999999908 0.0399999999998959
2.999999999999313 15.99999999999909 0.0599999999998943
2.999999999999314 15.99999999999909 0.07999999999994745
2.999999999999486 16.9999999999993 0.01999999999995603
2.999999999999486 16.99999999999931 0.0399999999998959
2.999999999999488 16.99999999999931 0.05999999999989433
2.999999999999486 16.99999999999931 0.07999999999994742
2.999999999999656 17.99999999999954 0.01999999999995601
2.999999999999656 17.99999999999953 0.0399999999998959
2.999999999999658 17.99999999999952 0.05999999999989426
2.999999999999658 17.99999999999955 0.07999999999994745
2.999999999999828 18.99999999999977 0.01999999999995601
2.999999999999829 18.99999999999977 0.0399999999998959
2.999999999999828 18.99999999999977 0.05999999999989429
2.999999999999828 18.99999999999977 0.07999999999994743
3.999999999993965 0.9999999999998205 0.01999999999995601
3.999999999993965 0.9999999999998203 0.03999999999989588
3.999999999993964 0.9999999999998204 0.05999999999989429
3.999999999993963 0.9999999999998203 0.0799999999999474
3.999999999994283 1.999999999999673 0.019999999999956
3.999999999994285 1.999999999999672 0.0399999999998959
3.999999999994285 1.999999999999672 0.0599999999998943
3.999999999994284 1.999999999999672 0.07999999999994743
3.999999999994601 2.999999999999315 0.01999999999995601
3.999999999994601 2.999999999999315 0.0399999999998959
3.999999999994599 2.999999999999314 0.05999999999989426
3.999999999994599 2.999999999999315 0.07999999999994743
3.999999999994917 3.999999999998729 0.01999999999995599
3.999999999994918 3.999999999998726 0.03999999999989588
3.999999999994917 3.999999999998726 0.05999999999989433
3.999999999994915 3.999999999998726 0.07999999999994735
3.999999999995236 4.999999999998142 0.01999999999995601
3.999999999995237 4.999999999998139 0.03999999999989586
3.999999999995237 4.999999999998142 0.05999999999989429
3.999999999995235 4.999999999998142 0.07999999999994742
3.999999999995553 5.999999999997557 0.01999999999995601
3.999999999995555 5.999999999997557 0.03999999999989588
3.999999999995555 5.999999999997558 0.05999999999989428
3.999999999995554 5.99999999999756 0.07999999999994742
3.999999999995869 6.99999999999697 0.019999999999956
3.99999999999587 6.999999999996973 0.0399999999998959
3.999999999995868 6.999999999996973 0.05999999999989429
3.999999999995869 6.999999999996974 0.07999999999994742
3.999999999996188 7.999999999996406 0.01999999999995601
3.999999999996188 7.9999999999964 0.0399999999998959
3.999999999996186 7.999999999996401 0.05999999999989429
3.999999999996186 7.999999999996401 0.0799999999999474
3.999999999996507 8.999999999996648 0.01999999999995601
3.999999999996505 8.999999999996648 0.0399999999998959
3.999999999996507 8.999999999996643 0.05999999999989432
3.999999999996506 8.999999999996643 0.07999999999994742
3.999999999996823 9.999999999996955 0.01999999999995601
3.99999999999682 9.999999999996955 0.0399999999998959
3.999999999996822 9.999999999996952 0.05999999999989433
3.999999999996822 9.999999999996957 0.07999999999994742
3.999999999997139 10.99999999999726 0.01999999999995601
3.99999999999714 10.99999999999726 0.0399999999998959
3.999999999997141 10.99999999999726 0.05999999999989429
3.99999999999714 10.99999999999725 0.07999999999994742
3.999999999997457 11.99999999999756 0.01999999999995601
3.999999999997455 11.99999999999756 0.0399999999998959
3.999999999997457 11.99999999999756 0.05999999999989429
3.999999999997457 11.99999999999756 0.07999999999994742
3.999999999997773 12.99999999999787 0.019999999999956
3.999999999997776 12.99999999999786 0.0399999999998959
3.999999999997775 12.99999999999787 0.05999999999989434
3.999999999997775 12.99999999999787 0.07999999999994742
3.999999999998093 13.99999999999817 0.01999999999995601
3.99999999999809 13.99999999999817 0.0399999999998959
3.999999999998092 13.99999999999817 0.0599999999998943
3.999999999998091 13.99999999999817 0.07999999999994742
3.99999999999841 14.99999999999847 0.01999999999995601
3.99999999999841 14.99999999999848 0.0399999999998959
3.999999999998409 14.99999999999847 0.05999999999989432
3.999999999998409 14.99999999999847 0.07999999999994742
3.999999999998729 15.99999999999878 0.01999999999995601
3.999999999998726 15.99999999999878 0.0399999999998959
3.999999999998725 15.99999999999878 0.05999999999989434
3.999999999998727 15.99999999999878 0.07999999999994742
3.999999999999047 16.99999999999908 0.019999999999956
3.999999999999043 16.99999999999908 0.03999999999989588
3.999999999999044 16.99999999999908 0.05999999999989433
3.999999999999044 16.99999999999909 0.07999999999994742
3.999999999999362 17.99999999999939 0.01999999999995601
3.999999999999361 17.99999999999939 0.0399999999998959
3.999999999999363 17.99999999999939 0.05999999999989432
3.999999999999363 17.99999999999939 0.07999999999994743
3.999999999999679 18.99999999999969 0.01999999999995601
3.999999999999678 18.99999999999969 0.03999999999989587
3.999999999999678 18.99999999999969 0.05999999999989432
3.999999999999675 18.99999999999969 0.07999999999994742
4.999999999991193 0.9999999999997755 0.01999999999995602
4.999999999991193 0.9999999999997755 0.03999999999989589
4.999999999991193 0.9999999999997755 0.05999999999989428
4.999999999991191 0.9999999999997754 0.07999999999994742
4.999999999991652 1.999999999999592 0.01999999999995602
4.999999999991651 1.999999999999591 0.0399999999998959
4.999999999991653 1.999999999999593 0.0599999999998943
4.999999999991649 1.999999999999592 0.07999999999994742
4.999999999992117 2.999999999999143 0.01999999999995601
4.999999999992114 2.999999999999142 0.0399999999998959
4.999999999992117 2.999999999999142 0.0599999999998943
4.999999999992119 2.999999999999143 0.07999999999994743
4.999999999992582 3.99999999999841 0.01999999999995601
4.999999999992581 3.999999999998409 0.03999999999989589
4.999999999992583 3.999999999998409 0.05999999999989429
4.999999999992579 3.99999999999841 0.07999999999994738
4.999999999993044 4.999999999997683 0.01999999999995603
4.999999999993042 4.999999999997679 0.0399999999998959
4.999999999993045 4.999999999997682 0.05999999999989428
4.999999999993043 4.999999999997679 0.07999999999994739
4.999999999993507 5.99999999999695 0.01999999999995603
4.999999999993507 5.999999999996947 0.03999999999989588
4.999999999993507 5.999999999996947 0.05999999999989428
4.999999999993507 5.999999999996948 0.07999999999994742
4.999999999993969 6.999999999996215 0.019999999999956
4.999999999993969 6.999999999996216 0.0399999999998959
4.999999999993969 6.999999999996215 0.05999999999989427
4.999999999993969 6.999999999996216 0.07999999999994742
4.999999999994435 7.999999999995504 0.01999999999995602
4.999999999994431 7.999999999995501 0.0399999999998959
4.999999999994435 7.999999999995501 0.05999999999989429
4.999999999994435 7.999999999995503 0.07999999999994742
4.999999999994898 8.999999999995815 0.01999999999995601
4.999999999994898 8.999999999995815 0.0399999999998959
4.999999999994898 8.999999999995813 0.05999999999989432
4.999999999994898 8.999999999995815 0.07999999999994742
4.999999999995362 9.9999999999962 0.019999999999956
4.99999999999536 9.999999999996197 0.0399999999998959
4.999999999995362 9.999999999996195 0.05999999999989433
4.99999999999536 9.999999999996195 0.07999999999994742
4.999999999995826 10.99999999999657 0.01999999999995601
4.999999999995826 10.99999999999658 0.0399999999998959
4.999999999995826 10.99999999999658 0.05999999999989428
4.999999999995824 10.99999999999658 0.07999999999994742
4.99999999999629 11.99999999999696 0.01999999999995602
4.999999999996288 11.99999999999696 0.0399999999998959
4.999999999996289 11.99999999999696 0.05999999999989429
4.999999999996287 11.99999999999695 0.07999999999994742
4.999999999996753 12.99999999999734 0.01999999999995602
4.999999999996753 12.99999999999733 0.0399999999998959
4.999999999996753 12.99999999999734 0.05999999999989429
4.999999999996753 12.99999999999734 0.07999999999994742
4.999999999997218 13.99999999999771 0.01999999999995601
4.999999999997215 13.99999999999771 0.0399999999998959
4.999999999997218 13.99999999999771 0.05999999999989432
4.999999999997216 13.99999999999772 0.07999999999994742
4.99999999999768 14.9999999999981 0.01999999999995601
4.999999999997679 14.9999999999981 0.0399999999998959
4.99999999999768 14.99999999999809 0.05999999999989428
4.999999999997677 14.99999999999809 0.07999999999994742
4.999999999998144 15.99999999999848 0.01999999999995601
4.999999999998143 15.99999999999848 0.0399999999998959
4.999999999998144 15.99999999999848 0.0599999999998943
4.999999999998141 15.99999999999848 0.07999999999994742
4.99999999999861 16.99999999999886 0.01999999999995602
4.999999999998606 16.99999999999886 0.03999999999989588
4.99999999999861 16.99999999999885 0.05999999999989432
4.999999999998606 16.99999999999885 0.07999999999994742
4.999999999999067 17.99999999999923 0.01999999999995603
4.999999999999069 17.99999999999923 0.0399999999998959
4.999999999999069 17.99999999999923 0.05999999999989429
4.999999999999066 17.99999999999923 0.07999999999994745
4.99999999999953 18.99999999999963 0.01999999999995602
4.99999999999953 18.99999999999962 0.03999999999989588
4.999999999999533 18.99999999999962 0.0599999999998943
4.999999999999531 18.99999999999962 0.07999999999994742
5.999999999988414 0.9999999999997311 0.01999999999995603
5.999999999988411 0.9999999999997311 0.03999999999989588
5.999999999988413 0.9999999999997307 0.05999999999989428
5.999999999988414 0.9999999999997304 0.0799999999999474
5.999999999989029 1.999999999999513 0.01999999999995603
5.999999999989026 1.999999999999511 0.03999999999989589
5.999999999989027 1.999999999999512 0.05999999999989429
5.999999999989027 1.999999999999512 0.07999999999994742
5.999999999989636 2.999999999998971 0.01999999999995603
5.999999999989631 2.999999999998971 0.0399999999998959
5.999999999989638 2.999999999998971 0.05999999999989427
5.999999999989642 2.999999999998971 0.07999999999994742
5.999999999990241 3.999999999998093 0.01999999999995601
5.999999999990239 3.999999999998091 0.0399999999998959
5.999999999990241 3.999999999998093 0.05999999999989428
5.999999999990242 3.999999999998091 0.07999999999994738
5.999999999990852 4.999999999997215 0.01999999999995603
5.999999999990849 4.999999999997213 0.0399999999998959
5.999999999990853 4.999999999997216 0.05999999999989428
5.999999999990857 4.999999999997215 0.07999999999994739
5.999999999991463 5.999999999996338 0.01999999999995603
5.999999999991463 5.999999999996338 0.0399999999998959
5.999999999991462 5.999999999996338 0.05999999999989428
5.999999999991464 5.999999999996342 0.07999999999994742
5.999999999992074 6.999999999995457 0.01999999999995602
5.999999999992071 6.999999999995463 0.0399999999998959
5.99999999999207 6.99999999999546 0.05999999999989426
5.999999999992076 6.99999999999546 0.07999999999994742
5.999999999992681 7.999999999994604 0.01999999999995603
5.999999999992681 7.999999999994602 0.0399999999998959
5.999999999992682 7.999999999994602 0.05999999999989428
5.999999999992682 7.999999999994602 0.07999999999994742
5.999999999993292 8.999999999994982 0.01999999999995603
5.999999999993292 8.999999999994982 0.0399999999998959
5.999999999993294 8.99999999999498 0.05999999999989433
5.999999999993291 8.999999999994978 0.07999999999994742
5.9999999999939 9.999999999995437 0.01999999999995601
5.999999999993899 9.999999999995435 0.03999999999989589
5.999999999993902 9.999999999995435 0.05999999999989433
5.999999999993902 9.999999999995435 0.0799999999999474
5.999999999994507 10.99999999999589 0.01999999999995603
5.999999999994508 10.99999999999589 0.0399999999998959
5.999999999994512 10.99999999999589 0.05999999999989429
5.999999999994512 10.99999999999589 0.07999999999994742
5.999999999995119 11.99999999999635 0.01999999999995602
5.999999999995116 11.99999999999635 0.0399999999998959
5.999999999995117 11.99999999999635 0.05999999999989428
5.999999999995118 11.99999999999634 0.07999999999994742
5.99999999999573 12.9999999999968 0.01999999999995601
5.99999999999573 12.9999999999968 0.0399999999998959
5.99999999999573 12.9999999999968 0.05999999999989428
5.999999999995731 12.9999999999968 0.07999999999994742
5.999999999996338 13.99999999999727 0.01999999999995603
5.999999999996334 13.99999999999726 0.0399999999998959
5.999999999996339 13.99999999999726 0.0599999999998943
5.999999999996341 13.99999999999726 0.07999999999994742
5.99999999999695 14.99999999999771 0.01999999999995603
5.999999999996946 14.99999999999771 0.03999999999989589
5.999999999996946 14.99999999999771 0.05999999999989427
5.999999999996948 14.99999999999771 0.0799999999999474
5.999999999997556 15.99999999999818 0.01999999999995602
5.999999999997556 15.99999999999818 0.0399999999998959
5.999999999997557 15.99999999999818 0.05999999999989428
5.999999999997561 15.99999999999818 0.07999999999994742
5.999999999998165 16.99999999999863 0.01999999999995603
5.999999999998164 16.99999999999864 0.0399999999998959
5.99999999999817 16.99999999999864 0.0599999999998943
5.999999999998167 16.99999999999864 0.07999999999994742
5.999999999998778 17.99999999999907 0.01999999999995603
5.999999999998778 17.99999999999907 0.0399999999998959
5.999999999998778 17.99999999999907 0.05999999999989428
5.99999999999878 17.99999999999908 0.07999999999994743
5.999999999999383 18.99999999999955 0.01999999999995602
5.999999999999384 18.99999999999955 0.0399999999998959
5.999999999999384 18.99999999999955 0.05999999999989428
5.999999999999384 18.99999999999955 0.07999999999994743
6.999999999985634 0.9999999999996855 0.019999999999956
6.999999999985641 0.9999999999996855 0.03999999999989588
6.999999999985642 0.9999999999996855 0.0599999999998943
6.999999999985641 0.9999999999996855 0.0799999999999474
6.999999999986392 1.999999999999431 0.019999999999956
6.999999999986393 1.999999999999429 0.0399999999998959
6.999999999986395 1.99999999999943 0.0599999999998943
6.99999999998639 1.999999999999429 0.07999999999994742
6.99999999998715 2.9999999999988 0.019999999999956
6.999999999987151 2.9999999999988 0.0399999999998959
6.999999999987152 2.9999999999988 0.05999999999989426
6.999999999987152 2.999999999998799 0.07999999999994742
6.999999999987907 3.999999999997773 0.01999999999995599
6.99999999998791 3.999999999997775 0.0399999999998959
6.99999999998791 3.999999999997774 0.0599999999998943
6.999999999987908 3.999999999997773 0.07999999999994742
6.999999999988662 4.999999999996753 0.019999999999956
6.999999999988662 4.99999999999675 0.0399999999998959
6.999999999988662 4.999999999996754 0.0599999999998943
6.999999999988662 4.999999999996753 0.0799999999999474
6.999999999989415 5.999999999995728 0.01999999999995602
6.999999999989416 5.999999999995733 0.0399999999998959
6.999999999989416 5.99999999999573 0.05999999999989428
6.99999999998942 5.999999999995731 0.07999999999994742
6.999999999990173 6.999999999994706 0.019999999999956
6.999999999990171 6.999999999994706 0.0399999999998959
6.999999999990175 6.999999999994708 0.05999999999989428
6.999999999990175 6.999999999994708 0.07999999999994742
6.999999999990929 7.999999999993708 0.019999999999956
6.999999999990926 7.999999999993701 0.0399999999998959
6.999999999990932 7.999999999993705 0.0599999999998943
6.99999999999093 7.999999999993705 0.0799999999999474
6.999999999991685 8.999999999994138 0.019999999999956
6.999999999991684 8.99999999999414 0.0399999999998959
6.999999999991685 8.99999999999414 0.0599999999998943
6.999999999991682 8.99999999999414 0.07999999999994742
6.999999999992436 9.999999999994674 0.019999999999956
6.999999999992437 9.999999999994673 0.0399999999998959
6.999999999992441 9.999999999994674 0.05999999999989429
6.999999999992441 9.999999999994671 0.07999999999994742
6.999999999993195 10.99999999999521 0.019999999999956
6.999999999993193 10.99999999999521 0.0399999999998959
6.999999999993193 10.99999999999521 0.0599999999998943
6.999999999993193 10.99999999999521 0.07999999999994742
6.99999999999395 11.99999999999574 0.019999999999956
6.999999999993953 11.99999999999574 0.0399999999998959
6.999999999993954 11.99999999999575 0.05999999999989429
6.999999999993951 11.99999999999574 0.0799999999999474
6.999999999994706 12.99999999999628 0.019999999999956
6.999999999994707 12.99999999999627 0.0399999999998959
6.999999999994708 12.99999999999627 0.0599999999998943
6.999999999994708 12.99999999999627 0.07999999999994742
6.999999999995457 13.99999999999681 0.01999999999995601
6.999999999995463 13.9999999999968 0.0399999999998959
6.99999999999546 13.9999999999968 0.0599999999998943
6.99999999999546 13.99999999999681 0.07999999999994742
6.999999999996218 14.99999999999734 0.019999999999956
6.999999999996218 14.99999999999734 0.0399999999998959
6.999999999996218 14.99999999999733 0.05999999999989429
6.999999999996218 14.99999999999734 0.07999999999994742
6.999999999996971 15.99999999999786 0.019999999999956
6.999999999996971 15.99999999999787 0.0399999999998959
6.999999999996972 15.99999999999786 0.05999999999989426
6.999999999996971 15.99999999999786 0.07999999999994742
6.999999999997728 16.99999999999841 0.01999999999995601
6.99999999999773 16.9999999999984 0.0399999999998959
6.99999999999773 16.99999999999841 0.0599999999998943
6.999999999997726 16.9999999999984 0.07999999999994742
6.999999999998482 17.99999999999894 0.019999999999956
6.999999999998488 17.99999999999894 0.0399999999998959
6.999999999998484 17.99999999999894 0.05999999999989427
6.999999999998484 17.99999999999893 0.07999999999994743
6.999999999999236 18.99999999999946 0.019999999999956
6.999999999999238 18.99999999999947 0.0399999999998959
6.999999999999238 18.99999999999946 0.05999999999989429
6.999999999999234 18.99999999999947 0.07999999999994742
7.999999999982929 0.9999999999996405 0.01999999999995603
7.99999999998293 0.9999999999996411 0.03999999999989589
7.999999999982929 0.9999999999996405 0.05999999999989428
7.999999999982928 0.9999999999996405 0.0799999999999474
7.99999999998383 1.99999999999935 0.01999999999995603
7.99999999998383 1.999999999999349 0.03999999999989589
7.999999999983831 1.999999999999349 0.05999999999989428
7.99999999998383 1.999999999999349 0.07999999999994742
7.999999999984722 2.999999999998627 0.01999999999995601
7.999999999984722 2.999999999998626 0.0399999999998959
7.999999999984726 2.999999999998627 0.05999999999989429
7.999999999984726 2.999999999998626 0.0799999999999474
7.999999999985625 3.999999999997457 0.01999999999995601
7.999999999985626 3.999999999997455 0.0399999999998959
7.999999999985625 3.99999999999746 0.0599999999998943
7.999999999985627 3.999999999997457 0.07999999999994739
7.999999999986519 4.999999999996288 0.01999999999995603
7.999999999986522 4.999999999996288 0.0399999999998959
7.999999999986522 4.999999999996289 0.05999999999989429
7.999999999986521 4.999999999996286 0.07999999999994738
7.999999999987421 5.999999999995119 0.01999999999995602
7.999999999987419 5.999999999995118 0.0399999999998959
7.999999999987422 5.999999999995119 0.05999999999989428
7.999999999987423 5.999999999995119 0.07999999999994742
7.99999999998832 6.999999999993951 0.01999999999995602
7.999999999988317 6.999999999993956 0.03999999999989589
7.999999999988317 6.999999999993954 0.05999999999989428
7.999999999988317 6.999999999993953 0.0799999999999474
7.999999999989216 7.999999999992809 0.01999999999995603
7.999999999989218 7.999999999992806 0.0399999999998959
7.999999999989218 7.999999999992809 0.05999999999989429
7.999999999989213 7.999999999992809 0.07999999999994739
7.999999999990117 8.999999999993308 0.01999999999995603
7.999999999990113 8.99999999999331 0.0399999999998959
7.999999999990117 8.99999999999331 0.05999999999989433
7.999999999990117 8.99999999999331 0.07999999999994742
7.999999999991016 9.999999999993912 0.01999999999995601
7.99999999999101 9.999999999993909 0.0399999999998959
7.999999999991013 9.999999999993914 0.0599999999998943
7.999999999991013 9.999999999993918 0.07999999999994742
7.999999999991911 10.99999999999453 0.01999999999995601
7.999999999991909 10.99999999999453 0.0399999999998959
7.99999999999191 10.99999999999453 0.05999999999989428
7.99999999999191 10.99999999999453 0.07999999999994742
7.999999999992808 11.99999999999512 0.01999999999995603
7.999999999992813 11.99999999999513 0.0399999999998959
7.999999999992809 11.99999999999513 0.05999999999989428
7.999999999992808 11.99999999999512 0.07999999999994742
7.999999999993706 12.99999999999575 0.01999999999995602
7.999999999993701 12.99999999999574 0.0399999999998959
7.999999999993701 12.99999999999574 0.0599999999998943
7.999999999993705 12.99999999999573 0.07999999999994742
7.999999999994603 13.99999999999634 0.01999999999995603
7.999999999994605 13.99999999999635 0.0399999999998959
7.999999999994602 13.99999999999634 0.05999999999989428
7.999999999994602 13.99999999999634 0.0799999999999474
7.999999999995504 14.99999999999696 0.01999999999995601
7.9999999999955 14.99999999999696 0.03999999999989588
7.999999999995502 14.99999999999696 0.05999999999989429
7.999999999995506 14.99999999999696 0.07999999999994742
7.999999999996407 15.99999999999757 0.01999999999995601
7.999999999996401 15.99999999999758 0.0399999999998959
7.999999999996401 15.99999999999757 0.05999999999989428
7.999999999996401 15.99999999999757 0.07999999999994742
7.999999999997298 16.99999999999817 0.01999999999995603
7.999999999997296 16.99999999999818 0.0399999999998959
7.999999999997293 16.99999999999818 0.05999999999989432
7.999999999997296 16.99999999999817 0.07999999999994742
7.9999999999982 17.99999999999877 0.01999999999995603
7.999999999998196 17.99999999999878 0.0399999999998959
7.999999999998195 17.99999999999878 0.05999999999989428
7.999999999998194 17.99999999999877 0.07999999999994743
7.999999999999096 18.99999999999939 0.01999999999995603
7.999999999999092 18.99999999999939 0.0399999999998959
7.999999999999096 18.99999999999939 0.05999999999989429
7.999999999999096 18.9999999999994 0.07999999999994742
8.99999999998411 0.999999999999596 0.01999999999995602
8.999999999984116 0.9999999999995957 0.03999999999989588
8.999999999984112 0.9999999999995959 0.05999999999989432
8.999999999984116 0.9999999999995959 0.07999999999994745
8.999999999984954 1.999999999999268 0.01999999999995601
8.999999999984952 1.999999999999268 0.0399999999998959
8.999999999984952 1.999999999999269 0.05999999999989433
8.999999999984952 1.999999999999268 0.07999999999994742
8.999999999985786 2.999999999998457 0.01999999999995601
8.999999999985787 2.999999999998455 0.0399999999998959
8.999999999985786 2.999999999998457 0.05999999999989433
8.999999999985786 2.999999999998455 0.07999999999994742
8.999999999986617 3.999999999997139 0.019999999999956
8.99999999998662 3.999999999997141 0.0399999999998959
8.999999999986619 3.999999999997139 0.05999999999989432
8.999999999986622 3.99999999999714 0.07999999999994739
8.99999999998745 4.999999999995826 0.01999999999995602
8.999999999987455 4.999999999995826 0.0399999999998959
8.999999999987454 4.999999999995826 0.05999999999989433
8.999999999987455 4.999999999995826 0.07999999999994739
8.999999999988297 5.99999999999451 0.01999999999995603
8.999999999988288 5.99999999999451 0.0399999999998959
8.999999999988292 5.999999999994511 0.05999999999989433
8.999999999988294 5.999999999994513 0.07999999999994743
8.999999999989125 6.999999999993197 0.01999999999995601
8.999999999989125 6.999999999993192 0.0399999999998959
8.999999999989125 6.999999999993191 0.05999999999989433
8.999999999989129 6.999999999993191 0.07999999999994743
8.999999999989965 7.999999999991913 0.01999999999995603
8.99999999998996 7.999999999991908 0.0399999999998959
8.99999999998996 7.99999999999191 0.05999999999989433
8.999999999989964 7.99999999999191 0.0799999999999474
8.999999999990804 8.999999999992472 0.01999999999995601
8.999999999990804 8.99999999999247 0.0399999999998959
8.999999999990802 8.999999999992472 0.05999999999989433
8.999999999990804 8.999999999992472 0.07999999999994742
8.999999999991633 9.999999999993156 0.01999999999995601
8.999999999991639 9.999999999993152 0.0399999999998959
8.999999999991637 9.999999999993149 0.05999999999989433
8.999999999991637 9.999999999993154 0.07999999999994742
8.99999999999247 10.99999999999384 0.01999999999995601
8.999999999992472 10.99999999999384 0.0399999999998959
8.999999999992472 10.99999999999384 0.05999999999989432
8.999999999992472 10.99999999999384 0.07999999999994742
8.999999999993308 11.99999999999452 0.01999999999995601
8.99999999999331 11.99999999999453 0.0399999999998959
8.999999999993308 11.99999999999453 0.0599999999998943
8.99999999999331 11.99999999999452 0.07999999999994742
8.999999999994138 12.99999999999521 0.019999999999956
8.999999999994143 12.99999999999521 0.0399999999998959
8.999999999994143 12.99999999999522 0.05999999999989433
8.999999999994143 12.99999999999521 0.07999999999994742
8.99999999999498 13.99999999999589 0.01999999999995603
8.99999999999498 13.99999999999589 0.0399999999998959
8.99999999999498 13.99999999999588 0.05999999999989432
8.999999999994978 13.99999999999589 0.07999999999994742
8.999999999995813 14.99999999999658 0.01999999999995601
8.999999999995815 14.99999999999658 0.0399999999998959
8.999999999995815 14.99999999999658 0.05999999999989429
8.999999999995815 14.99999999999658 0.07999999999994742
8.999999999996646 15.99999999999727 0.019999999999956
8.999999999996648 15.99999999999727 0.0399999999998959
8.99999999999665 15.99999999999726 0.05999999999989432
8.999999999996646 15.99999999999727 0.07999999999994742
8.999999999997488 16.99999999999794 0.01999999999995602
8.999999999997494 16.99999999999795 0.0399999999998959
8.999999999997492 16.99999999999795 0.05999999999989432
8.999999999997492 16.99999999999795 0.07999999999994742
8.999999999998318 17.99999999999863 0.01999999999995601
8.999999999998327 17.99999999999862 0.0399999999998959
8.999999999998323 17.99999999999862 0.05999999999989432
8.999999999998327 17.99999999999862 0.07999999999994742
8.999999999999156 18.99999999999932 0.019999999999956
8.999999999999162 18.99999999999932 0.0399999999998959
8.999999999999156 18.99999999999932 0.05999999999989432
8.99999999999916 18.99999999999932 0.07999999999994742
9.999999999985562 0.9999999999995511 0.01999999999995601
9.999999999985562 0.9999999999995506 0.03999999999989587
9.999999999985562 0.999999999999551 0.0599999999998943
9.999999999985562 0.9999999999995506 0.07999999999994742
9.999999999986315 1.999999999999187 0.01999999999995601
9.999999999986311 1.999999999999187 0.0399999999998959
9.999999999986317 1.999999999999187 0.05999999999989429
9.999999999986313 1.999999999999187 0.07999999999994742
9.999999999987077 2.999999999998285 0.019999999999956
9.999999999987075 2.999999999998284 0.0399999999998959
9.999999999987075 2.999999999998285 0.05999999999989428
9.999999999987079 2.999999999998284 0.07999999999994742
9.999999999987843 3.999999999996823 0.01999999999995599
9.999999999987839 3.99999999999682 0.0399999999998959
9.999999999987839 3.999999999996822 0.0599999999998943
9.999999999987846 3.999999999996821 0.07999999999994739
9.999999999988601 4.999999999995362 0.01999999999995601
9.999999999988603 4.99999999999536 0.0399999999998959
9.999999999988601 4.999999999995362 0.05999999999989429
9.999999999988598 4.99999999999536 0.07999999999994739
9.999999999989354 5.9999999999939 0.01999999999995601
9.999999999989354 5.9999999999939 0.0399999999998959
9.999999999989356 5.999999999993901 0.05999999999989429
9.999999999989356 5.9999999999939 0.0799999999999474
9.99999999999012 6.999999999992436 0.01999999999995601
9.999999999990118 6.999999999992437 0.0399999999998959
9.99999999999012 6.999999999992442 0.05999999999989429
9.999999999990116 6.999999999992441 0.0799999999999474
9.999999999990878 7.999999999991009 0.01999999999995601
9.999999999990871 7.999999999991011 0.03999999999989591
9.999999999990878 7.999999999991006 0.0599999999998943
9.99999999999088 7.99999999999101 0.07999999999994742
9.999999999991633 8.999999999991633 0.019999999999956
9.999999999991635 8.999999999991639 0.0399999999998959
9.999999999991635 8.999999999991637 0.05999999999989433
9.999999999991633 8.999999999991637 0.07999999999994742
9.999999999992394 9.999999999992395 0.019999999999956
9.99999999999239 9.99999999999239 0.0399999999998959
9.99999999999239 9.99999999999239 0.0599999999998943
9.99999999999239 9.99999999999239 0.0799999999999474
9.999999999993157 10.99999999999316 0.01999999999995601
9.999999999993152 10.99999999999316 0.0399999999998959
9.99999999999315 10.99999999999316 0.0599999999998943
9.999999999993154 10.99999999999315 0.07999999999994742
9.999999999993912 11.99999999999391 0.019999999999956
9.99999999999391 11.99999999999392 0.0399999999998959
9.999999999993914 11.99999999999392 0.05999999999989429
9.999999999993918 11.99999999999392 0.07999999999994742
9.999999999994674 12.99999999999468 0.019999999999956
9.999999999994674 12.99999999999467 0.0399999999998959
9.999999999994674 12.99999999999468 0.0599999999998943
9.999999999994671 12.99999999999467 0.07999999999994742
9.999999999995437 13.99999999999543 0.01999999999995601
9.999999999995435 13.99999999999543 0.03999999999989589
9.999999999995435 13.99999999999543 0.05999999999989428
9.999999999995435 13.99999999999543 0.0799999999999474
9.999999999996199 14.99999999999619 0.019999999999956
9.999999999996195 14.9999999999962 0.03999999999989589
9.999999999996195 14.9999999999962 0.05999999999989429
9.999999999996195 14.9999999999962 0.0799999999999474
9.999999999996957 15.99999999999695 0.01999999999995601
9.999999999996957 15.99999999999696 0.0399999999998959
9.999999999996954 15.99999999999696 0.05999999999989429
9.999999999996957 15.99999999999696 0.07999999999994742
9.999999999997717 16.99999999999771 0.01999999999995602
9.999999999997712 16.99999999999772 0.0399999999998959
9.99999999999772 16.99999999999772 0.05999999999989432
9.999999999997721 16.99999999999772 0.0799999999999474
9.999999999998476 17.99999999999848 0.019999999999956
9.999999999998478 17.99999999999848 0.0399999999998959
9.999999999998476 17.99999999999848 0.0599999999998943
9.99999999999848 17.99999999999848 0.07999999999994742
9.99999999999923 18.99999999999923 0.01999999999995601
9.999999999999233 18.99999999999924 0.0399999999998959
9.999999999999233 18.99999999999924 0.05999999999989433
9.999999999999233 18.99999999999924 0.07999999999994742
10.99999999998701 0.9999999999995061 0.01999999999995602
10.999999999987 0.9999999999995063 0.03999999999989588
10.999999999987 0.9999999999995062 0.0599999999998943
10.999999999987 0.9999999999995061 0.07999999999994742
10.99999999998769 1.999999999999107 0.01999999999995603
10.99999999998768 1.999999999999106 0.03999999999989589
10.99999999998769 1.999999999999106 0.05999999999989429
10.99999999998768 1.999999999999106 0.07999999999994743
10.99999999998837 2.999999999998113 0.01999999999995601
10.99999999998838 2.999999999998111 0.0399999999998959
10.99999999998837 2.999999999998111 0.05999999999989426
10.99999999998837 2.999999999998114 0.07999999999994743
10.99999999998906 3.999999999996506 0.019999999999956
10.99999999998906 3.999999999996506 0.0399999999998959
10.99999999998906 3.999999999996505 0.05999999999989429
10.99999999998906 3.999999999996505 0.07999999999994739
10.99999999998974 4.999999999994897 0.01999999999995602
10.99999999998974 4.999999999994898 0.0399999999998959
10.99999999998974 4.999999999994898 0.05999999999989428
10.99999999998974 4.999999999994898 0.07999999999994739
10.99999999999043 5.999999999993292 0.01999999999995603
10.99999999999042 5.999999999993289 0.0399999999998959
10.99999999999042 5.999999999993291 0.05999999999989428
10.99999999999042 5.999999999993293 0.07999999999994742
10.99999999999111 6.999999999991683 0.01999999999995601
10.99999999999111 6.999999999991683 0.0399999999998959
10.99999999999111 6.999999999991683 0.05999999999989426
10.99999999999111 6.999999999991683 0.0799999999999474
10.9999999999918 7.999999999990116 0.01999999999995602
10.99999999999179 7.999999999990113 0.0399999999998959
10.99999999999179 7.999999999990118 0.05999999999989428
10.99999999999179 7.999999999990118 0.07999999999994742
10.99999999999247 8.999999999990804 0.01999999999995601
10.99999999999247 8.999999999990804 0.0399999999998959
10.99999999999248 8.999999999990804 0.05999999999989431
10.99999999999248 8.999999999990802 0.07999999999994742
10.99999999999315 9.999999999991633 0.01999999999995601
10.99999999999315 9.999999999991633 0.0399999999998959
10.99999999999315 9.999999999991633 0.0599999999998943
10.99999999999316 9.999999999991635 0.07999999999994742
10.99999999999384 10.99999999999248 0.01999999999995601
10.99999999999384 10.99999999999248 0.0399999999998959
10.99999999999384 10.99999999999248 0.05999999999989426
10.99999999999384 10.99999999999248 0.07999999999994742
10.99999999999452 11.99999999999331 0.01999999999995601
10.99999999999453 11.99999999999331 0.0399999999998959
10.99999999999452 11.99999999999331 0.05999999999989428
10.99999999999453 11.9999999999933 0.07999999999994742
10.99999999999521 12.99999999999415 0.019999999999956
10.99999999999521 12.99999999999414 0.0399999999998959
10.99999999999521 12.99999999999415 0.05999999999989429
10.99999999999521 12.99999999999415 0.0799999999999474
10.99999999999589 13.99999999999497 0.01999999999995603
10.99999999999589 13.99999999999498 0.0399999999998959
10.99999999999589 13.99999999999497 0.05999999999989428
10.99999999999589 13.99999999999498 0.07999999999994742
10.99999999999658 14.99999999999581 0.01999999999995601
10.99999999999658 14.99999999999581 0.0399999999998959
10.99999999999658 14.99999999999581 0.05999999999989429
10.99999999999658 14.99999999999581 0.07999999999994742
10.99999999999726 15.99999999999665 0.01999999999995601
10.99999999999726 15.99999999999665 0.0399999999998959
10.99999999999726 15.99999999999665 0.05999999999989429
10.99999999999726 15.99999999999665 0.07999999999994742
10.99999999999795 16.99999999999748 0.01999999999995602
10.99999999999795 16.99999999999748 0.0399999999998959
10.99999999999795 16.99999999999748 0.05999999999989429
10.99999999999795 16.99999999999748 0.07999999999994742
10.99999999999863 17.99999999999832 0.019999999999956
10.99999999999863 17.99999999999832 0.0399999999998959
10.99999999999863 17.99999999999832 0.05999999999989428
10.99999999999863 17.99999999999832 0.07999999999994745
10.99999999999932 18.99999999999917 0.01999999999995601
10.99999999999931 18.99999999999916 0.0399999999998959
10.9999999999993 18.99999999999916 0.05999999999989429
10.9999999999993 18.99999999999916 0.07999999999994742
11.99999999998845 0.999999999999461 0.01999999999995602
11.99999999998846 0.9999999999994614 0.03999999999989588
11.99999999998846 0.9999999999994613 0.05999999999989429
11.99999999998845 0.9999999999994613 0.07999999999994742
11.99999999998906 1.999999999999026 0.01999999999995603
11.99999999998906 1.999999999999025 0.0399999999998959
11.99999999998906 1.999999999999025 0.05999999999989429
11.99999999998906 1.999999999999024 0.07999999999994742
11.99999999998966 2.999999999997942 0.01999999999995601
11.99999999998966 2.999999999997942 0.0399999999998959
11.99999999998966 2.999999999997942 0.05999999999989428
11.99999999998967 2.999999999997943 0.07999999999994746
11.99999999999029 3.99999999999619 0.019999999999956
11.99999999999028 3.99999999999619 0.03999999999989589
11.99999999999027 3.999999999996188 0.05999999999989429
11.99999999999028 3.999999999996188 0.07999999999994738
11.99999999999089 4.999999999994436 0.01999999999995603
11.99999999999088 4.999999999994436 0.0399999999998959
11.99999999999088 4.999999999994436 0.05999999999989428
11.99999999999088 4.999999999994436 0.07999999999994739
11.99999999999149 5.99999999999268 0.01999999999995602
11.99999999999149 5.99999999999268 0.0399999999998959
11.99999999999148 5.999999999992681 0.05999999999989428
11.99999999999149 5.999999999992681 0.0799999999999474
11.9999999999921 6.999999999990928 0.019999999999956
11.9999999999921 6.999999999990925 0.0399999999998959
11.9999999999921 6.999999999990925 0.05999999999989426
11.9999999999921 6.999999999990929 0.07999999999994742
11.9999999999927 7.999999999989217 0.01999999999995603
11.9999999999927 7.999999999989218 0.0399999999998959
11.9999999999927 7.999999999989221 0.05999999999989428
11.9999999999927 7.99999999998922 0.07999999999994742
11.99999999999331 8.999999999989965 0.01999999999995603
11.99999999999331 8.999999999989962 0.0399999999998959
11.99999999999331 8.99999999998996 0.05999999999989432
11.9999999999933 8.999999999989964 0.07999999999994742
11.99999999999391 9.999999999990878 0.019999999999956
11.99999999999392 9.999999999990873 0.0399999999998959
11.99999999999392 9.999999999990877 0.05999999999989428
11.99999999999392 9.99999999999088 0.0799999999999474
11.99999999999452 10.99999999999179 0.01999999999995602
11.99999999999453 10.99999999999179 0.0399999999998959
11.99999999999453 10.9999999999918 0.05999999999989428
11.99999999999453 10.9999999999918 0.07999999999994742
11.99999999999513 11.9999999999927 0.01999999999995603
11.99999999999513 11.9999999999927 0.0399999999998959
11.99999999999513 11.99999999999269 0.05999999999989428
11.99999999999513 11.9999999999927 0.07999999999994742
11.99999999999574 12.99999999999361 0.019999999999956
11.99999999999575 12.99999999999361 0.0399999999998959
11.99999999999574 12.99999999999361 0.05999999999989429
11.99999999999575 12.99999999999361 0.07999999999994742
11.99999999999635 13.99999999999452 0.01999999999995603
11.99999999999635 13.99999999999452 0.0399999999998959
11.99999999999635 13.99999999999452 0.05999999999989428
11.99999999999635 13.99999999999452 0.07999999999994742
11.99999999999696 14.99999999999543 0.01999999999995602
11.99999999999696 14.99999999999543 0.0399999999998959
11.99999999999696 14.99999999999544 0.05999999999989428
11.99999999999696 14.99999999999544 0.07999999999994742
11.99999999999757 15.99999999999635 0.01999999999995602
11.99999999999757 15.99999999999636 0.0399999999998959
11.99999999999756 15.99999999999635 0.05999999999989428
11.99999999999756 15.99999999999635 0.07999999999994742
11.99999999999818 16.99999999999725 0.01999999999995602
11.99999999999818 16.99999999999725 0.0399999999998959
11.99999999999817 16.99999999999726 0.05999999999989429
11.99999999999818 16.99999999999725 0.07999999999994742
11.99999999999878 17.99999999999817 0.01999999999995602
11.99999999999879 17.99999999999817 0.0399999999998959
11.99999999999878 17.99999999999817 0.05999999999989428
11.99999999999878 17.99999999999817 0.07999999999994742
11.99999999999939 18.99999999999908 0.01999999999995602
11.99999999999939 18.99999999999909 0.0399999999998959
11.99999999999939 18.99999999999908 0.05999999999989429
11.99999999999939 18.99999999999909 0.07999999999994742
12.99999999998989 0.9999999999994166 0.019999999999956
12.99999999998989 0.9999999999994161 0.03999999999989588
12.9999999999899 0.9999999999994167 0.05999999999989428
12.99999999998989 0.9999999999994169 0.07999999999994742
12.99999999999042 1.999999999998944 0.019999999999956
12.99999999999043 1.999999999998943 0.03999999999989589
12.99999999999043 1.999999999998944 0.0599999999998943
12.99999999999042 1.999999999998944 0.07999999999994742
12.99999999999095 2.999999999997769 0.01999999999995601
12.99999999999096 2.99999999999777 0.0399999999998959
12.99999999999096 2.99999999999777 0.05999999999989429
12.99999999999095 2.999999999997769 0.07999999999994742
12.99999999999148 3.999999999995871 0.01999999999995601
12.99999999999149 3.99999999999587 0.0399999999998959
12.99999999999149 3.99999999999587 0.0599999999998943
12.99999999999148 3.999999999995869 0.07999999999994739
12.99999999999202 4.999999999993969 0.01999999999995601
12.99999999999202 4.999999999993971 0.0399999999998959
12.99999999999202 4.999999999993969 0.05999999999989429
12.99999999999201 4.999999999993969 0.0799999999999474
12.99999999999255 5.99999999999207 0.01999999999995602
12.99999999999255 5.999999999992068 0.0399999999998959
12.99999999999256 5.999999999992069 0.05999999999989428
12.99999999999256 5.999999999992072 0.07999999999994742
12.99999999999308 6.999999999990173 0.019999999999956
12.99999999999307 6.999999999990171 0.0399999999998959
12.99999999999308 6.999999999990175 0.0599999999998943
12.99999999999308 6.999999999990175 0.07999999999994742
12.99999999999361 7.99999999998832 0.01999999999995602
12.99999999999361 7.999999999988319 0.03999999999989589
12.99999999999361 7.999999999988319 0.0599999999998943
12.9999999999936 7.999999999988317 0.0799999999999474
12.99999999999415 8.999999999989127 0.019999999999956
12.99999999999415 8.999999999989125 0.0399999999998959
12.99999999999415 8.999999999989125 0.05999999999989434
12.99999999999415 8.999999999989129 0.07999999999994742
12.99999999999468 9.99999999999012 0.01999999999995601
12.99999999999467 9.999999999990118 0.0399999999998959
12.99999999999467 9.99999999999012 0.05999999999989431
12.99999999999467 9.999999999990116 0.07999999999994742
12.99999999999521 10.99999999999111 0.01999999999995601
12.9999999999952 10.99999999999111 0.0399999999998959
12.99999999999521 10.99999999999111 0.05999999999989429
12.99999999999521 10.99999999999111 0.07999999999994742
12.99999999999574 11.99999999999209 0.01999999999995602
12.99999999999573 11.9999999999921 0.0399999999998959
12.99999999999574 11.9999999999921 0.05999999999989428
12.99999999999573 11.99999999999209 0.07999999999994742
12.99999999999628 12.99999999999308 0.019999999999956
12.99999999999627 12.99999999999308 0.0399999999998959
12.99999999999627 12.99999999999309 0.05999999999989433
12.99999999999627 12.99999999999308 0.07999999999994742
12.9999999999968 13.99999999999407 0.01999999999995602
12.9999999999968 13.99999999999407 0.0399999999998959
12.9999999999968 13.99999999999407 0.05999999999989428
12.9999999999968 13.99999999999407 0.07999999999994742
12.99999999999734 14.99999999999505 0.019999999999956
12.99999999999733 14.99999999999505 0.0399999999998959
12.99999999999734 14.99999999999505 0.05999999999989429
12.99999999999733 14.99999999999505 0.07999999999994742
12.99999999999787 15.99999999999605 0.019999999999956
12.99999999999786 15.99999999999606 0.0399999999998959
12.99999999999787 15.99999999999605 0.05999999999989429
12.99999999999787 15.99999999999605 0.07999999999994742
12.99999999999841 16.99999999999703 0.01999999999995602
12.9999999999984 16.99999999999703 0.0399999999998959
12.9999999999984 16.99999999999703 0.05999999999989433
12.9999999999984 16.99999999999703 0.07999999999994742
12.99999999999894 17.99999999999802 0.01999999999995602
12.99999999999893 17.99999999999802 0.0399999999998959
12.99999999999893 17.99999999999802 0.0599999999998943
12.99999999999893 17.99999999999802 0.07999999999994742
12.99999999999947 18.99999999999901 0.01999999999995601
12.99999999999946 18.99999999999901 0.0399999999998959
12.99999999999946 18.999999999999 0.05999999999989432
12.99999999999946 18.99999999999901 0.07999999999994742
13.99999999999133 0.9999999999993713 0.01999999999995602
13.99999999999133 0.9999999999993713 0.03999999999989588
13.99999999999133 0.9999999999993713 0.05999999999989428
13.99999999999133 0.9999999999993712 0.07999999999994742
13.99999999999179 1.999999999998864 0.01999999999995603
13.99999999999178 1.999999999998863 0.0399999999998959
13.99999999999178 1.999999999998862 0.05999999999989428
13.99999999999178 1.999999999998863 0.07999999999994742
13.99999999999225 2.999999999997599 0.01999999999995601
13.99999999999224 2.9999999999976 0.0399999999998959
13.99999999999224 2.999999999997599 0.05999999999989429
13.99999999999225 2.9999999999976 0.07999999999994747
13.9999999999927 3.999999999995553 0.01999999999995601
13.99999999999271 3.999999999995555 0.0399999999998959
13.9999999999927 3.999999999995555 0.05999999999989428
13.9999999999927 3.999999999995554 0.07999999999994742
13.99999999999315 4.999999999993511 0.01999999999995603
13.99999999999315 4.99999999999351 0.0399999999998959
13.99999999999315 4.999999999993511 0.05999999999989428
13.99999999999315 4.999999999993507 0.07999999999994739
13.99999999999362 5.999999999991465 0.01999999999995603
13.99999999999362 5.999999999991461 0.0399999999998959
13.99999999999361 5.999999999991462 0.05999999999989426
13.99999999999362 5.999999999991467 0.07999999999994743
13.99999999999406 6.999999999989416 0.01999999999995602
13.99999999999406 6.999999999989416 0.0399999999998959
13.99999999999406 6.999999999989416 0.05999999999989428
13.99999999999406 6.99999999998942 0.07999999999994742
13.99999999999452 7.999999999987421 0.01999999999995603
13.99999999999452 7.999999999987418 0.0399999999998959
13.99999999999452 7.999999999987422 0.05999999999989428
13.99999999999452 7.999999999987423 0.0799999999999474
13.99999999999498 8.9999999999883 0.01999999999995603
13.99999999999499 8.99999999998829 0.0399999999998959
13.99999999999497 8.999999999988292 0.05999999999989432
13.99999999999498 8.999999999988294 0.0799999999999474
13.99999999999543 9.999999999989354 0.01999999999995601
13.99999999999544 9.999999999989354 0.03999999999989589
13.99999999999543 9.999999999989356 0.05999999999989428
13.99999999999543 9.999999999989356 0.0799999999999474
13.99999999999589 10.99999999999042 0.01999999999995603
13.99999999999588 10.99999999999042 0.0399999999998959
13.99999999999589 10.99999999999042 0.05999999999989428
13.99999999999588 10.99999999999042 0.07999999999994742
13.99999999999635 11.99999999999149 0.01999999999995603
13.99999999999635 11.99999999999149 0.0399999999998959
13.99999999999634 11.99999999999148 0.05999999999989428
13.99999999999635 11.99999999999149 0.07999999999994742
13.99999999999681 12.99999999999255 0.019999999999956
13.9999999999968 12.99999999999254 0.0399999999998959
13.9999999999968 12.99999999999255 0.0599999999998943
13.9999999999968 12.99999999999254 0.07999999999994742
13.99999999999727 13.99999999999362 0.01999999999995603
13.99999999999726 13.99999999999362 0.0399999999998959
13.99999999999726 13.99999999999361 0.05999999999989426
13.99999999999726 13.99999999999362 0.07999999999994742
13.9999999999977 14.99999999999468 0.01999999999995603
13.99999999999771 14.99999999999468 0.03999999999989589
13.9999999999977 14.99999999999468 0.05999999999989427
13.99999999999771 14.99999999999467 0.0799999999999474
13.99999999999817 15.99999999999575 0.01999999999995601
13.99999999999817 15.99999999999575 0.0399999999998959
13.99999999999817 15.99999999999575 0.0599999999998943
13.99999999999817 15.99999999999575 0.07999999999994742
13.99999999999862 16.9999999999968 0.01999999999995601
13.99999999999862 16.9999999999968 0.0399999999998959
13.99999999999862 16.9999999999968 0.05999999999989431
13.99999999999862 16.9999999999968 0.07999999999994742
13.99999999999908 17.99999999999788 0.01999999999995603
13.99999999999908 17.99999999999787 0.0399999999998959
13.99999999999907 17.99999999999788 0.05999999999989428
13.99999999999908 17.99999999999787 0.07999999999994743
13.99999999999954 18.99999999999893 0.01999999999995601
13.99999999999953 18.99999999999894 0.0399999999998959
13.99999999999953 18.99999999999893 0.0599999999998943
13.99999999999953 18.99999999999893 0.07999999999994743
14.99999999999278 0.9999999999993264 0.01999999999995602
14.99999999999279 0.9999999999993261 0.03999999999989587
14.99999999999278 0.9999999999993261 0.05999999999989428
14.99999999999278 0.9999999999993264 0.07999999999994742
14.99999999999316 1.999999999998783 0.01999999999995602
14.99999999999316 1.999999999998782 0.03999999999989589
14.99999999999316 1.999999999998782 0.05999999999989429
14.99999999999315 1.999999999998783 0.07999999999994742
14.99999999999354 2.999999999997427 0.01999999999995601
14.99999999999353 2.999999999997426 0.03999999999989588
14.99999999999353 2.999999999997426 0.05999999999989428
14.99999999999354 2.999999999997426 0.07999999999994747
14.99999999999392 3.999999999995238 0.019999999999956
14.99999999999392 3.999999999995236 0.0399999999998959
14.99999999999392 3.999999999995236 0.05999999999989429
14.99999999999392 3.999999999995236 0.0799999999999474
14.9999999999943 4.999999999993045 0.01999999999995601
14.9999999999943 4.999999999993044 0.0399999999998959
14.9999999999943 4.999999999993043 0.05999999999989428
14.9999999999943 4.999999999993042 0.07999999999994739
14.99999999999468 5.999999999990848 0.01999999999995602
14.99999999999468 5.999999999990848 0.03999999999989589
14.99999999999468 5.999999999990849 0.05999999999989427
14.99999999999468 5.999999999990854 0.0799999999999474
14.99999999999505 6.999999999988656 0.019999999999956
14.99999999999505 6.999999999988663 0.03999999999989588
14.99999999999506 6.999999999988662 0.05999999999989427
14.99999999999506 6.99999999998866 0.07999999999994742
14.99999999999543 7.999999999986521 0.01999999999995602
14.99999999999544 7.99999999998652 0.03999999999989588
14.99999999999544 7.999999999986523 0.05999999999989429
14.99999999999544 7.999999999986522 0.0799999999999474
14.99999999999581 8.999999999987455 0.01999999999995602
14.99999999999582 8.999999999987454 0.03999999999989589
14.99999999999581 8.999999999987455 0.05999999999989432
14.99999999999581 8.999999999987455 0.07999999999994742
14.99999999999619 9.999999999988598 0.019999999999956
14.9999999999962 9.9999999999886 0.0399999999998959
14.9999999999962 9.9999999999886 0.0599999999998943
14.9999999999962 9.9999999999886 0.07999999999994742
14.99999999999658 10.99999999998974 0.01999999999995602
14.99999999999658 10.99999999998974 0.0399999999998959
14.99999999999658 10.99999999998974 0.05999999999989428
14.99999999999658 10.99999999998974 0.07999999999994742
14.99999999999696 11.99999999999088 0.01999999999995601
14.99999999999696 11.99999999999088 0.03999999999989589
14.99999999999696 11.99999999999088 0.05999999999989428
14.99999999999695 11.99999999999088 0.07999999999994742
14.99999999999733 12.99999999999202 0.019999999999956
14.99999999999734 12.99999999999202 0.0399999999998959
14.99999999999733 12.99999999999201 0.0599999999998943
14.99999999999734 12.99999999999201 0.07999999999994743
14.99999999999772 13.99999999999315 0.01999999999995603
14.99999999999772 13.99999999999315 0.0399999999998959
14.99999999999771 13.99999999999315 0.05999999999989427
14.99999999999772 13.99999999999315 0.0799999999999474
14.99999999999809 14.99999999999429 0.01999999999995602
14.99999999999809 14.9999999999943 0.0399999999998959
14.9999999999981 14.9999999999943 0.05999999999989428
14.99999999999809 14.9999999999943 0.07999999999994742
14.99999999999847 15.99999999999544 0.01999999999995601
14.99999999999847 15.99999999999544 0.03999999999989589
14.99999999999847 15.99999999999543 0.05999999999989429
14.99999999999847 15.99999999999544 0.07999999999994742
14.99999999999885 16.99999999999658 0.01999999999995601
14.99999999999885 16.99999999999658 0.03999999999989588
14.99999999999886 16.99999999999658 0.0599999999998943
14.99999999999886 16.99999999999658 0.0799999999999474
14.99999999999923 17.99999999999772 0.01999999999995601
14.99999999999923 17.99999999999772 0.0399999999998959
14.99999999999923 17.99999999999771 0.05999999999989429
14.99999999999923 17.99999999999772 0.07999999999994743
14.99999999999961 18.99999999999885 0.019999999999956
14.99999999999961 18.99999999999886 0.0399999999998959
14.9999999999996 18.99999999999886 0.05999999999989429
14.99999999999961 18.99999999999886 0.07999999999994742
15.99999999999423 0.9999999999992824 0.01999999999995602
15.99999999999424 0.9999999999992817 0.03999999999989586
15.99999999999423 0.9999999999992817 0.05999999999989429
15.99999999999423 0.9999999999992817 0.0799999999999474
15.99999999999453 1.999999999998701 0.01999999999995602
15.99999999999454 1.9999999999987 0.03999999999989589
15.99999999999452 1.9999999999987 0.05999999999989428
15.99999999999453 1.9999999999987 0.07999999999994742
15.99999999999484 2.999999999997255 0.01999999999995601
15.99999999999484 2.999999999997255 0.0399999999998959
15.99999999999484 2.999999999997256 0.05999999999989429
15.99999999999483 2.999999999997255 0.0799999999999475
15.99999999999513 3.999999999994919 0.01999999999995601
15.99999999999515 3.999999999994918 0.0399999999998959
15.99999999999514 3.999999999994918 0.0599999999998943
15.99999999999514 3.999999999994916 0.07999999999994738
15.99999999999545 4.999999999992585 0.01999999999995603
15.99999999999545 4.999999999992583 0.0399999999998959
15.99999999999544 4.999999999992584 0.05999999999989428
15.99999999999544 4.999999999992582 0.07999999999994739
15.99999999999575 5.999999999990243 0.01999999999995603
15.99999999999574 5.999999999990243 0.0399999999998959
15.99999999999575 5.999999999990244 0.05999999999989427
15.99999999999574 5.999999999990245 0.07999999999994742
15.99999999999605 6.999999999987905 0.019999999999956
15.99999999999606 6.999999999987908 0.0399999999998959
15.99999999999605 6.999999999987908 0.05999999999989426
15.99999999999605 6.999999999987907 0.0799999999999474
15.99999999999635 7.999999999985628 0.01999999999995603
15.99999999999636 7.999999999985625 0.0399999999998959
15.99999999999635 7.999999999985626 0.05999999999989429
15.99999999999636 7.999999999985629 0.07999999999994742
15.99999999999665 8.999999999986617 0.01999999999995603
15.99999999999665 8.99999999998662 0.0399999999998959
15.99999999999665 8.999999999986619 0.05999999999989432
15.99999999999665 8.99999999998662 0.07999999999994742
15.99999999999695 9.999999999987843 0.01999999999995601
15.99999999999696 9.999999999987839 0.0399999999998959
15.99999999999696 9.99999999998784 0.05999999999989429
15.99999999999696 9.999999999987844 0.07999999999994743
15.99999999999726 10.99999999998906 0.01999999999995602
15.99999999999727 10.99999999998905 0.0399999999998959
15.99999999999726 10.99999999998906 0.05999999999989429
15.99999999999727 10.99999999998906 0.07999999999994742
15.99999999999757 11.99999999999027 0.019999999999956
15.99999999999758 11.99999999999027 0.0399999999998959
15.99999999999757 11.99999999999027 0.05999999999989428
15.99999999999757 11.99999999999027 0.07999999999994742
15.99999999999786 12.99999999999149 0.019999999999956
15.99999999999788 12.99999999999149 0.0399999999998959
15.99999999999787 12.99999999999149 0.05999999999989429
15.99999999999787 12.99999999999149 0.07999999999994742
15.99999999999818 13.9999999999927 0.01999999999995603
15.99999999999818 13.9999999999927 0.0399999999998959
15.99999999999818 13.9999999999927 0.05999999999989428
15.99999999999818 13.9999999999927 0.07999999999994742
15.99999999999847 14.99999999999391 0.01999999999995603
15.99999999999848 14.99999999999392 0.03999999999989589
15.99999999999848 14.99999999999391 0.05999999999989429
15.99999999999847 14.99999999999391 0.07999999999994742
15.99999999999878 15.99999999999514 0.01999999999995601
15.99999999999879 15.99999999999514 0.0399999999998959
15.99999999999879 15.99999999999515 0.05999999999989428
15.99999999999878 15.99999999999515 0.07999999999994742
15.99999999999908 16.99999999999634 0.019999999999956
15.99999999999908 16.99999999999634 0.0399999999998959
15.99999999999909 16.99999999999635 0.05999999999989433
15.99999999999909 16.99999999999634 0.07999999999994743
15.99999999999939 17.99999999999757 0.01999999999995601
15.99999999999939 17.99999999999757 0.0399999999998959
15.99999999999939 17.99999999999757 0.05999999999989429
15.99999999999939 17.99999999999757 0.07999999999994743
15.99999999999968 18.99999999999878 0.01999999999995601
15.9999999999997 18.99999999999879 0.0399999999998959
15.99999999999969 18.99999999999877 0.05999999999989429
15.99999999999969 18.99999999999878 0.07999999999994742
16.99999999999567 0.9999999999992365 0.01999999999995602
16.99999999999566 0.9999999999992363 0.03999999999989588
16.99999999999567 0.9999999999992366 0.0599999999998943
16.99999999999567 0.9999999999992364 0.0799999999999474
16.99999999999588 1.999999999998621 0.01999999999995603
16.99999999999588 1.99999999999862 0.0399999999998959
16.99999999999589 1.99999999999862 0.05999999999989433
16.99999999999589 1.99999999999862 0.07999999999994743
16.99999999999612 2.999999999997084 0.01999999999995601
16.99999999999612 2.999999999997085 0.0399999999998959
16.99999999999612 2.999999999997085 0.0599999999998943
16.99999999999612 2.999999999997085 0.07999999999994746
16.99999999999635 3.9999999999946 0.019999999999956
16.99999999999635 3.999999999994601 0.0399999999998959
16.99999999999634 3.9999999999946 0.0599999999998943
16.99999999999635 3.999999999994601 0.07999999999994738
16.99999999999657 4.999999999992117 0.01999999999995602
16.99999999999658 4.999999999992115 0.0399999999998959
16.99999999999658 4.999999999992117 0.05999999999989432
16.99999999999658 4.999999999992116 0.07999999999994739
16.99999999999681 5.999999999989634 0.01999999999995603
16.9999999999968 5.999999999989631 0.03999999999989589
16.99999999999681 5.999999999989632 0.05999999999989428
16.9999999999968 5.999999999989637 0.0799999999999474
16.99999999999703 6.999999999987148 0.019999999999956
16.99999999999703 6.999999999987153 0.0399999999998959
16.99999999999703 6.99999999998715 0.05999999999989433
16.99999999999703 6.99999999998715 0.07999999999994742
16.99999999999726 7.999999999984723 0.01999999999995603
16.99999999999725 7.99999999998473 0.0399999999998959
16.99999999999726 7.999999999984726 0.05999999999989429
16.99999999999725 7.999999999984725 0.07999999999994742
16.99999999999748 8.999999999985787 0.01999999999995602
16.99999999999748 8.999999999985787 0.0399999999998959
16.99999999999748 8.999999999985787 0.05999999999989434
16.99999999999748 8.999999999985786 0.07999999999994742
16.99999999999771 9.999999999987084 0.01999999999995601
16.99999999999771 9.999999999987079 0.0399999999998959
16.99999999999772 9.999999999987079 0.05999999999989429
16.99999999999771 9.999999999987082 0.07999999999994742
16.99999999999794 10.99999999998837 0.01999999999995602
16.99999999999795 10.99999999998837 0.0399999999998959
16.99999999999795 10.99999999998837 0.05999999999989428
16.99999999999795 10.99999999998837 0.0799999999999474
16.99999999999816 11.99999999998967 0.01999999999995602
16.99999999999816 11.99999999998967 0.0399999999998959
16.99999999999817 11.99999999998967 0.05999999999989428
16.99999999999817 11.99999999998967 0.0799999999999474
16.9999999999984 12.99999999999095 0.01999999999995602
16.9999999999984 12.99999999999096 0.0399999999998959
16.9999999999984 12.99999999999096 0.0599999999998943
16.9999999999984 12.99999999999095 0.07999999999994742
16.99999999999862 13.99999999999225 0.01999999999995603
16.99999999999862 13.99999999999224 0.0399999999998959
16.99999999999862 13.99999999999224 0.05999999999989428
16.99999999999863 13.99999999999224 0.07999999999994742
16.99999999999886 14.99999999999354 0.01999999999995602
16.99999999999886 14.99999999999354 0.03999999999989589
16.99999999999886 14.99999999999354 0.05999999999989433
16.99999999999886 14.99999999999355 0.07999999999994742
16.99999999999907 15.99999999999484 0.01999999999995602
16.99999999999908 15.99999999999484 0.0399999999998959
16.99999999999908 15.99999999999484 0.05999999999989433
16.99999999999908 15.99999999999483 0.07999999999994742
16.99999999999931 16.99999999999611 0.01999999999995602
16.99999999999931 16.99999999999611 0.03999999999989591
16.99999999999932 16.99999999999612 0.05999999999989433
16.99999999999932 16.99999999999611 0.07999999999994742
16.99999999999953 17.99999999999741 0.01999999999995602
16.99999999999954 17.99999999999741 0.0399999999998959
16.99999999999954 17.99999999999741 0.0599999999998943
16.99999999999954 17.99999999999741 0.07999999999994743
16.99999999999977 18.9999999999987 0.01999999999995602
16.99999999999978 18.99999999999871 0.0399999999998959
16.99999999999977 18.9999999999987 0.05999999999989432
16.99999999999978 18.99999999999871 0.07999999999994742
17.9999999999971 0.9999999999991914 0.01999999999995602
17.9999999999971 0.9999999999991918 0.03999999999989586
17.99999999999709 0.9999999999991921 0.05999999999989428
17.9999999999971 0.9999999999991915 0.07999999999994745
17.99999999999726 1.99999999999854 0.01999999999995603
17.99999999999726 1.999999999998539 0.0399999999998959
17.99999999999726 1.99999999999854 0.0599999999998943
17.99999999999726 1.999999999998539 0.07999999999994743
17.99999999999742 2.999999999996912 0.01999999999995601
17.99999999999742 2.999999999996912 0.0399999999998959
17.99999999999741 2.999999999996911 0.05999999999989429
17.99999999999741 2.999999999996913 0.07999999999994747
17.99999999999756 3.999999999994282 0.019999999999956
17.99999999999756 3.999999999994284 0.0399999999998959
17.99999999999756 3.999999999994282 0.05999999999989429
17.99999999999756 3.999999999994282 0.07999999999994743
17.99999999999772 4.999999999991654 0.01999999999995603
17.99999999999772 4.999999999991656 0.0399999999998959
17.99999999999771 4.999999999991654 0.05999999999989429
17.99999999999772 4.999999999991655 0.07999999999994745
17.99999999999787 5.999999999989022 0.01999999999995603
17.99999999999786 5.999999999989018 0.0399999999998959
17.99999999999786 5.999999999989021 0.05999999999989428
17.99999999999787 5.999999999989027 0.07999999999994746
17.99999999999803 6.999999999986394 0.019999999999956
17.99999999999802 6.999999999986398 0.0399999999998959
17.99999999999802 6.999999999986396 0.0599999999998943
17.99999999999802 6.999999999986391 0.07999999999994743
17.99999999999817 7.999999999983828 0.01999999999995603
17.99999999999817 7.999999999983825 0.0399999999998959
17.99999999999816 7.999999999983824 0.05999999999989428
17.99999999999817 7.999999999983829 0.07999999999994743
17.99999999999832 8.999999999984944 0.01999999999995602
17.99999999999832 8.999999999984949 0.0399999999998959
17.99999999999832 8.999999999984942 0.05999999999989431
17.99999999999832 8.99999999998495 0.07999999999994743
17.99999999999848 9.999999999986326 0.019999999999956
17.99999999999847 9.99999999998632 0.0399999999998959
17.99999999999847 9.999999999986317 0.0599999999998943
17.99999999999847 9.99999999998632 0.07999999999994742
17.99999999999863 10.99999999998769 0.01999999999995601
17.99999999999863 10.99999999998768 0.0399999999998959
17.99999999999863 10.99999999998769 0.05999999999989428
17.99999999999863 10.99999999998768 0.07999999999994743
17.99999999999879 11.99999999998906 0.01999999999995602
17.99999999999878 11.99999999998906 0.03999999999989589
17.99999999999878 11.99999999998906 0.05999999999989425
17.99999999999878 11.99999999998906 0.07999999999994742
17.99999999999893 12.99999999999042 0.019999999999956
17.99999999999893 12.99999999999042 0.0399999999998959
17.99999999999893 12.99999999999042 0.05999999999989429
17.99999999999893 12.99999999999041 0.07999999999994742
17.99999999999909 13.99999999999179 0.01999999999995603
17.99999999999908 13.99999999999179 0.0399999999998959
17.99999999999908 13.99999999999178 0.05999999999989428
17.99999999999908 13.99999999999179 0.07999999999994743
17.99999999999923 14.99999999999315 0.01999999999995602
17.99999999999923 14.99999999999316 0.0399999999998959
17.99999999999923 14.99999999999316 0.05999999999989429
17.99999999999924 14.99999999999316 0.07999999999994743
17.99999999999939 15.99999999999452 0.01999999999995602
17.99999999999939 15.99999999999454 0.0399999999998959
17.99999999999939 15.99999999999452 0.05999999999989429
17.9999999999994 15.99999999999453 0.07999999999994743
17.99999999999953 16.99999999999589 0.01999999999995602
17.99999999999953 16.99999999999589 0.0399999999998959
17.99999999999954 16.99999999999589 0.0599999999998943
17.99999999999954 16.99999999999589 0.07999999999994743
17.99999999999969 17.99999999999725 0.01999999999995602
17.99999999999969 17.99999999999725 0.0399999999998959
17.99999999999968 17.99999999999725 0.05999999999989428
17.99999999999969 17.99999999999725 0.07999999999994743
17.99999999999984 18.99999999999863 0.01999999999995602
17.99999999999984 18.99999999999864 0.0399999999998959
17.99999999999984 18.99999999999863 0.05999999999989428
17.99999999999984 18.99999999999864 0.07999999999994742
18.99999999999856 0.9999999999991469 0.01999999999995602
18.99999999999856 0.9999999999991468 0.03999999999989588
18.99999999999855 0.9999999999991467 0.05999999999989428
18.99999999999856 0.9999999999991463 0.0799999999999474
18.99999999999863 1.999999999998459 0.01999999999995602
18.99999999999864 1.999999999998458 0.0399999999998959
18.99999999999863 1.999999999998458 0.0599999999998943
18.99999999999864 1.999999999998459 0.07999999999994743
18.9999999999987 2.999999999996741 0.01999999999995601
18.99999999999871 2.999999999996741 0.0399999999998959
18.99999999999871 2.999999999996743 0.05999999999989429
18.99999999999871 2.999999999996743 0.07999999999994749
18.99999999999878 3.999999999993967 0.01999999999995601
18.99999999999879 3.999999999993967 0.03999999999989589
18.99999999999877 3.999999999993965 0.05999999999989429
18.99999999999878 3.999999999993965 0.07999999999994739
18.99999999999886 4.999999999991191 0.01999999999995602
18.99999999999886 4.999999999991191 0.0399999999998959
18.99999999999885 4.999999999991189 0.05999999999989428
18.99999999999887 4.999999999991187 0.07999999999994739
18.99999999999892 5.999999999988413 0.01999999999995602
18.99999999999893 5.999999999988413 0.03999999999989588
18.99999999999892 5.999999999988413 0.05999999999989428
18.99999999999893 5.999999999988415 0.07999999999994742
18.999999999999 6.99999999998564 0.019999999999956
18.99999999999901 6.999999999985644 0.0399999999998959
18.999999999999 6.999999999985644 0.0599999999998943
18.99999999999901 6.999999999985642 0.07999999999994742
18.99999999999908 7.999999999982929 0.01999999999995602
18.99999999999909 7.999999999982928 0.0399999999998959
18.99999999999908 7.999999999982933 0.05999999999989429
18.99999999999909 7.999999999982933 0.0799999999999474
18.99999999999916 8.999999999984116 0.01999999999995601
18.99999999999917 8.999999999984114 0.0399999999998959
18.99999999999917 8.999999999984114 0.05999999999989433
18.99999999999917 8.999999999984116 0.0799999999999474
18.99999999999923 9.999999999985558 0.01999999999995601
18.99999999999924 9.999999999985556 0.0399999999998959
18.99999999999924 9.999999999985558 0.0599999999998943
18.99999999999924 9.999999999985558 0.0799999999999474
18.99999999999932 10.999999999987 0.01999999999995602
18.99999999999932 10.999999999987 0.0399999999998959
18.99999999999931 10.999999999987 0.0599999999998943
18.99999999999932 10.999999999987 0.0799999999999474
18.99999999999939 11.99999999998845 0.01999999999995602
18.99999999999939 11.99999999998845 0.0399999999998959
18.99999999999938 11.99999999998845 0.0599999999998943
18.9999999999994 11.99999999998844 0.07999999999994742
18.99999999999947 12.9999999999899 0.019999999999956
18.99999999999947 12.9999999999899 0.0399999999998959
18.99999999999946 12.9999999999899 0.05999999999989428
18.99999999999947 12.99999999998989 0.07999999999994743
18.99999999999954 13.99999999999133 0.01999999999995603
18.99999999999954 13.99999999999133 0.0399999999998959
18.99999999999953 13.99999999999133 0.05999999999989427
18.99999999999955 13.99999999999133 0.07999999999994743
18.99999999999963 14.99999999999277 0.01999999999995601
18.99999999999963 14.99999999999278 0.03999999999989588
18.99999999999961 14.99999999999278 0.05999999999989429
18.99999999999963 14.99999999999278 0.07999999999994743
18.99999999999969 15.99999999999422 0.01999999999995602
18.9999999999997 15.99999999999423 0.0399999999998959
18.99999999999969 15.99999999999422 0.05999999999989432
18.99999999999969 15.99999999999423 0.07999999999994743
18.99999999999977 16.99999999999567 0.01999999999995602
18.99999999999977 16.99999999999567 0.0399999999998959
18.99999999999977 16.99999999999566 0.05999999999989432
18.99999999999978 16.99999999999566 0.07999999999994742
18.99999999999984 17.9999999999971 0.01999999999995602
18.99999999999984 17.9999999999971 0.0399999999998959
18.99999999999984 17.9999999999971 0.05999999999989431
18.99999999999984 17.9999999999971 0.07999999999994742
18.99999999999991 18.99999999999856 0.01999999999995602
18.99999999999993 18.99999999999856 0.0399999999998959
18.99999999999991 18.99999999999855 0.05999999999989431
18.99999999999992 18.99999999999856 0.0799999999999474
CELLS 2000 18000
8 0 8 176 83 160 898 1202 1198
8 160 898 1202 1198 161 899 1203 1199
8 161 899 1203 1199 162 900 1204 1200
8 162 900 1204 1200 163 901 1205 1201
8 163 901 1205 1201 4 84 537 159
8 83 176 177 82 1198 1202 1206 1194
8 1198 1202 1206 1194 1199 1203 1207 1195
8 1199 1203 1207 1195 1200 1204 1208 1196
8 1200 1204 1208 1196 1201 1205 1209 1197
8 1201 1205 1209 1197 159 537 538 158
8 82 177 178 81 1194 1206 1210 1190
8 1194 1206 1210 1190 1195 1207 1211 1191
8 1195 1207 1211 1191 1196 1208 1212 1192
8 1196 1208 1212 1192 1197 1209 1213 1193
8 1197 1209 1213 1193 158 538 539 157
8 81 178 179 80 1190 1210 1214 1186
8 1190 1210 1214 1186 1191 1211 1215 1187
8 1191 1211 1215 1187 1192 1212 1216 1188
8 1192 1212 1216 1188 1193 1213 1217 1189
8 1193 1213 1217 1189 157 539 540 156
8 80 179 180 79 1186 1214 1218 1182
8 1186 1214 1218 1182 1187 1215 1219 1183
8 1187 1215 1219 1183 1188 1216 1220 1184
8 1188 1216 1220 1184 1189 1217 1221 1185
8 1189 1217 1221 1185 156 540 541 155
8 79 180 181 78 1182 1218 1222 1178
8 1182 1218 1222 1178 1183 1219 1223 1179
8 1183 1219 1223 1179 1184 1220 1224 1180
8 1184 1220 1224 1180 1185 1221 1225 1181
8 1185 1221 1225 1181 155 541 542 154
8 78 181 182 77 1178 1222 1226 1174
8 1178 1222 1226 1174 1179 1223 1227 1175
8 1179 1223 1227 1175 1180 1224 1228 1176
8 1180 1224 1228 1176 1181 1225 1229 1177
8 1181 1225 1229 1177 154 542 543 153
8 77 182 183 76 1174 1226 1230 1170
8 1174 1226 1230 1170 1175 1227 1231 1171
8 1175 1227 1231 1171 1176 1228 1232 1172
8 1176 1228 1232 1172 1177 1229 1233 1173
8 1177 1229 1233 1173 153 543 544 152
8 76 183 184 75 1170 1230 1234 1166
8 1170 1230 1234 1166 1171 1231 1235 1167
8 1171 1231 1235 1167 1172 1232 1236 1168
8 1172 1232 1236 1168 1173 1233 1237 1169
8 1173 1233 1237 1169 152 544 545 151
8 75 184 185 74 1166 1234 1238 1162
8 1166 1234 1238 1162 1167 1235 1239 1163
8 1167 1235 1239 1163 1168 1236 1240 1164
8 1168 1236 1240 1164 1169 1237 1241 1165
8 1169 1237 1241 1165 151 545 546 150
8 74 185 186 73 1162 1238 1242 1158
8 1162 1238 1242 1158 1163 1239 1243 1159
8 1163 1239 1243 1159 1164 1240 1244 1160
8 1164 1240 1244 1160 1165 1241 1245 1161
8 1165 1241 1245 1161 150 546 547 149
8 73 186 187 72 1158 1242 1246 1154
8 1158 1242 1246 1154 1159 1243 1247 1155
8 1159 1243 1247 1155 1160 1244 1248 1156
8 1160 1244 1248 1156 1161 1245 1249 1157
8 1161 1245 1249 1157 149 547 548 148
8 72 187 188 71 1154 1246 1250 1150
8 1154 1246 1250 1150 1155 1247 1251 1151
8 1155 1247 1251 1151 1156 1248 1252 1152
8 1156 1248 1252 1152 1157 1249 1253 1153
8 1157 1249 1253 1153 148 548 549 147
8 71 188 189 70 1150 1250 1254 1146
8 1150 1250 1254 1146 1151 1251 1255 1147
8 1151 1251 1255 1147 1152 1252 1256 1148
8 1152 1252 1256 1148 1153 1253 1257 1149
8 1153 1253 1257 1149 147 549 550 146
8 70 189 190 69 1146 1254 1258 1142
8 1146 1254 1258 1142 1147 1255 1259 1143
8 1147 1255 1259 1143 1148 1256 1260 1144
8 1148 1256 1260 1144 1149 1257 1261 1145
8 1149 1257 1261 1145 146 550 551 145
8 69 190 191 68 1142 1258 1262 1138
8 1142 1258 1262 1138 1143 1259 1263 1139
8 1143 1259 1263 1139 1144 1260 1264 1140
8 1144 1260 1264 1140 1145 1261 1265 1141
8 1145 1261 1265 1141 145 551 552 144
8 68 191 192 67 1138 1262 1266 1134
8 1138 1262 1266 1134 1139 1263 1267 1135
8 1139 1263 1267 1135 1140 1264 1268 1136
8 1140 1264 1268 1136 1141 1265 1269 1137
8 1141 1265 1269 1137 144 552 553 143
8 67 192 193 66 1134 1266 1270 1130
8 1134 1266 1270 1130 1135 1267 1271 1131
8 1135 1267 1271 1131 1136 1268 1272 1132
8 1136 1268 1272 1132 1137 1269 1273 1133
8 1137 1269 1273 1133 143 553 554 142
8 66 193 194 65 1130 1270 1274 1126
8 1130 1270 1274 1126 1131 1271 1275 1127
8 1131 1271 1275 1127 1132 1272 1276 1128
8 1132 1272 1276 1128 1133 1273 1277 1129
8 1133 1273 1277 1129 142 554 555 141
8 65 194 64 3 1126 1274 1122 172
8 1126 1274 1122 172 1127 1275 1123 173
8 1127 1275 1123 173 1128 1276 1124 174
8 1128 1276 1124 174 1129 1277 1125 175
8 1129 1277 1125 175 141 555 140 7
8 8 9 195 176 898 902 1278 1202
8 898 902 1278 1202 899 903 1279 1203
8 899 903 1279 1203 900 904 1280 1204
8 900 904 1280 1204 901 905 1281 1205
8 901 905 1281 1205 84 85 556 537
8 176 195 196 177 1202 1278 1282 1206
8 1202 1278 1282 1206 1203 1279 1283 1207
8 1203 1279 1283 1207 1204 1280 1284 1208
8 1204 1280 1284 1208 1205 1281 1285 1209
8 1205 1281 1285 1209 537 556 557 538
8 177 196 197 178 1206 1282 1286 1210
8 1206 1282 1286 1210 1207 1283 1287 1211
8 1207 1283 1287 1211 1208 1284 1288 1212
8 1208 1284 1288 1212 1209 1285 1289 1213
8 1209 1285 1289 1213 538 557 558 539
8 178 197 198 179 1210 1286 1290 1214
8 1210 1286 1290 1214 1211 1287 1291 1215
8 1211 1287 1291 1215 1212 1288 1292 1216
8 1212 1288 1292 1216 1213 1289 1293 1217
8 1213 1289 1293 1217 539 558 559 540
8 179 198 199 180 1214 1290 1294 1218
8 1214 1290 1294 1218 1215 1291 1295 1219
8 1215 1291 1295 1219 1216 1292 1296 1220
8 1216 1292 1296 1220 1217 1293 1297 1221
8 1217 1293 1297 1221 540 559 560 541
8 180 199 200 181 1218 1294 1298 1222
8 1218 1294 1298 1222 1219 1295 1299 1223
8 1219 1295 1299 1223 1220 1296 1300 1224
8 1220 1296 1300 1224 1221 1297 1301 1225
8 1221 1297 1301 1225 541 560 561 542
8 181 200 201 182 1222 1298 1302 1226
8 1222 1298 1302 1226 1223 1299 1303 1227
8 1223 1299 1303 1227 1224 1300 1304 1228
8 1224 1300 1304 1228 1225 1301 1305 1229
8 1225 1301 1305 1229 542 561 562 543
8 182 201 202 183 1226 1302 1306 1230
8 1226 1302 1306 1230 1227 1303 1307 1231
8 1227 1303 1307 1231 1228 1304 1308 1232
8 1228 1304 1308 1232 1229 1305 1309 1233
8 1229 1305 1309 1233 543 562 563 544
8 183 202 203 184 1230 1306 1310 1234
8 1230 1306 1310 1234 1231 1307 1311 1235
8 1231 1307 1311 1235 1232 1308 1312 1236
8 1232 1308 1312 1236 1233 1309 1313 1237
8 1233 1309 1313 1237 544 563 564 545
8 184 203 204 185 1234 1310 1314 1238
8 1234 1310 1314 1238 1235 1311 1315 1239
8 1235 1311 1315 1239 1236 1312 1316 1240
8 1236 1312 1316 1240 1237 1313 1317 1241
8 1237 1313 1317 1241 545 564 565 546
8 185 204 205 186 1238 1314 1318 1242
8 1238 1314 1318 1242 1239 1315 1319 1243
8 1239 1315 1319 1243 1240 1316 1320 1244
8 1240 1316 1320 1244 1241 1317 1321 1245
8 1241 1317 1321 1245 546 565 566 547
8 186 205 206 187 1242 1318 1322 1246
8 1242 1318 1322 1246 1243 1319 1323 1247
8 1243 1319 1323 1247 1244 1320 1324 1248
8 1244 1320 1324 1248 1245 1321 1325 1249
8 1245 1321 1325 1249 547 566 567 548
8 187 206 207 188 1246 1322 1326 1250
8 1246 1322 1326 1250 1247 1323 1327 1251
8 1247 1323 1327 1251 1248 1324 1328 1252
8 1248 1324 1328 1252 1249 1325 1329 1253
8 1249 1325 1329 1253 548 567 568 549
8 188 207 208 189 1250 1326 1330 1254
8 1250 1326 1330 1254 1251 1327 1331 1255
8 1251 1327 1331 1255 1252 1328 1332 1256
8 1252 1328 1332 1256 1253 1329 1333 1257
8 1253 1329 1333 1257 549 568 569 550
8 189 208 209 190 1254 1330 1334 1258
8 1254 1330 1334 1258 1255 1331 1335 1259
8 1255 1331 1335 1259 1256 1332 1336 1260
8 1256 1332 1336 1260 1257 1333 1337 1261
8 1257 1333 1337 1261 550 569 570 551
8 190 209 210 191 1258 1334 1338 1262
8 1258 1334 1338 1262 1259 1335 1339 1263
8 1259 1335 1339 1263 1260 1336 1340 1264
8 1260 1336 1340 1264 1261 1337 1341 1265
8 1261 1337 1341 1265 551 570 571 552
8 191 210 211 192 1262 1338 1342 1266
8 1262 1338 1342 1266 1263 1339 1343 1267
8 1263 1339 1343 1267 1264 1340 1344 1268
8 1264 1340 1344 1268 1265 1341 1345 1269
8 1265 1341 1345 1269 552 571 572 553
8 192 211 212 193 1266 1342 1346 1270
8 1266 1342 1346 1270 1267 1343 1347 1271
8 1267 1343 1347 1271 1268 1344 1348 1272
8 1268 1344 1348 1272 1269 1345 1349 1273
8 1269 1345 1349 1273 553 572 573 554
8 193 212 213 194 1270 1346 1350 1274
8 1270 1346 1350 1274 1271 1347 1351 1275
8 1271 1347 1351 1275 1272 1348 1352 1276
8 1272 1348 1352 1276 1273 1349 1353 1277
8 1273 1349 1353 1277 554 573 574 555
8 194 213 63 64 1274 1350 1118 1122
8 1274 1350 1118 1122 1275 1351 1119 1123
8 1275 1351 1119 1123 1276 1352 1120 1124
8 1276 1352 1120 1124 1277 1353 1121 1125
8 1277 1353 1121 1125 555 574 139 140
8 9 10 214 195 902 906 1354 1278
8 902 906 1354 1278 903 907 1355 1279
8 903 907 1355 1279 904 908 1356 1280
8 904 908 1356 1280 905 909 1357 1281
8 905 909 1357 1281 85 86 575 556
8 195 214 215 196 1278 1354 1358 1282
8 1278 1354 1358 1282 1279 1355 1359 1283
8 1279 1355 1359 1283 1280 1356 1360 1284
8 1280 1356 1360 1284 1281 1357 1361 1285
8 1281 1357 1361 1285 556 575 576 557
8 196 215 216 197 1282 1358 1362 1286
8 1282 1358 1362 1286 1283 1359 1363 1287
8 1283 1359 1363 1287 1284 1360 1364 1288
8 1284 1360 1364 1288 1285 1361 1365 1289
8 1285 1361 1365 1289 557 576 577 558
8 197 216 217 198 1286 1362 1366 1290
8 1286 1362 1366 1290 1287 1363 1367 1291
8 1287 1363 1367 1291 1288 1364 1368 1292
8 1288 1364 1368 1292 1289 1365 1369 1293
8 1289 1365 1369 1293 558 577 578 559
8 198 217 218 199 1290 1366 1370 1294
8 1290 1366 1370 1294 1291 1367 1371 1295
8 1291 1367 1371 1295 1292 1368 1372 1296
8 1292 1368 1372 1296 1293 1369 1373 1297
8 1293 1369 1373 1297 559 578 579 560
8 199 218 219 200 1294 1370 1374 1298
8 1294 1370 1374 1298 1295 1371 1375 1299
8 1295 1371 1375 1299 1296 1372 1376 1300
8 1296 1372 1376 1300 1297 1373 1377 1301
8 1297 1373 1377 1301 560 579 580 561
8 200 219 220 201 1298 1374 1378 1302
8 1298 1374 1378 1302 1299 1375 1379 1303
8 1299 1375 1379 1303 1300 1376 1380 1304
8 1300 1376 1380 1304 1301 1377 1381 1305
8 1301 1377 1381 1305 561 580 581 562
8 201 220 221 202 1302 1378 1382 1306
8 1302 1378 1382 1306 1303 1379 1383 1307
8 1303 1379 1383 1307 1304 1380 1384 1308
8 1304 1380 1384 1308 1305 1381 1385 1309
8 1305 1381 1385 1309 562 581 582 563
8 202 221 222 203 1306 1382 1386 1310
8 1306 1382 1386 1310 1307 1383 1387 1311
8 1307 1383 1387 1311 1308 1384 1388 1312
8 1308 1384 1388 1312 1309 1385 1389 1313
8 1309 1385 1389 1313 563 582 583 564
8 203 222 223 204 1310 1386 1390 1314
8 1310 1386 1390 1314 1311 1387 1391 1315
8 1311 1387 1391 1315 1312 1388 1392 1316
8 1312 1388 1392 1316 1313 1389 1393 1317
8 1313 1389 1393 1317 564 583 584 565
8 204 223 224 205 1314 1390 1394 1318
8 1314 1390 1394 1318 1315 1391 1395 1319
8 1315 1391 1395 1319 1316 1392 1396 1320
8 1316 1392 1396 1320 1317 1393 1397 1321
8 1317 1393 1397 1321 565 584 585 566
8 205 224 225 206 1318 1394 1398 1322
8 1318 1394 1398 1322 1319 1395 1399 1323
8 1319 1395 1399 1323 1320 1396 1400 1324
8 1320 1396 1400 1324 1321 1397 1401 1325
8 1321 1397 1401 1325 566 585 586 567
8 206 225 226 207 1322 1398 1402 1326
8 1322 1398 1402 1326 1323 1399 1403 1327
8 1323 1399 1403 1327 1324 1400 1404 1328
8 1324 1400 1404 1328 1325 1401 1405 1329
8 1325 1401 1405 1329 567 586 587 568
8 207 226 227 208 1326 1402 1406 1330
8 1326 1402 1406 1330 1327 1403 1407 1331
8 1327 1403 1407 1331 1328 1404 1408 1332
8 1328 1404 1408 1332 1329 1405 1409 1333
8 1329 1405 1409 1333 568 587 588 569
8 208 227 228 209 1330 1406 1410 1334
8 1330 1406 1410 1334 1331 1407 1411 1335
8 1331 1407 1411 1335 1332 1408 1412 1336
8 1332 1408 1412 1336 1333 1409 1413 1337
8 1333 1409 1413 1337 569 588 589 570
8 209 228 229 210 1334 1410 1414 1338
8 1334 1410 1414 1338 1335 1411 1415 1339
8 1335 1411 1415 1339 1336 1412 1416 1340
8 1336 1412 1416 1340 1337 1413 1417 1341
8 1337 1413 1417 1341 570 589 590 571
8 210 229 230 211 1338 1414 1418 1342
8 1338 1414 1418 1342 1339 1415 1419 1343
8 1339 1415 1419 1343 1340 1416 1420 1344
8 1340 1416 1420 1344 1341 1417 1421 1345
8 1341 1417 1421 1345 571 590 591 572
8 211 230 231 212 1342 1418 1422 1346
8 1342 1418 1422 1346 1343 1419 1423 1347
8 1343 1419 1423 1347 1344 1420 1424 1348
8 1344 1420 1424 1348 1345 1421 1425 1349
8 1345 1421 1425 1349 572 591 592 573
8 212 231 232 213 1346 1422 1426 1350
8 1346 1422 1426 1350 1347 1423 1427 1351
8 1347 1423 1427 1351 1348 1424 1428 1352
8 1348 1424 1428 1352 1349 1425 1429 1353
8 1349 1425 1429 1353 573 592 593 574
8 213 232 62 63 1350 1426 1114 1118
8 1350 1426 1114 1118 1351 1427 1115 1119
8 1351 1427 1115 1119 1352 1428 1116 1120
8 1352 1428 1116 1120 1353 1429 1117 1121
8 1353 1429 1117 1121 574 593 138 139
8 10 11 233 214 906 910 1430 1354
8 906 910 1430 1354 907 911 1431 1355
8 907 911 1431 1355 908 912 1432 1356
8 908 912 1432 1356 909 913 1433 1357
8 909 913 1433 1357 86 87 594 575
8 214 233 234 215 1354 1430 1434 1358
8 1354 1430 1434 1358 1355 1431 1435 1359
8 1355 1431 1435 1359 1356 1432 1436 1360
8 1356 1432 1436 1360 1357 1433 1437 1361
8 1357 1433 1437 1361 575 594 595 576
8 215 234 235 216 1358 1434 1438 1362
8 1358 1434 1438 1362 1359 1435 1439 1363
8 1359 1435 1439 1363 1360 1436 1440 1364
8 1360 1436 1440 1364 1361 1437 1441 1365
8 1361 1437 1441 1365 576 595 596 577
8 216 235 236 217 1362 1438 1442 1366
8 1362 1438 1442 1366 1363 1439 1443 1367
8 1363 1439 1443 1367 1364 1440 1444 1368
8 1364 1440 1444 1368 1365 1441 1445 1369
8 1365 1441 1445 1369 577 596 597 578
8 217 236 237 218 1366 1442 1446 1370
8 1366 1442 1446 1370 1367 1443 1447 1371
8 1367 1443 1447 1371 1368 1444 1448 1372
8 1368 1444 1448 1372 1369 1445 1449 1373
8 1369 1445 1449 1373 578 597 598 579
8 218 237 238 219 1370 1446 1450 1374
8 1370 1446 1450 1374 1371 1447 1451 1375
8 1371 1447 1451 1375 1372 1448 1452 1376
8 1372 1448 1452 1376 1373 1449 1453 1377
8 1373 1449 1453 1377 579 598 599 580
8 219 238 239 220 1374 1450 1454 1378
8 1374 1450 1454 1378 1375 1451 1455 1379
8 1375 1451 1455 1379 1376 1452 1456 1380
8 1376 1452 1456 1380 1377 1453 1457 1381
8 1377 1453 1457 1381 580 599 600 581
8 220 239 240 221 1378 1454 1458 1382
8 1378 1454 1458 1382 1379 1455 1459 1383
8 1379 1455 1459 1383 1380 1456 1460 1384
8 1380 1456 1460 1384 1381 1457 1461 1385
8 1381 1457 1461 1385 581 600 601 582
8 221 240 241 222 1382 1458 1462 1386
8 1382 1458 1462 1386 1383 1459 1463 1387
8 1383 1459 1463 1387 1384 1460 1464 1388
8 1384 1460 1464 1388 1385 1461 1465 1389
8 1385 1461 1465 1389 582 601 602 583
8 222 241 242 223 1386 1462 1466 1390
8 1386 1462 1466 1390 1387 1463 1467 1391
8 1387 1463 1467 1391 1388 1464 1468 1392
8 1388 1464 1468 1392 1389 1465 1469 1393
8 1389 1465 1469 1393 583 602 603 584
8 223 242 243 224 1390 1466 1470 1394
8 1390 1466 1470 1394 1391 1467 1471 1395
8 1391 1467 1471 1395 1392 1468 1472 1396
8 1392 1468 1472 1396 1393 1469 1473 1397
8 1393 1469 1473 1397 584 603 604 585
8 224 243 244 225 1394 1470 1474 1398
8 1394 1470 1474 1398 1395 1471 1475 1399
8 1395 1471 1475 1399 1396 1472 1476 1400
8 1396 1472 1476 1400 1397 1473 1477 1401
8 1397 1473 1477 1401 585 604 605 586
8 225 244 245 226 1398 1474 1478 1402
8 1398 1474 1478 1402 1399 1475 1479 1403
8 1399 1475 1479 1403 1400 1476 1480 1404
8 1400 1476 1480 1404 1401 1477 1481 1405
8 1401 1477 1481 1405 586 605 606 587
8 226 245 246 227 1402 1478 1482 1406
8 1402 1478 1482 1406 1403 1479 1483 1407
8 1403 1479 1483 1407 1404 1480 1484 1408
8 1404 1480 1484 1408 1405 1481 1485 1409
8 1405 1481 1485 1409 587 606 607 588
8 227 246 247 228 1406 1482 1486 1410
8 1406 1482 1486 1410 1407 1483 1487 1411
8 1407 1483 1487 1411 1408 1484 1488 1412
8 1408 1484 1488 1412 1409 1485 1489 1413
8 1409 1485 1489 1413 588 607 608 589
8 228 247 248 229 1410 1486 1490 1414
8 1410 1486 1490 1414 1411 1487 1491 1415
8 1411 1487 1491 1415 1412 1488 1492 1416
8 1412 1488 1492 1416 1413 1489 1493 1417
8 1413 1489 1493 1417 589 608 609 590
8 229 248 249 230 1414 1490 1494 1418
8 1414 1490 1494 1418 1415 1491 1495 1419
8 1415 1491 1495 1419 1416 1492 1496 1420
8 1416 1492 1496 1420 1417 1493 1497 1421
8 1417 1493 1497 1421 590 609 610 591
8 230 249 250 231 1418 1494 1498 1422
8 1418 1494 1498 1422 1419 1495 1499 1423
8 1419 1495 1499 1423 1420 1496 1500 1424
8 1420 1496 1500 1424 1421 1497 1501 1425
8 1421 1497 1501 1425 591 610 611 592
8 231 250 251 232 1422 1498 1502 1426
8 1422 1498 1502 1426 1423 1499 1503 1427
8 1423 1499 1503 1427 1424 1500 1504 1428
8 1424 1500 1504 1428 1425 1501 1505 1429
8 1425 1501 1505 1429 592 611 612 593
8 232 251 61 62 1426 1502 1110 1114
8 1426 1502 1110 1114 1427 1503 1111 1115
8 1427 1503 1111 1115 1428 1504 1112 1116
8 1428 1504 1112 1116 1429 1505 1113 1117
8 1429 1505 1113 1117 593 612 137 138
8 11 12 252 233 910 914 1506 1430
8 910 914 1506 1430 911 915 1507 1431
8 911 915 1507 1431 912 916 1508 1432
8 912 916 1508 1432 913 917 1509 1433
8 913 917 1509 1433 87 88 613 594
8 233 252 253 234 1430 1506 1510 1434
8 1430 1506 1510 1434 1431 1507 1511 1435
8 1431 1507 1511 1435 1432 1508 1512 1436
8 1432 1508 1512 1436 1433 1509 1513 1437
8 1433 1509 1513 1437 594 613 614 595
8 234 253 254 235 1434 1510 1514 1438
8 1434 1510 1514 1438 1435 1511 1515 1439
8 1435 1511 1515 1439 1436 1512 1516 1440
8 1436 1512 1516 1440 1437 1513 1517 1441
8 1437 1513 1517 1441 595 614 615 596
8 235 254 255 236 1438 1514 1518 1442
8 1438 1514 1518 1442 1439 1515 1519 1443
8 1439 1515 1519 1443 1440 1516 1520 1444
8 1440 1516 1520 1444 1441 1517 1521 1445
8 1441 1517 1521 1445 596 615 616 597
8 236 255 256 237 1442 1518 1522 1446
8 1442 1518 1522 1446 1443 1519 1523 1447
8 1443 1519 1523 1447 1444 1520 1524 1448
8 1444 1520 1524 1448 1445 1521 1525 1449
8 1445 1521 1525 1449 597 616 617 598
8 237 256 257 238 1446 1522 1526 1450
8 1446 1522 1526 1450 1447 1523 1527 1451
8 1447 1523 1527 1451 1448 1524 1528 1452
8 1448 1524 1528 1452 1449 1525 1529 1453
8 1449 1525 1529 1453 598 617 618 599
8 238 257 258 239 1450 1526 1530 1454
8 1450 1526 1530 1454 1451 1527 1531 1455
8 1451 1527 1531 1455 1452 1528 1532 1456
8 1452 1528 1532 1456 1453 1529 1533 1457
8 1453 1529 1533 1457 599 618 619 600
8 239 258 259 240 1454 1530 1534 1458
8 1454 1530 1534 1458 1455 1531 1535 1459
8 1455 1531 1535 1459 1456 1532 1536 1460
8 1456 1532 1536 1460 1457 1533 1537 1461
8 1457 1533 1537 1461 600 619 620 601
8 240 259 260 241 1458 1534 1538 1462
8 1458 1534 1538 1462 1459 1535 1539 1463
8 1459 1535 1539 1463 1460 1536 1540 1464
8 1460 1536 1540 1464 1461 1537 1541 1465
8 1461 1537 1541 1465 601 620 621 602
8 241 260 261 242 1462 1538 1542 1466
8 1462 1538 1542 1466 1463 1539 1543 1467
8 1463 1539 1543 1467 1464 1540 1544 1468
8 1464 1540 1544 1468 1465 1541 1545 1469
8 1465 1541 1545 1469 602 621 622 603
8 242 261 262 243 1466 1542 1546 1470
8 1466 1542 1546 1470 1467 1543 1547 1471
8 1467 1543 1547 1471 1468 1544 1548 1472
8 1468 1544 1548 1472 1469 1545 1549 1473
8 1469 1545 1549 1473 603 622 623 604
8 243 262 263 244 1470 1546 1550 1474
8 1470 1546 1550 1474 1471 1547 1551 1475
8 1471 1547 1551 1475 1472 1548 1552 1476
8 1472 1548 1552 1476 1473 1549 1553 1477
8 1473 1549 1553 1477 604 623 624 605
8 244 263 264 245 1474 1550 1554 1478
8 1474 1550 1554 1478 1475 1551 1555 1479
8 1475 1551 1555 1479 1476 1552 1556 1480
8 1476 1552 1556 1480 1477 1553 1557 1481
8 1477 1553 1557 1481 605 624 625 606
8 245 264 265 246 1478 1554 1558 1482
8 1478 1554 1558 1482 1479 1555 1559 1483
8 1479 1555 1559 1483 1480 1556 1560 1484
8 1480 1556 1560 1484 1481 1557 1561 1485
8 1481 1557 1561 1485 606 625 626 607
8 246 265 266 247 1482 1558 1562 1486
8 1482 1558 1562 1486 1483 1559 1563 1487
8 1483 1559 1563 1487 1484 1560 1564 1488
8 1484 1560 1564 1488 1485 1561 1565 1489
8 1485 1561 1565 1489 607 626 627 608
8 247 266 267 248 1486 1562 1566 1490
8 1486 1562 1566 1490 1487 1563 1567 1491
8 1487 1563 1567 1491 1488 1564 1568 1492
8 1488 1564 1568 1492 1489 1565 1569 1493
8 1489 1565 1569 1493 608 627 628 609
8 248 267 268 249 1490 1566 1570 1494
8 1490 1566 1570 1494 1491 1567 1571 1495
8 1491 1567 1571 1495 1492 1568 1572 1496
8 1492 1568 1572 1496 1493 1569 1573 1497
8 1493 1569 1573 1497 609 628 629 610
8 249 268 269 250 1494 1570 1574 1498
8 1494 1570 1574 1498 1495 1571 1575 1499
8 1495 1571 1575 1499 1496 1572 1576 1500
8 1496 1572 1576 1500 1497 1573 1577 1501
8 1497 1573 1577 1501 610 629 630 611
8 250 269 270 251 1498 1574 1578 1502
8 1498 1574 1578 1502 1499 1575 1579 1503
8 1499 1575 1579 1503 1500 1576 1580 1504
8 1500 1576 1580 1504 1501 1577 1581 1505
8 1501 1577 1581 1505 611 630 631 612
8 251 270 60 61 1502 1578 1106 1110
8 1502 1578 1106 1110 1503 1579 1107 1111
8 1503 1579 1107 1111 1504 1580 1108 1112
8 1504 1580 1108 1112 1505 1581 1109 1113
8 1505 1581 1109 1113 612 631 136 137
8 12 13 271 252 914 918 1582 1506
8 914 918 1582 1506 915 919 1583 1507
8 915 919 1583 1507 916 920 1584 1508
8 916 920 1584 1508 917 921 1585 1509
8 917 921 1585 1509 88 89 632 613
8 252 271 272 253 1506 1582 1586 1510
8 1506 1582 1586 1510 1507 1583 1587 1511
8 1507 1583 1587 1511 1508 1584 1588 1512
8 1508 1584 1588 1512 1509 1585 1589 1513
8 1509 1585 1589 1513 613 632 633 614
8 253 272 273 254 1510 1586 1590 1514
8 1510 1586 1590 1514 1511 1587 1591 1515
8 1511 1587 1591 1515 1512 1588 1592 1516
8 1512 1588 1592 1516 1513 1589 1593 1517
8 1513 1589 1593 1517 614 633 634 615
8 254 273 274 255 1514 1590 1594 1518
8 1514 1590 1594 1518 1515 1591 1595 1519
8 1515 1591 1595 1519 1516 1592 1596 1520
8 1516 1592 1596 1520 1517 1593 1597 1521
8 1517 1593 1597 1521 615 634 635 616
8 255 274 275 256 1518 1594 1598 1522
8 1518 1594 1598 1522 1519 1595 1599 1523
8 1519 1595 1599 1523 1520 1596 1600 1524
8 1520 1596 1600 1524 1521 1597 1601 1525
8 1521 1597 1601 1525 616 635 636 617
8 256 275 276 257 1522 1598 1602 1526
8 1522 1598 1602 1526 1523 1599 1603 1527
8 1523 1599 1603 1527 1524 1600 1604 1528
8 1524 1600 1604 1528 1525 1601 1605 1529
8 1525 1601 1605 1529 617 636 637 618
8 257 276 277 258 1526 1602 1606 1530
8 1526 1602 1606 1530 1527 1603 1607 1531
8 1527 1603 1607 1531 1528 1604 1608 1532
8 1528 1604 1608 1532 1529 1605 1609 1533
8 1529 1605 1609 1533 618 637 638 619
8 258 277 278 259 1530 1606 1610 1534
8 1530 1606 1610 1534 1531 1607 1611 1535
8 1531 1607 1611 1535 1532 1608 1612 1536
8 1532 1608 1612 1536 1533 1609 1613 1537
8 1533 1609 1613 1537 619 638 639 620
8 259 278 279 260 1534 1610 1614 1538
8 1534 1610 1614 1538 1535 1611 1615 1539
8 1535 1611 1615 1539 1536 1612 1616 1540
8 1536 1612 1616 1540 1537 1613 1617 1541
8 1537 1613 1617 1541 620 639 640 621
8 260 279 280 261 1538 1614 1618 1542
8 1538 1614 1618 1542 1539 1615 1619 1543
8 1539 1615 1619 1543 1540 1616 1620 1544
8 1540 1616 1620 1544 1541 1617 1621 1545
8 1541 1617 1621 1545 621 640 641 622
8 261 280 281 262 1542 1618 1622 1546
8 1542 1618 1622 1546 1543 1619 1623 1547
8 1543 1619 1623 1547 1544 1620 1624 1548
8 1544 1620 1624 1548 1545 1621 1625 1549
8 1545 1621 1625 1549 622 641 642 623
8 262 281 282 263 1546 1622 1626 1550
8 1546 1622 1626 1550 1547 1623 1627 1551
8 1547 1623 1627 1551 1548 1624 1628 1552
8 1548 1624 1628 1552 1549 1625 1629 1553
8 1549 1625 1629 1553 623 642 643 624
8 263 282 283 264 1550 1626 1630 1554
8 1550 1626 1630 1554 1551 1627 1631 1555
8 1551 1627 1631 1555 1552 1628 1632 1556
8 1552 1628 1632 1556 1553 1629 1633 1557
8 1553 1629 1633 1557 624 643 644 625
8 264 283 284 265 1554 1630 1634 1558
8 1554 1630 1634 1558 1555 1631 1635 1559
8 1555 1631 1635 1559 1556 1632 1636 1560
8 1556 1632 1636 1560 1557 1633 1637 1561
8 1557 1633 1637 1561 625 644 645 626
8 265 284 285 266 1558 1634 1638 1562
8 1558 1634 1638 1562 1559 1635 1639 1563
8 1559 1635 1639 1563 1560 1636 1640 1564
8 1560 1636 1640 1564 1561 1637 1641 1565
8 1561 1637 1641 1565 626 645 646 627
8 266 285 286 267 1562 1638 1642 1566
8 1562 1638 1642 1566 1563 1639 1643 1567
8 1563 1639 1643 1567 1564 1640 1644 1568
8 1564 1640 1644 1568 1565 1641 1645 1569
8 1565 1641 1645 1569 627 646 647 628
8 267 286 287 268 1566 1642 1646 1570
8 1566 1642 1646 1570 1567 1643 1647 1571
8 1567 1643 1647 1571 1568 1644 1648 1572
8 1568 1644 1648 1572 1569 1645 1649 1573
8 1569 1645 1649 1573 628 647 648 629
8 268 287 288 269 1570 1646 1650 1574
8 1570 1646 1650 1574 1571 1647 1651 1575
8 1571 1647 1651 1575 1572 1648 1652 1576
8 1572 1648 1652 1576 1573 1649 1653 1577
8 1573 1649 1653 1577 629 648 649 630
8 269 288 289 270 1574 1650 1654 1578
8 1574 1650 1654 1578 1575 1651 1655 1579
8 1575 1651 1655 1579 1576 1652 1656 1580
8 1576 1652 1656 1580 1577 1653 1657 1581
8 1577 1653 1657 1581 630 649 650 631
8 270 289 59 60 1578 1654 1102 1106
8 1578 1654 1102 1106 1579 1655 1103 1107
8 1579 1655 1103 1107 1580 1656 1104 1108
8 1580 1656 1104 1108 1581 1657 1105 1109
8 1581 1657 1105 1109 631 650 135 136
8 13 14 290 271 918 922 1658 1582
8 918 922 1658 1582 919 923 1659 1583
8 919 923 1659 1583 920 924 1660 1584
8 920 924 1660 1584 921 925 1661 1585
8 921 925 1661 1585 89 90 651 632
8 271 290 291 272 1582 1658 1662 1586
8 1582 1658 1662 1586 1583 1659 1663 1587
8 1583 1659 1663 1587 1584 1660 1664 1588
8 1584 1660 1664 1588 1585 1661 1665 1589
8 1585 1661 1665 1589 632 651 652 633
8 272 291 292 273 1586 1662 1666 1590
8 1586 1662 1666 1590 1587 1663 1667 1591
8 1587 1663 1667 1591 1588 1664 1668 1592
8 1588 1664 1668 1592 1589 1665 1669 1593
8 1589 1665 1669 1593 633 652 653 634
8 273 292 293 274 1590 1666 1670 1594
8 1590 1666 1670 1594 1591 1667 1671 1595
8 1591 1667 1671 1595 1592 1668 1672 1596
8 1592 1668 1672 1596 1593 1669 1673 1597
8 1593 1669 1673 1597 634 653 654 635
8 274 293 294 275 1594 1670 1674 1598
8 1594 1670 1674 1598 1595 1671 1675 1599
8 1595 1671 1675 1599 1596 1672 1676 1600
8 1596 1672 1676 1600 1597 1673 1677 1601
8 1597 1673 1677 1601 635 654 655 636
8 275 294 295 276 1598 1674 1678 1602
8 1598 1674 1678 1602 1599 1675 1679 1603
8 1599 1675 1679 1603 1600 1676 1680 1604
8 1600 1676 1680 1604 1601 1677 1681 1605
8 1601 1677 1681 1605 636 655 656 637
8 276 295 296 277 1602 1678 1682 1606
8 1602 1678 1682 1606 1603 1679 1683 1607
8 1603 1679 1683 1607 1604 1680 1684 1608
8 1604 1680 1684 1608 1605 1681 1685 1609
8 1605 1681 1685 1609 637 656 657 638
8 277 296 297 278 1606 1682 1686 1610
8 1606 1682 1686 1610 1607 1683 1687 1611
8 1607 1683 1687 1611 1608 1684 1688 1612
8 1608 1684 1688 1612 1609 1685 1689 1613
8 1609 1685 1689 1613 638 657 658 639
8 278 297 298 279 1610 1686 1690 1614
8 1610 1686 1690 1614 1611 1687 1691 1615
8 1611 1687 1691 1615 1612 1688 1692 1616
8 1612 1688 1692 1616 1613 1689 1693 1617
8 1613 1689 1693 1617 639 658 659 640
8 279 298 299 280 1614 1690 1694 1618
8 1614 1690 1694 1618 1615 1691 1695 1619
8 1615 1691 1695 1619 1616 1692 1696 1620
8 1616 1692 1696 1620 1617 1693 1697 1621
8 1617 1693 1697 1621 640 659 660 641
8 280 299 300 281 1618 1694 1698 1622
8 1618 1694 1698 1622 1619 1695 1699 1623
8 1619 1695 1699 1623 1620 1696 1700 1624
8 1620 1696 1700 1624 1621 1697 1701 1625
8 1621 1697 1701 1625 641 660 661 642
8 281 300 301 282 1622 1698 1702 1626
8 1622 1698 1702 1626 1623 1699 1703 1627
8 1623 1699 1703 1627 1624 1700 1704 1628
8 1624 1700 1704 1628 1625 1701 1705 1629
8 1625 1701 1705 1629 642 661 662 643
8 282 301 302 283 1626 1702 1706 1630
8 1626 1702 1706 1630 1627 1703 1707 1631
8 1627 1703 1707 1631 1628 1704 1708 1632
8 1628 1704 1708 1632 1629 1705 1709 1633
8 1629 1705 1709 1633 643 662 663 644
8 283 302 303 284 1630 1706 1710 1634
8 1630 1706 1710 1634 1631 1707 1711 1635
8 1631 1707 1711 1635 1632 1708 1712 1636
8 1632 1708 1712 1636 1633 1709 1713 1637
8 1633 1709 1713 1637 644 663 664 645
8 284 303 304 285 1634 1710 1714 1638
8 1634 1710 1714 1638 1635 1711 1715 1639
8 1635 1711 1715 1639 1636 1712 1716 1640
8 1636 1712 1716 1640 1637 1713 1717 1641
8 1637 1713 1717 1641 645 664 665 646
8 285 304 305 286 1638 1714 1718 1642
8 1638 1714 1718 1642 1639 1715 1719 1643
8 1639 1715 1719 1643 1640 1716 1720 1644
8 1640 1716 1720 1644 1641 1717 1721 1645
8 1641 1717 1721 1645 646 665 666 647
8 286 305 306 287 1642 1718 1722 1646
8 1642 1718 1722 1646 1643 1719 1723 1647
8 1643 1719 1723 1647 1644 1720 1724 1648
8 1644 1720 1724 1648 1645 1721 1725 1649
8 1645 1721 1725 1649 647 666 667 648
8 287 306 307 288 1646 1722 1726 1650
8 1646 1722 1726 1650 1647 1723 1727 1651
8 1647 1723 1727 1651 1648 1724 1728 1652
8 1648 1724 1728 1652 1649 1725 1729 1653
8 1649 1725 1729 1653 648 667 668 649
8 288 307 308 289 1650 1726 1730 1654
8 1650 1726 1730 1654 1651 1727 1731 1655
8 1651 1727 1731 1655 1652 1728 1732 1656
8 1652 1728 1732 1656 1653 1729 1733 1657
8 1653 1729 1733 1657 649 668 669 650
8 289 308 58 59 1654 1730 1098 1102
8 1654 1730 1098 1102 1655 1731 1099 1103
8 1655 1731 1099 1103 1656 1732 1100 1104
8 1656 1732 1100 1104 1657 1733 1101 1105
8 1657 1733 1101 1105 650 669 134 135
8 14 15 309 290 922 926 1734 1658
8 922 926 1734 1658 923 927 1735 1659
8 923 927 1735 1659 924 928 1736 1660
8 924 928 1736 1660 925 929 1737 1661
8 925 929 1737 1661 90 91 670 651
8 290 309 310 291 1658 1734 1738 1662
8 1658 1734 1738 1662 1659 1735 1739 1663
8 1659 1735 1739 1663 1660 1736 1740 1664
8 1660 1736 1740 1664 1661 1737 1741 1665
8 1661 1737 1741 1665 651 670 671 652
8 291 310 311 292 1662 1738 1742 1666
8 1662 1738 1742 1666 1663 1739 1743 1667
8 1663 1739 1743 1667 1664 1740 1744 1668
8 1664 1740 1744 1668 1665 1741 1745 1669
8 1665 1741 1745 1669 652 671 672 653
8 292 311 312 293 1666 1742 1746 1670
8 1666 1742 1746 1670 1667 1743 1747 1671
8 1667 1743 1747 1671 1668 1744 1748 1672
8 1668 1744 1748 1672 1669 1745 1749 1673
8 1669 1745 1749 1673 653 672 673 654
8 293 312 313 294 1670 1746 1750 1674
8 1670 1746 1750 1674 1671 1747 1751 1675
8 1671 1747 1751 1675 1672 1748 1752 1676
8 1672 1748 1752 1676 1673 1749 1753 1677
8 1673 1749 1753 1677 654 673 674 655
8 294 313 314 295 1674 1750 1754 1678
8 1674 1750 1754 1678 1675 1751 1755 1679
8 1675 1751 1755 1679 1676 1752 1756 1680
8 1676 1752 1756 1680 1677 1753 1757 1681
8 1677 1753 1757 1681 655 674 675 656
8 295 314 315 296 1678 1754 1758 1682
8 1678 1754 1758 1682 1679 1755 1759 1683
8 1679 1755 1759 1683 1680 1756 1760 1684
8 1680 1756 1760 1684 1681 1757 1761 1685
8 1681 1757 1761 1685 656 675 676 657
8 296 315 316 297 1682 1758 1762 1686
8 1682 1758 1762 1686 1683 1759 1763 1687
8 1683 1759 1763 1687 1684 1760 1764 1688
8 1684 1760 1764 1688 1685 1761 1765 1689
8 1685 1761 1765 1689 657 676 677 658
8 297 316 317 298 1686 1762 1766 1690
8 1686 1762 1766 1690 1687 1763 1767 1691
8 1687 1763 1767 1691 1688 1764 1768 1692
8 1688 1764 1768 1692 1689 1765 1769 1693
8 1689 1765 1769 1693 658 677 678 659
8 298 317 318 299 1690 1766 1770 1694
8 1690 1766 1770 1694 1691 1767 1771 1695
8 1691 1767 1771 1695 1692 1768 1772 1696
8 1692 1768 1772 1696 1693 1769 1773 1697
8 1693 1769 1773 1697 659 678 679 660
8 299 318 319 300 1694 1770 1774 1698
8 1694 1770 1774 1698 1695 1771 1775 1699
8 1695 1771 1775 1699 1696 1772 1776 1700
8 1696 1772 1776 1700 1697 1773 1777 1701
8 1697 1773 1777 1701 660 679 680 661
8 300 319 320 301 1698 1774 1778 1702
8 1698 1774 1778 1702 1699 1775 1779 1703
8 1699 1775 1779 1703 1700 1776 1780 1704
8 1700 1776 1780 1704 1701 1777 1781 1705
8 1701 1777 1781 1705 661 680 681 662
8 301 320 321 302 1702 1778 1782 1706
8 1702 1778 1782 1706 1703 1779 1783 1707
8 1703 1779 1783 1707 1704 1780 1784 1708
8 1704 1780 1784 1708 1705 1781 1785 1709
8 1705 1781 1785 1709 662 681 682 663
8 302 321 322 303 1706 1782 1786 1710
8 1706 1782 1786 1710 1707 1783 1787 1711
8 1707 1783 1787 1711 1708 1784 1788 1712
8 1708 1784 1788 1712 1709 1785 1789 1713
8 1709 1785 1789 1713 663 682 683 664
8 303 322 323 304 1710 1786 1790 1714
8 1710 1786 1790 1714 1711 1787 1791 1715
8 1711 1787 1791 1715 1712 1788 1792 1716
8 1712 1788 1792 1716 1713 1789 1793 1717
8 1713 1789 1793 1717 664 683 684 665
8 304 323 324 305 1714 1790 1794 1718
8 1714 1790 1794 1718 1715 1791 1795 1719
8 1715 1791 1795 1719 1716 1792 1796 1720
8 1716 1792 1796 1720 1717 1793 1797 1721
8 1717 1793 1797 1721 665 684 685 666
8 305 324 325 306 1718 1794 1798 1722
8 1718 1794 1798 1722 1719 1795 1799 1723
8 1719 1795 1799 1723 1720 1796 1800 1724
8 1720 1796 1800 1724 1721 1797 1801 1725
8 1721 1797 1801 1725 666 685 686 667
8 306 325 326 307 1722 1798 1802 1726
8 1722 1798 1802 1726 1723 1799 1803 1727
8 1723 1799 1803 1727 1724 1800 1804 1728
8 1724 1800 1804 1728 1725 1801 1805 1729
8 1725 1801 1805 1729 667 686 687 668
8 307 326 327 308 1726 1802 1806 1730
8 1726 1802 1806 1730 1727 1803 1807 1731
8 1727 1803 1807 1731 1728 1804 1808 1732
8 1728 1804 1808 1732 1729 1805 1809 1733
8 1729 1805 1809 1733 668 687 688 669
8 308 327 57 58 1730 1806 1094 1098
8 1730 1806 1094 1098 1731 1807 1095 1099
8 1731 1807 1095 1099 1732 1808 1096 1100
8 1732 1808 1096 1100 1733 1809 1097 1101
8 1733 1809 1097 1101 669 688 133 134
8 15 16 328 309 926 930 1810 1734
8 926 930 1810 1734 927 931 1811 1735
8 927 931 1811 1735 928 932 1812 1736
8 928 932 1812 1736 929 933 1813 1737
8 929 933 1813 1737 91 92 689 670
8 309 328 329 310 1734 1810 1814 1738
8 1734 1810 1814 1738 1735 1811 1815 1739
8 1735 1811 1815 1739 1736 1812 1816 1740
8 1736 1812 1816 1740 1737 1813 1817 1741
8 1737 1813 1817 1741 670 689 690 671
8 310 329 330 311 1738 1814 1818 1742
8 1738 1814 1818 1742 1739 1815 1819 1743
8 1739 1815 1819 1743 1740 1816 1820 1744
8 1740 1816 1820 1744 1741 1817 1821 1745
8 1741 1817 1821 1745 671 690 691 672
8 311 330 331 312 1742 1818 1822 1746
8 1742 1818 1822 1746 1743 1819 1823 1747
8 1743 1819 1823 1747 1744 1820 1824 1748
8 1744 1820 1824 1748 1745 1821 1825 1749
8 1745 1821 1825 1749 672 691 692 673
8 312 331 332 313 1746 1822 1826 1750
8 1746 1822 1826 1750 1747 1823 1827 1751
8 1747 1823 1827 1751 1748 1824 1828 1752
8 1748 1824 1828 1752 1749 1825 1829 1753
8 1749 1825 1829 1753 673 692 693 674
8 313 332 333 314 1750 1826 1830 1754
8 1750 1826 1830 1754 1751 1827 1831 1755
8 1751 1827 1831 1755 1752 1828 1832 1756
8 1752 1828 1832 1756 1753 1829 1833 1757
8 1753 1829 1833 1757 674 693 694 675
8 314 333 334 315 1754 1830 1834 1758
8 1754 1830 1834 1758 1755 1831 1835 1759
8 1755 1831 1835 1759 1756 1832 1836 1760
8 1756 1832 1836 1760 1757 1833 1837 1761
8 1757 1833 1837 1761 675 694 695 676
8 315 334 335 316 1758 1834 1838 1762
8 1758 1834 1838 1762 1759 1835 1839 1763
8 1759 1835 1839 1763 1760 1836 1840 1764
8 1760 1836 1840 1764 1761 1837 1841 1765
8 1761 1837 1841 1765 676 695 696 677
8 316 335 336 317 1762 1838 1842 1766
8 1762 1838 1842 1766 1763 1839 1843 1767
8 1763 1839 1843 1767 1764 1840 1844 1768
8 1764 1840 1844 1768 1765 1841 1845 1769
8 1765 1841 1845 1769 677 696 697 678
8 317 336 337 318 1766 1842 1846 1770
8 1766 1842 1846 1770 1767 1843 1847 1771
8 1767 1843 1847 1771 1768 1844 1848 1772
8 1768 1844 1848 1772 1769 1845 1849 1773
8 1769 1845 1849 1773 678 697 698 679
8 318 337 338 319 1770 1846 1850 1774
8 1770 1846 1850 1774 1771 1847 1851 1775
8 1771 1847 1851 1775 1772 1848 1852 1776
8 1772 1848 1852 1776 1773 1849 1853 1777
8 1773 1849 1853 1777 679 698 699 680
8 319 338 339 320 1774 1850 1854 1778
8 1774 1850 1854 1778 1775 1851 1855 1779
8 1775 1851 1855 1779 1776 1852 1856 1780
8 1776 1852 1856 1780 1777 1853 1857 1781
8 1777 1853 1857 1781 680 699 700 681
8 320 339 340 321 1778 1854 1858 1782
8 1778 1854 1858 1782 1779 1855 1859 1783
8 1779 1855 1859 1783 1780 1856 1860 1784
8 1780 1856 1860 1784 1781 1857 1861 1785
8 1781 1857 1861 1785 681 700 701 682
8 321 340 341 322 1782 1858 1862 1786
8 1782 1858 1862 1786 1783 1859 1863 1787
8 1783 1859 1863 1787 1784 1860 1864 1788
8 1784 1860 1864 1788 1785 1861 1865 1789
8 1785 1861 1865 1789 682 701 702 683
8 322 341 342 323 1786 1862 1866 1790
8 1786 1862 1866 1790 1787 1863 1867 1791
8 1787 1863 1867 1791 1788 1864 1868 1792
8 1788 1864 1868 1792 1789 1865 1869 1793
8 1789 1865 1869 1793 683 702 703 684
8 323 342 343 324 1790 1866 1870 1794
8 1790 1866 1870 1794 1791 1867 1871 1795
8 1791 1867 1871 1795 1792 1868 1872 1796
8 1792 1868 1872 1796 1793 1869 1873 1797
8 1793 1869 1873 1797 684 703 704 685
8 324 343 344 325 1794 1870 1874 1798
8 1794 1870 1874 1798 1795 1871 1875 1799
8 1795 1871 1875 1799 1796 1872 1876 1800
8 1796 1872 1876 1800 1797 1873 1877 1801
8 1797 1873 1877 1801 685 704 705 686
8 325 344 345 326 1798 1874 1878 1802
8 1798 1874 1878 1802 1799 1875 1879 1803
8 1799 1875 1879 1803 1800 1876 1880 1804
8 1800 1876 1880 1804 1801 1877 1881 1805
8 1801 1877 1881 1805 686 705 706 687
8 326 345 346 327 1802 1878 1882 1806
8 1802 1878 1882 1806 1803 1879 1883 1807
8 1803 1879 1883 1807 1804 1880 1884 1808
8 1804 1880 1884 1808 1805 1881 1885 1809
8 1805 1881 1885 1809 687 706 707 688
8 327 346 56 57 1806 1882 1090 1094
8 1806 1882 1090 1094 1807 1883 1091 1095
8 1807 1883 1091 1095 1808 1884 1092 1096
8 1808 1884 1092 1096 1809 1885 1093 1097
8 1809 1885 1093 1097 688 707 132 133
8 16 17 347 328 930 934 1886 1810
8 930 934 1886 1810 931 935 1887 1811
8 931 935 1887 1811 932 936 1888 1812
8 932 936 1888 1812 933 937 1889 1813
8 933 937 1889 1813 92 93 708 689
8 328 347 348 329 1810 1886 1890 1814
8 1810 1886 1890 1814 1811 1887 1891 1815
8 1811 1887 1891 1815 1812 1888 1892 1816
8 1812 1888 1892 1816 1813 1889 1893 1817
8 1813 1889 1893 1817 689 708 709 690
8 329 348 349 330 1814 1890 1894 1818
8 1814 1890 1894 1818 1815 1891 1895 1819
8 1815 1891 1895 1819 1816 1892 1896 1820
8 1816 1892 1896 1820 1817 1893 1897 1821
8 1817 1893 1897 1821 690 709 710 691
8 330 349 350 331 1818 1894 1898 1822
8 1818 1894 1898 1822 1819 1895 1899 1823
8 1819 1895 1899 1823 1820 1896 1900 1824
8 1820 1896 1900 1824 1821 1897 1901 1825
8 1821 1897 1901 1825 691 710 711 692
8 331 350 351 332 1822 1898 1902 1826
8 1822 1898 1902 1826 1823 1899 1903 1827
8 1823 1899 1903 1827 1824 1900 1904 1828
8 1824 1900 1904 1828 1825 1901 1905 1829
8 1825 1901 1905 1829 692 711 712 693
8 332 351 352 333 1826 1902 1906 1830
8 1826 1902 1906 1830 1827 1903 1907 1831
8 1827 1903 1907 1831 1828 1904 1908 1832
8 1828 1904 1908 1832 1829 1905 1909 1833
8 1829 1905 1909 1833 693 712 713 694
8 333 352 353 334 1830 1906 1910 1834
8 1830 1906 1910 1834 1831 1907 1911 1835
8 1831 1907 1911 1835 1832 1908 1912 1836
8 1832 1908 1912 1836 1833 1909 1913 1837
8 1833 1909 1913 1837 694 713 714 695
8 334 353 354 335 1834 1910 1914 1838
8 1834 1910 1914 1838 1835 1911 1915 1839
8 1835 1911 1915 1839 1836 1912 1916 1840
8 1836 1912 1916 1840 1837 1913 1917 1841
8 1837 1913 1917 1841 695 714 715 696
8 335 354 355 336 1838 1914 1918 1842
8 1838 1914 1918 1842 1839 1915 1919 1843
8 1839 1915 1919 1843 1840 1916 1920 1844
8 1840 1916 1920 1844 1841 1917 1921 1845
8 1841 1917 1921 1845 696 715 716 697
8 336 355 356 337 1842 1918 1922 1846
8 1842 1918 1922 1846 1843 1919 1923 1847
8 1843 1919 1923 1847 1844 1920 1924 1848
8 1844 1920 1924 1848 1845 1921 1925 1849
8 1845 1921 1925 1849 697 716 717 698
8 337 356 357 338 1846 1922 1926 1850
8 1846 1922 1926 1850 1847 1923 1927 1851
8 1847 1923 1927 1851 1848 1924 1928 1852
8 1848 1924 1928 1852 1849 1925 1929 1853
8 1849 1925 1929 1853 698 717 718 699
8 338 357 358 339 1850 1926 1930 1854
8 1850 1926 1930 1854 1851 1927 1931 1855
8 1851 1927 1931 1855 1852 1928 1932 1856
8 1852 1928 1932 1856 1853 1929 1933 1857
8 1853 1929 1933 1857 699 718 719 700
8 339 358 359 340 1854 1930 1934 1858
8 1854 1930 1934 1858 1855 1931 1935 1859
8 1855 1931 1935 1859 1856 1932 1936 1860
8 1856 1932 1936 1860 1857 1933 1937 1861
8 1857 1933 1937 1861 700 719 720 701
8 340 359 360 341 1858 1934 1938 1862
8 1858 1934 1938 1862 1859 1935 1939 1863
8 1859 1935 1939 1863 1860 1936 1940 1864
8 1860 1936 1940 1864 1861 1937 1941 1865
8 1861 1937 1941 1865 701 720 721 702
8 341 360 361 342 1862 1938 1942 1866
8 1862 1938 1942 1866 1863 1939 1943 1867
8 1863 1939 1943 1867 1864 1940 1944 1868
8 1864 1940 1944 1868 1865 1941 1945 1869
8 1865 1941 1945 1869 702 721 722 703
8 342 361 362 343 1866 1942 1946 1870
8 1866 1942 1946 1870 1867 1943 1947 1871
8 1867 1943 1947 1871 1868 1944 1948 1872
8 1868 1944 1948 1872 1869 1945 1949 1873
8 1869 1945 1949 1873 703 722 723 704
8 343 362 363 344 1870 1946 1950 1874
8 1870 1946 1950 1874 1871 1947 1951 1875
8 1871 1947 1951 1875 1872 1948 1952 1876
8 1872 1948 1952 1876 1873 1949 1953 1877
8 1873 1949 1953 1877 704 723 724 705
8 344 363 364 345 1874 1950 1954 1878
8 1874 1950 1954 1878 1875 1951 1955 1879
8 1875 1951 1955 1879 1876 1952 1956 1880
8 1876 1952 1956 1880 1877 1953 1957 1881
8 1877 1953 1957 1881 705 724 725 706
8 345 364 365 346 1878 1954 1958 1882
8 1878 1954 1958 1882 1879 1955 1959 1883
8 1879 1955 1959 1883 1880 1956 1960 1884
8 1880 1956 1960 1884 1881 1957 1961 1885
8 1881 1957 1961 1885 706 725 726 707
8 346 365 55 56 1882 1958 1086 1090
8 1882 1958 1086 1090 1883 1959 1087 1091
8 1883 1959 1087 1091 1884 1960 1088 1092
8 1884 1960 1088 1092 1885 1961 1089 1093
8 1885 1961 1089 1093 707 726 131 132
8 17 18 366 347 934 938 1962 1886
8 934 938 1962 1886 935 939 1963 1887
8 935 939 1963 1887 936 940 1964 1888
8 936 940 1964 1888 937 941 1965 1889
8 937 941 1965 1889 93 94 727 708
8 347 366 367 348 1886 1962 1966 1890
8 1886 1962 1966 1890 1887 1963 1967 1891
8 1887 1963 1967 1891 1888 1964 1968 1892
8 1888 1964 1968 1892 1889 1965 1969 1893
8 1889 1965 1969 1893 708 727 728 709
8 348 367 368 349 1890 1966 1970 1894
8 1890 1966 1970 1894 1891 1967 1971 1895
8 1891 1967 1971 1895 1892 1968 1972 1896
8 1892 1968 1972 1896 1893 1969 1973 1897
8 1893 1969 1973 1897 709 728 729 710
8 349 368 369 350 1894 1970 1974 1898
8 1894 1970 1974 1898 1895 1971 1975 1899
8 1895 1971 1975 1899 1896 1972 1976 1900
8 1896 1972 1976 1900 1897 1973 1977 1901
8 1897 1973 1977 1901 710 729 730 711
8 350 369 370 351 1898 1974 1978 1902
8 1898 1974 1978 1902 1899 1975 1979 1903
8 1899 1975 1979 1903 1900 1976 1980 1904
8 1900 1976 1980 1904 1901 1977 1981 1905
8 1901 1977 1981 1905 711 730 731 712
8 351 370 371 352 1902 1978 1982 1906
8 1902 1978 1982 1906 1903 1979 1983 1907
8 1903 1979 1983 1907 1904 1980 1984 1908
8 1904 1980 1984 1908 1905 1981 1985 1909
8 1905 1981 1985 1909 712 731 732 713
8 352 371 372 353 1906 1982 1986 1910
8 1906 1982 1986 1910 1907 1983 1987 1911
8 1907 1983 1987 1911 1908 1984 1988 1912
8 1908 1984 1988 1912 1909 1985 1989 1913
8 1909 1985 1989 1913 713 732 733 714
8 353 372 373 354 1910 1986 1990 1914
8 1910 1986 1990 1914 1911 1987 1991 1915
8 1911 1987 1991 1915 1912 1988 1992 1916
8 1912 1988 1992 1916 1913 1989 1993 1917
8 1913 1989 1993 1917 714 733 734 715
8 354 373 374 355 1914 1990 1994 1918
8 1914 1990 1994 1918 1915 1991 1995 1919
8 1915 1991 1995 1919 1916 1992 1996 1920
8 1916 1992 1996 1920 1917 1993 1997 1921
8 1917 1993 1997 1921 715 734 735 716
8 355 374 375 356 1918 1994 1998 1922
8 1918 1994 1998 1922 1919 1995 1999 1923
8 1919 1995 1999 1923 1920 1996 2000 1924
8 1920 1996 2000 1924 1921 1997 2001 1925
8 1921 1997 2001 1925 716 735 736 717
8 356 375 376 357 1922 1998 2002 1926
8 1922 1998 2002 1926 1923 1999 2003 1927
8 1923 1999 2003 1927 1924 2000 2004 1928
8 1924 2000 2004 1928 1925 2001 2005 1929
8 1925 2001 2005 1929 717 736 737 718
8 357 376 377 358 1926 2002 2006 1930
8 1926 2002 2006 1930 1927 2003 2007 1931
8 1927 2003 2007 1931 1928 2004 2008 1932
8 1928 2004 2008 1932 1929 2005 2009 1933
8 1929 2005 2009 1933 718 737 738 719
8 358 377 378 359 1930 2006 2010 1934
8 1930 2006 2010 1934 1931 2007 2011 1935
8 1931 2007 2011 1935 1932 2008 2012 1936
8 1932 2008 2012 1936 1933 2009 2013 1937
8 1933 2009 2013 1937 719 738 739 720
8 359 378 379 360 1934 2010 2014 1938
8 1934 2010 2014 1938 1935 2011 2015 1939
8 1935 2011 2015 1939 1936 2012 2016 1940
8 1936 2012 2016 1940 1937 2013 2017 1941
8 1937 2013 2017 1941 720 739 740 721
8 360 379 380 361 1938 2014 2018 1942
8 1938 2014 2018 1942 1939 2015 2019 1943
8 1939 2015 2019 1943 1940 2016 2020 1944
8 1940 2016 2020 1944 1941 2017 2021 1945
8 1941 2017 2021 1945 721 740 741 722
8 361 380 381 362 1942 2018 2022 1946
8 1942 2018 2022 1946 1943 2019 2023 1947
8 1943 2019 2023 1947 1944 2020 2024 1948
8 1944 2020 2024 1948 1945 2021 2025 1949
8 1945 2021 2025 1949 722 741 742 723
8 362 381 382 363 1946 2022 2026 1950
8 1946 2022 2026 1950 1947 2023 2027 1951
8 1947 2023 2027 1951 1948 2024 2028 1952
8 1948 2024 2028 1952 1949 2025 2029 1953
8 1949 2025 2029 1953 723 742 743 724
8 363 382 383 364 1950 2026 2030 1954
8 1950 2026 2030 1954 1951 2027 2031 1955
8 1951 2027 2031 1955 1952 2028 2032 1956
8 1952 2028 2032 1956 1953 2029 2033 1957
8 1953 2029 2033 1957 724 743 744 725
8 364 383 384 365 1954 2030 2034 1958
8 1954 2030 2034 1958 1955 2031 2035 1959
8 1955 2031 2035 1959 1956 2032 2036 1960
8 1956 2032 2036 1960 1957 2033 2037 1961
8 1957 2033 2037 1961 725 744 745 726
8 365 384 54 55 1958 2034 1082 1086
8 1958 2034 1082 1086 1959 2035 1083 1087
8 1959 2035 1083 1087 1960 2036 1084 1088
8 1960 2036 1084 1088 1961 2037 1085 1089
8 1961 2037 1085 1089 726 745 130 131
8 18 19 385 366 938 942 2038 1962
8 938 942 2038 1962 939 943 2039 1963
8 939 943 2039 1963 940 944 2040 1964
8 940 944 2040 1964 941 945 2041 1965
8 941 945 2041 1965 94 95 746 727
8 366 385 386 367 1962 2038 2042 1966
8 1962 2038 2042 1966 1963 2039 2043 1967
8 1963 2039 2043 1967 1964 2040 2044 1968
8 1964 2040 2044 1968 1965 2041 2045 1969
8 1965 2041 2045 1969 727 746 747 728
8 367 386 387 368 1966 2042 2046 1970
8 1966 2042 2046 1970 1967 2043 2047 1971
8 1967 2043 2047 1971 1968 2044 2048 1972
8 1968 2044 2048 1972 1969 2045 2049 1973
8 1969 2045 2049 1973 728 747 748 729
8 368 387 388 369 1970 2046 2050 1974
8 1970 2046 2050 1974 1971 2047 2051 1975
8 1971 2047 2051 1975 1972 2048 2052 1976
8 1972 2048 2052 1976 1973 2049 2053 1977
8 1973 2049 2053 1977 729 748 749 730
8 369 388 389 370 1974 2050 2054 1978
8 1974 2050 2054 1978 1975 2051 2055 1979
8 1975 2051 2055 1979 1976 2052 2056 1980
8 1976 2052 2056 1980 1977 2053 2057 1981
8 1977 2053 2057 1981 730 749 750 731
8 370 389 390 371 1978 2054 2058 1982
8 1978 2054 2058 1982 1979 2055 2059 1983
8 1979 2055 2059 1983 1980 2056 2060 1984
8 1980 2056 2060 1984 1981 2057 2061 1985
8 1981 2057 2061 1985 731 750 751 732
8 371 390 391 372 1982 2058 2062 1986
8 1982 2058 2062 1986 1983 2059 2063 1987
8 1983 2059 2063 1987 1984 2060 2064 1988
8 1984 2060 2064 1988 1985 2061 2065 1989
8 1985 2061 2065 1989 732 751 752 733
8 372 391 392 373 1986 2062 2066 1990
8 1986 2062 2066 1990 1987 2063 2067 1991
8 1987 2063 2067 1991 1988 2064 2068 1992
8 1988 2064 2068 1992 1989 2065 2069 1993
8 1989 2065 2069 1993 733 752 753 734
8 373 392 393 374 1990 2066 2070 1994
8 1990 2066 2070 1994 1991 2067 2071 1995
8 1991 2067 2071 1995 1992 2068 2072 1996
8 1992 2068 2072 1996 1993 2069 2073 1997
8 1993 2069 2073 1997 734 753 754 735
8 374 393 394 375 1994 2070 2074 1998
8 1994 2070 2074 1998 1995 2071 2075 1999
8 1995 2071 2075 1999 1996 2072 2076 2000
8 1996 2072 2076 2000 1997 2073 2077 2001
8 1997 2073 2077 2001 735 754 755 736
8 375 394 395 376 1998 2074 2078 2002
8 1998 2074 2078 2002 1999 2075 2079 2003
8 1999 2075 2079 2003 2000 2076 2080 2004
8 2000 2076 2080 2004 2001 2077 2081 2005
8 2001 2077 2081 2005 736 755 756 737
8 376 395 396 377 2002 2078 2082 2006
8 2002 2078 2082 2006 2003 2079 2083 2007
8 2003 2079 2083 2007 2004 2080 2084 2008
8 2004 2080 2084 2008 2005 2081 2085 2009
8 2005 2081 2085 2009 737 756 757 738
8 377 396 397 378 2006 2082 2086 2010
8 2006 2082 2086 2010 2007 2083 2087 2011
8 2007 2083 2087 2011 2008 2084 2088 2012
8 2008 2084 2088 2012 2009 2085 2089 2013
8 2009 2085 2089 2013 738 757 758 739
8 378 397 398 379 2010 2086 2090 2014
8 2010 2086 2090 2014 2011 2087 2091 2015
8 2011 2087 2091 2015 2012 2088 2092 2016
8 2012 2088 2092 2016 2013 2089 2093 2017
8 2013 2089 2093 2017 739 758 759 740
8 379 398 399 380 2014 2090 2094 2018
8 2014 2090 2094 2018 2015 2091 2095 2019
8 2015 2091 2095 2019 2016 2092 2096 2020
8 2016 2092 2096 2020 2017 2093 2097 2021
8 2017 2093 2097 2021 740 759 760 741
8 380 399 400 381 2018 2094 2098 2022
8 2018 2094 2098 2022 2019 2095 2099 2023
8 2019 2095 2099 2023 2020 2096 2100 2024
8 2020 2096 2100 2024 2021 2097 2101 2025
8 2021 2097 2101 2025 741 760 761 742
8 381 400 401 382 2022 2098 2102 2026
8 2022 2098 2102 2026 2023 2099 2103 2027
8 2023 2099 2103 2027 2024 2100 2104 2028
8 2024 2100 2104 2028 2025 2101 2105 2029
8 2025 2101 2105 2029 742 761 762 743
8 382 401 402 383 2026 2102 2106 2030
8 2026 2102 2106 2030 2027 2103 2107 2031
8 2027 2103 2107 2031 2028 2104 2108 2032
8 2028 2104 2108 2032 2029 2105 2109 2033
8 2029 2105 2109 2033 743 762 763 744
8 383 402 403 384 2030 2106 2110 2034
8 2030 2106 2110 2034 2031 2107 2111 2035
8 2031 2107 2111 2035 2032 2108 2112 2036
8 2032 2108 2112 2036 2033 2109 2113 2037
8 2033 2109 2113 2037 744 763 764 745
8 384 403 53 54 2034 2110 1078 1082
8 2034 2110 1078 1082 2035 2111 1079 1083
8 2035 2111 1079 1083 2036 2112 1080 1084
8 2036 2112 1080 1084 2037 2113 1081 1085
8 2037 2113 1081 1085 745 764 129 130
8 19 20 404 385 942 946 2114 2038
8 942 946 2114 2038 943 947 2115 2039
8 943 947 2115 2039 944 948 2116 2040
8 944 948 2116 2040 945 949 2117 2041
8 945 949 2117 2041 95 96 765 746
8 385 404 405 386 2038 2114 2118 2042
8 2038 2114 2118 2042 2039 2115 2119 2043
8 2039 2115 2119 2043 2040 2116 2120 2044
8 2040 2116 2120 2044 2041 2117 2121 2045
8 2041 2117 2121 2045 746 765 766 747
8 386 405 406 387 2042 2118 2122 2046
8 2042 2118 2122 2046 2043 2119 2123 2047
8 2043 2119 2123 2047 2044 2120 2124 2048
8 2044 2120 2124 2048 2045 2121 2125 2049
8 2045 2121 2125 2049 747 766 767 748
8 387 406 407 388 2046 2122 2126 2050
8 2046 2122 2126 2050 2047 2123 2127 2051
8 2047 2123 2127 2051 2048 2124 2128 2052
8 2048 2124 2128 2052 2049 2125 2129 2053
8 2049 2125 2129 2053 748 767 768 749
8 388 407 408 389 2050 2126 2130 2054
8 2050 2126 2130 2054 2051 2127 2131 2055
8 2051 2127 2131 2055 2052 2128 2132 2056
8 2052 2128 2132 2056 2053 2129 2133 2057
8 2053 2129 2133 2057 749 768 769 750
8 389 408 409 390 2054 2130 2134 2058
8 2054 2130 2134 2058 2055 2131 2135 2059
8 2055 2131 2135 2059 2056 2132 2136 2060
8 2056 2132 2136 2060 2057 2133 2137 2061
8 2057 2133 2137 2061 750 769 770 751
8 390 409 410 391 2058 2134 2138 2062
8 2058 2134 2138 2062 2059 2135 2139 2063
8 2059 2135 2139 2063 2060 2136 2140 2064
8 2060 2136 2140 2064 2061 2137 2141 2065
8 2061 2137 2141 2065 751 770 771 752
8 391 410 411 392 2062 2138 2142 2066
8 2062 2138 2142 2066 2063 2139 2143 2067
8 2063 2139 2143 2067 2064 2140 2144 2068
8 2064 2140 2144 2068 2065 2141 2145 2069
8 2065 2141 2145 2069 752 771 772 753
8 392 411 412 393 2066 2142 2146 2070
8 2066 2142 2146 2070 2067 2143 2147 2071
8 2067 2143 2147 2071 2068 2144 2148 2072
8 2068 2144 2148 2072 2069 2145 2149 2073
8 2069 2145 2149 2073 753 772 773 754
8 393 412 413 394 2070 2146 2150 2074
8 2070 2146 2150 2074 2071 2147 2151 2075
8 2071 2147 2151 2075 2072 2148 2152 2076
8 2072 2148 2152 2076 2073 2149 2153 2077
8 2073 2149 2153 2077 754 773 774 755
8 394 413 414 395 2074 2150 2154 2078
8 2074 2150 2154 2078 2075 2151 2155 2079
8 2075 2151 2155 2079 2076 2152 2156 2080
8 2076 2152 2156 2080 2077 2153 2157 2081
8 2077 2153 2157 2081 755 774 775 756
8 395 414 415 396 2078 2154 2158 2082
8 2078 2154 2158 2082 2079 2155 2159 2083
8 2079 2155 2159 2083 2080 2156 2160 2084
8 2080 2156 2160 2084 2081 2157 2161 2085
8 2081 2157 2161 2085 756 775 776 757
8 396 415 416 397 2082 2158 2162 2086
8 2082 2158 2162 2086 2083 2159 2163 2087
8 2083 2159 2163 2087 2084 2160 2164 2088
8 2084 2160 2164 2088 2085 2161 2165 2089
8 2085 2161 2165 2089 757 776 777 758
8 397 416 417 398 2086 2162 2166 2090
8 2086 2162 2166 2090 2087 2163 2167 2091
8 2087 2163 2167 2091 2088 2164 2168 2092
8 2088 2164 2168 2092 2089 2165 2169 2093
8 2089 2165 2169 2093 758 777 778 759
8 398 417 418 399 2090 2166 2170 2094
8 2090 2166 2170 2094 2091 2167 2171 2095
8 2091 2167 2171 2095 2092 2168 2172 2096
8 2092 2168 2172 2096 2093 2169 2173 2097
8 2093 2169 2173 2097 759 778 779 760
8 399 418 419 400 2094 2170 2174 2098
8 2094 2170 2174 2098 2095 2171 2175 2099
8 2095 2171 2175 2099 2096 2172 2176 2100
8 2096 2172 2176 2100 2097 2173 2177 2101
8 2097 2173 2177 2101 760 779 780 761
8 400 419 420 401 2098 2174 2178 2102
8 2098 2174 2178 2102 2099 2175 2179 2103
8 2099 2175 2179 2103 2100 2176 2180 2104
8 2100 2176 2180 2104 2101 2177 2181 2105
8 2101 2177 2181 2105 761 780 781 762
8 401 420 421 402 2102 2178 2182 2106
8 2102 2178 2182 2106 2103 2179 2183 2107
8 2103 2179 2183 2107 2104 2180 2184 2108
8 2104 2180 2184 2108 2105 2181 2185 2109
8 2105 2181 2185 2109 762 781 782 763
8 402 421 422 403 2106 2182 2186 2110
8 2106 2182 2186 2110 2107 2183 2187 2111
8 2107 2183 2187 2111 2108 2184 2188 2112
8 2108 2184 2188 2112 2109 2185 2189 2113
8 2109 2185 2189 2113 763 782 783 764
8 403 422 52 53 2110 2186 1074 1078
8 2110 2186 1074 1078 2111 2187 1075 1079
8 2111 2187 1075 1079 2112 2188 1076 1080
8 2112 2188 1076 1080 2113 2189 1077 1081
8 2113 2189 1077 1081 764 783 128 129
8 20 21 423 404 946 950 2190 2114
8 946 950 2190 2114 947 951 2191 2115
8 947 951 2191 2115 948 952 2192 2116
8 948 952 2192 2116 949 953 2193 2117
8 949 953 2193 2117 96 97 784 765
8 404 423 424 405 2114 2190 2194 2118
8 2114 2190 2194 2118 2115 2191 2195 2119
8 2115 2191 2195 2119 2116 2192 2196 2120
8 2116 2192 2196 2120 2117 2193 2197 2121
8 2117 2193 2197 2121 765 784 785 766
8 405 424 425 406 2118 2194 2198 2122
8 2118 2194 2198 2122 2119 2195 2199 2123
8 2119 2195 2199 2123 2120 2196 2200 2124
8 2120 2196 2200 2124 2121 2197 2201 2125
8 2121 2197 2201 2125 766 785 786 767
8 406 425 426 407 2122 2198 2202 2126
8 2122 2198 2202 2126 2123 2199 2203 2127
8 2123 2199 2203 2127 2124 2200 2204 2128
8 2124 2200 2204 2128 2125 2201 2205 2129
8 2125 2201 2205 2129 767 786 787 768
8 407 426 427 408 2126 2202 2206 2130
8 2126 2202 2206 2130 2127 2203 2207 2131
8 2127 2203 2207 2131 2128 2204 2208 2132
8 2128 2204 2208 2132 2129 2205 2209 2133
8 2129 2205 2209 2133 768 787 788 769
8 408 427 428 409 2130 2206 2210 2134
8 2130 2206 2210 2134 2131 2207 2211 2135
8 2131 2207 2211 2135 2132 2208 2212 2136
8 2132 2208 2212 2136 2133 2209 2213 2137
8 2133 2209 2213 2137 769 788 789 770
8 409 428 429 410 2134 2210 2214 2138
8 2134 2210 2214 2138 2135 2211 2215 2139
8 2135 2211 2215 2139 2136 2212 2216 2140
8 2136 2212 2216 2140 2137 2213 2217 2141
8 2137 2213 2217 2141 770 789 790 771
8 410 429 430 411 2138 2214 2218 2142
8 2138 2214 2218 2142 2139 2215 2219 2143
8 2139 2215 2219 2143 2140 2216 2220 2144
8 2140 2216 2220 2144 2141 2217 2221 2145
8 2141 2217 2221 2145 771 790 791 772
8 411 430 431 412 2142 2218 2222 2146
8 2142 2218 2222 2146 2143 2219 2223 2147
8 2143 2219 2223 2147 2144 2220 2224 2148
8 2144 2220 2224 2148 2145 2221 2225 2149
8 2145 2221 2225 2149 772 791 792 773
8 412 431 432 413 2146 2222 2226 2150
8 2146 2222 2226 2150 2147 2223 2227 2151
8 2147 2223 2227 2151 2148 2224 2228 2152
8 2148 2224 2228 2152 2149 2225 2229 2153
8 2149 2225 2229 2153 773 792 793 774
8 413 432 433 414 2150 2226 2230 2154
8 2150 2226 2230 2154 2151 2227 2231 2155
8 2151 2227 2231 2155 2152 2228 2232 2156
8 2152 2228 2232 2156 2153 2229 2233 2157
8 2153 2229 2233 2157 774 793 794 775
8 414 433 434 415 2154 2230 2234 2158
8 2154 2230 2234 2158 2155 2231 2235 2159
8 2155 2231 2235 2159 2156 2232 2236 2160
8 2156 2232 2236 2160 2157 2233 2237 2161
8 2157 2233 2237 2161 775 794 795 776
8 415 434 435 416 2158 2234 2238 2162
8 2158 2234 2238 2162 2159 2235 2239 2163
8 2159 2235 2239 2163 2160 2236 2240 2164
8 2160 2236 2240 2164 2161 2237 2241 2165
8 2161 2237 2241 2165 776 795 796 777
8 416 435 436 417 2162 2238 2242 2166
8 2162 2238 2242 2166 2163 2239 2243 2167
8 2163 2239 2243 2167 2164 2240 2244 2168
8 2164 2240 2244 2168 2165 2241 2245 2169
8 2165 2241 2245 2169 777 796 797 778
8 417 436 437 418 2166 2242 2246 2170
8 2166 2242 2246 2170 2167 2243 2247 2171
8 2167 2243 2247 2171 2168 2244 2248 2172
8 2168 2244 2248 2172 2169 2245 2249 2173
8 2169 2245 2249 2173 778 797 798 779
8 418 437 438 419 2170 2246 2250 2174
8 2170 2246 2250 2174 2171 2247 2251 2175
8 2171 2247 2251 2175 2172 2248 2252 2176
8 2172 2248 2252 2176 2173 2249 2253 2177
8 2173 2249 2253 2177 779 798 799 780
8 419 438 439 420 2174 2250 2254 2178
8 2174 2250 2254 2178 2175 2251 2255 2179
8 2175 2251 2255 2179 2176 2252 2256 2180
8 2176 2252 2256 2180 2177 2253 2257 2181
8 2177 2253 2257 2181 780 799 800 781
8 420 439 440 421 2178 2254 2258 2182
8 2178 2254 2258 2182 2179 2255 2259 2183
8 2179 2255 2259 2183 2180 2256 2260 2184
8 2180 2256 2260 2184 2181 2257 2261 2185
8 2181 2257 2261 2185 781 800 801 782
8 421 440 441 422 2182 2258 2262 2186
8 2182 2258 2262 2186 2183 2259 2263 2187
8 2183 2259 2263 2187 2184 2260 2264 2188
8 2184 2260 2264 2188 2185 2261 2265 2189
8 2185 2261 2265 2189 782 801 802 783
8 422 441 51 52 2186 2262 1070 1074
8 2186 2262 1070 1074 2187 2263 1071 1075
8 2187 2263 1071 1075 2188 2264 1072 1076
8 2188 2264 1072 1076 2189 2265 1073 1077
8 2189 2265 1073 1077 783 802 127 128
8 21 22 442 423 950 954 2266 2190
8 950 954 2266 2190 951 955 2267 2191
8 951 955 2267 2191 952 956 2268 2192
8 952 956 2268 2192 953 957 2269 2193
8 953 957 2269 2193 97 98 803 784
8 423 442 443 424 2190 2266 2270 2194
8 2190 2266 2270 2194 2191 2267 2271 2195
8 2191 2267 2271 2195 2192 2268 2272 2196
8 2192 2268 2272 2196 2193 2269 2273 2197
8 2193 2269 2273 2197 784 803 804 785
8 424 443 444 425 2194 2270 2274 2198
8 2194 2270 2274 2198 2195 2271 2275 2199
8 2195 2271 2275 2199 2196 2272 2276 2200
8 2196 2272 2276 2200 2197 2273 2277 2201
8 2197 2273 2277 2201 785 804 805 786
8 425 444 445 426 2198 2274 2278 2202
8 2198 2274 2278 2202 2199 2275 2279 2203
8 2199 2275 2279 2203 2200 2276 2280 2204
8 2200 2276 2280 2204 2201 2277 2281 2205
8 2201 2277 2281 2205 786 805 806 787
8 426 445 446 427 2202 2278 2282 2206
8 2202 2278 2282 2206 2203 2279 2283 2207
8 2203 2279 2283 2207 2204 2280 2284 2208
8 2204 2280 2284 2208 2205 2281 2285 2209
8 2205 2281 2285 2209 787 806 807 788
8 427 446 447 428 2206 2282 2286 2210
8 2206 2282 2286 2210 2207 2283 2287 2211
8 2207 2283 2287 2211 2208 2284 2288 2212
8 2208 2284 2288 2212 2209 2285 2289 2213
8 2209 2285 2289 2213 788 807 808 789
8 428 447 448 429 2210 2286 2290 2214
8 2210 2286 2290 2214 2211 2287 2291 2215
8 2211 2287 2291 2215 2212 2288 2292 2216
8 2212 2288 2292 2216 2213 2289 2293 2217
8 2213 2289 2293 2217 789 808 809 790
8 429 448 449 430 2214 2290 2294 2218
8 2214 2290 2294 2218 2215 2291 2295 2219
8 2215 2291 2295 2219 2216 2292 2296 2220
8 2216 2292 2296 2220 2217 2293 2297 2221
8 2217 2293 2297 2221 790 809 810 791
8 430 449 450 431 2218 2294 2298 2222
8 2218 2294 2298 2222 2219 2295 2299 2223
8 2219 2295 2299 2223 2220 2296 2300 2224
8 2220 2296 2300 2224 2221 2297 2301 2225
8 2221 2297 2301 2225 791 810 811 792
8 431 450 451 432 2222 2298 2302 2226
8 2222 2298 2302 2226 2223 2299 2303 2227
8 2223 2299 2303 2227 2224 2300 2304 2228
8 2224 2300 2304 2228 2225 2301 2305 2229
8 2225 2301 2305 2229 792 811 812 793
8 432 451 452 433 2226 2302 2306 2230
8 2226 2302 2306 2230 2227 2303 2307 2231
8 2227 2303 2307 2231 2228 2304 2308 2232
8 2228 2304 2308 2232 2229 2305 2309 2233
8 2229 2305 2309 2233 793 812 813 794
8 433 452 453 434 2230 2306 2310 2234
8 2230 2306 2310 2234 2231 2307 2311 2235
8 2231 2307 2311 2235 2232 2308 2312 2236
8 2232 2308 2312 2236 2233 2309 2313 2237
8 2233 2309 2313 2237 794 813 814 795
8 434 453 454 435 2234 2310 2314 2238
8 2234 2310 2314 2238 2235 2311 2315 2239
8 2235 2311 2315 2239 2236 2312 2316 2240
8 2236 2312 2316 2240 2237 2313 2317 2241
8 2237 2313 2317 2241 795 814 815 796
8 435 454 455 436 2238 2314 2318 2242
8 2238 2314 2318 2242 2239 2315 2319 2243
8 2239 2315 2319 2243 2240 2316 2320 2244
8 2240 2316 2320 2244 2241 2317 2321 2245
8 2241 2317 2321 2245 796 815 816 797
8 436 455 456 437 2242 2318 2322 2246
8 2242 2318 2322 2246 2243 2319 2323 2247
8 2243 2319 2323 2247 2244 2320 2324 2248
8 2244 2320 2324 2248 2245 2321 2325 2249
8 2245 2321 2325 2249 797 816 817 798
8 437 456 457 438 2246 2322 2326 2250
8 2246 2322 2326 2250 2247 2323 2327 2251
8 2247 2323 2327 2251 2248 2324 2328 2252
8 2248 2324 2328 2252 2249 2325 2329 2253
8 2249 2325 2329 2253 798 817 818 799
8 438 457 458 439 2250 2326 2330 2254
8 2250 2326 2330 2254 2251 2327 2331 2255
8 2251 2327 2331 2255 2252 2328 2332 2256
8 2252 2328 2332 2256 2253 2329 2333 2257
8 2253 2329 2333 2257 799 818 819 800
8 439 458 459 440 2254 2330 2334 2258
8 2254 2330 2334 2258 2255 2331 2335 2259
8 2255 2331 2335 2259 2256 2332 2336 2260
8 2256 2332 2336 2260 2257 2333 2337 2261
8 2257 2333 2337 2261 800 819 820 801
8 440 459 460 441 2258 2334 2338 2262
8 2258 2334 2338 2262 2259 2335 2339 2263
8 2259 2335 2339 2263 2260 2336 2340 2264
8 2260 2336 2340 2264 2261 2337 2341 2265
8 2261 2337 2341 2265 801 820 821 802
8 441 460 50 51 2262 2338 1066 1070
8 2262 2338 1066 1070 2263 2339 1067 1071
8 2263 2339 1067 1071 2264 2340 1068 1072
8 2264 2340 1068 1072 2265 2341 1069 1073
8 2265 2341 1069 1073 802 821 126 127
8 22 23 461 442 954 958 2342 2266
8 954 958 2342 2266 955 959 2343 2267
8 955 959 2343 2267 956 960 2344 2268
8 956 960 2344 2268 957 961 2345 2269
8 957 961 2345 2269 98 99 822 803
8 442 461 462 443 2266 2342 2346 2270
8 2266 2342 2346 2270 2267 2343 2347 2271
8 2267 2343 2347 2271 2268 2344 2348 2272
8 2268 2344 2348 2272 2269 2345 2349 2273
8 2269 2345 2349 2273 803 822 823 804
8 443 462 463 444 2270 2346 2350 2274
8 2270 2346 2350 2274 2271 2347 2351 2275
8 2271 2347 2351 2275 2272 2348 2352 2276
8 2272 2348 2352 2276 2273 2349 2353 2277
8 2273 2349 2353 2277 804 823 824 805
8 444 463 464 445 2274 2350 2354 2278
8 2274 2350 2354 2278 2275 2351 2355 2279
8 2275 2351 2355 2279 2276 2352 2356 2280
8 2276 2352 2356 2280 2277 2353 2357 2281
8 2277 2353 2357 2281 805 824 825 806
8 445 464 465 446 2278 2354 2358 2282
8 2278 2354 2358 2282 2279 2355 2359 2283
8 2279 2355 2359 2283 2280 2356 2360 2284
8 2280 2356 2360 2284 2281 2357 2361 2285
8 2281 2357 2361 2285 806 825 826 807
8 446 465 466 447 2282 2358 2362 2286
8 2282 2358 2362 2286 2283 2359 2363 2287
8 2283 2359 2363 2287 2284 2360 2364 2288
8 2284 2360 2364 2288 2285 2361 2365 2289
8 2285 2361 2365 2289 807 826 827 808
8 447 466 467 448 2286 2362 2366 2290
8 2286 2362 2366 2290 2287 2363 2367 2291
8 2287 2363 2367 2291 2288 2364 2368 2292
8 2288 2364 2368 2292 2289 2365 2369 2293
8 2289 2365 2369 2293 808 827 828 809
8 448 467 468 449 2290 2366 2370 2294
8 2290 2366 2370 2294 2291 2367 2371 2295
8 2291 2367 2371 2295 2292 2368 2372 2296
8 2292 2368 2372 2296 2293 2369 2373 2297
8 2293 2369 2373 2297 809 828 829 810
8 449 468 469 450 2294 2370 2374 2298
8 2294 2370 2374 2298 2295 2371 2375 2299
8 2295 2371 2375 2299 2296 2372 2376 2300
8 2296 2372 2376 2300 2297 2373 2377 2301
8 2297 2373 2377 2301 810 829 830 811
8 450 469 470 451 2298 2374 2378 2302
8 2298 2374 2378 2302 2299 2375 2379 2303
8 2299 2375 2379 2303 2300 2376 2380 2304
8 2300 2376 2380 2304 2301 2377 2381 2305
8 2301 2377 2381 2305 811 830 831 812
8 451 470 471 452 2302 2378 2382 2306
8 2302 2378 2382 2306 2303 2379 2383 2307
8 2303 2379 2383 2307 2304 2380 2384 2308
8 2304 2380 2384 2308 2305 2381 2385 2309
8 2305 2381 2385 2309 812 831 832 813
8 452 471 472 453 2306 2382 2386 2310
8 2306 2382 2386 2310 2307 2383 2387 2311
8 2307 2383 2387 2311 2308 2384 2388 2312
8 2308 2384 2388 2312 2309 2385 2389 2313
8 2309 2385 2389 2313 813 832 833 814
8 453 472 473 454 2310 2386 2390 2314
8 2310 2386 2390 2314 2311 2387 2391 2315
8 2311 2387 2391 2315 2312 2388 2392 2316
8 2312 2388 2392 2316 2313 2389 2393 2317
8 2313 2389 2393 2317 814 833 834 815
8 454 473 474 455 2314 2390 2394 2318
8 2314 2390 2394 2318 2315 2391 2395 2319
8 2315 2391 2395 2319 2316 2392 2396 2320
8 2316 2392 2396 2320 2317 2393 2397 2321
8 2317 2393 2397 2321 815 834 835 816
8 455 474 475 456 2318 2394 2398 2322
8 2318 2394 2398 2322 2319 2395 2399 2323
8 2319 2395 2399 2323 2320 2396 2400 2324
8 2320 2396 2400 2324 2321 2397 2401 2325
8 2321 2397 2401 2325 816 835 836 817
8 456 475 476 457 2322 2398 2402 2326
8 2322 2398 2402 2326 2323 2399 2403 2327
8 2323 2399 2403 2327 2324 2400 2404 2328
8 2324 2400 2404 2328 2325 2401 2405 2329
8 2325 2401 2405 2329 817 836 837 818
8 457 476 477 458 2326 2402 2406 2330
8 2326 2402 2406 2330 2327 2403 2407 2331
8 2327 2403 2407 2331 2328 2404 2408 2332
8 2328 2404 2408 2332 2329 2405 2409 2333
8 2329 2405 2409 2333 818 837 838 819
8 458 477 478 459 2330 2406 2410 2334
8 2330 2406 2410 2334 2331 2407 2411 2335
8 2331 2407 2411 2335 2332 2408 2412 2336
8 2332 2408 2412 2336 2333 2409 2413 2337
8 2333 2409 2413 2337 819 838 839 820
8 459 478 479 460 2334 2410 2414 2338
8 2334 2410 2414 2338 2335 2411 2415 2339
8 2335 2411 2415 2339 2336 2412 2416 2340
8 2336 2412 2416 2340 2337 2413 2417 2341
8 2337 2413 2417 2341 820 839 840 821
8 460 479 49 50 2338 2414 1062 1066
8 2338 2414 1062 1066 2339 2415 1063 1067
8 2339 2415 1063 1067 2340 2416 1064 1068
8 2340 2416 1064 1068 2341 2417 1065 1069
8 2341 2417 1065 1069 821 840 125 126
8 23 24 480 461 958 962 2418 2342
8 958 962 2418 2342 959 963 2419 2343
8 959 963 2419 2343 960 964 2420 2344
8 960 964 2420 2344 961 965 2421 2345
8 961 965 2421 2345 99 100 841 822
8 461 480 481 462 2342 2418 2422 2346
8 2342 2418 2422 2346 2343 2419 2423 2347
8 2343 2419 2423 2347 2344 2420 2424 2348
8 2344 2420 2424 2348 2345 2421 2425 2349
8 2345 2421 2425 2349 822 841 842 823
8 462 481 482 463 2346 2422 2426 2350
8 2346 2422 2426 2350 2347 2423 2427 2351
8 2347 2423 2427 2351 2348 2424 2428 2352
8 2348 2424 2428 2352 2349 2425 2429 2353
8 2349 2425 2429 2353 823 842 843 824
8 463 482 483 464 2350 2426 2430 2354
8 2350 2426 2430 2354 2351 2427 2431 2355
8 2351 2427 2431 2355 2352 2428 2432 2356
8 2352 2428 2432 2356 2353 2429 2433 2357
8 2353 2429 2433 2357 824 843 844 825
8 464 483 484 465 2354 2430 2434 2358
8 2354 2430 2434 2358 2355 2431 2435 2359
8 2355 2431 2435 2359 2356 2432 2436 2360
8 2356 2432 2436 2360 2357 2433 2437 2361
8 2357 2433 2437 2361 825 844 845 826
8 465 484 485 466 2358 2434 2438 2362
8 2358 2434 2438 2362 2359 2435 2439 2363
8 2359 2435 2439 2363 2360 2436 2440 2364
8 2360 2436 2440 2364 2361 2437 2441 2365
8 2361 2437 2441 2365 826 845 846 827
8 466 485 486 467 2362 2438 2442 2366
8 2362 2438 2442 2366 2363 2439 2443 2367
8 2363 2439 2443 2367 2364 2440 2444 2368
8 2364 2440 2444 2368 2365 2441 2445 2369
8 2365 2441 2445 2369 827 846 847 828
8 467 486 487 468 2366 2442 2446 2370
8 2366 2442 2446 2370 2367 2443 2447 2371
8 2367 2443 2447 2371 2368 2444 2448 2372
8 2368 2444 2448 2372 2369 2445 2449 2373
8 2369 2445 2449 2373 828 847 848 829
8 468 487 488 469 2370 2446 2450 2374
8 2370 2446 2450 2374 2371 2447 2451 2375
8 2371 2447 2451 2375 2372 2448 2452 2376
8 2372 2448 2452 2376 2373 2449 2453 2377
8 2373 2449 2453 2377 829 848 849 830
8 469 488 489 470 2374 2450 2454 2378
8 2374 2450 2454 2378 2375 2451 2455 2379
8 2375 2451 2455 2379 2376 2452 2456 2380
8 2376 2452 2456 2380 2377 2453 2457 2381
8 2377 2453 2457 2381 830 849 850 831
8 470 489 490 471 2378 2454 2458 2382
8 2378 2454 2458 2382 2379 2455 2459 2383
8 2379 2455 2459 2383 2380 2456 2460 2384
8 2380 2456 2460 2384 2381 2457 2461 2385
8 2381 2457 2461 2385 831 850 851 832
8 471 490 491 472 2382 2458 2462 2386
8 2382 2458 2462 2386 2383 2459 2463 2387
8 2383 2459 2463 2387 2384 2460 2464 2388
8 2384 2460 2464 2388 2385 2461 2465 2389
8 2385 2461 2465 2389 832 851 852 833
8 472 491 492 473 2386 2462 2466 2390
8 2386 2462 2466 2390 2387 2463 2467 2391
8 2387 2463 2467 2391 2388 2464 2468 2392
8 2388 2464 2468 2392 2389 2465 2469 2393
8 2389 2465 2469 2393 833 852 853 834
8 473 492 493 474 2390 2466 2470 2394
8 2390 2466 2470 2394 2391 2467 2471 2395
8 2391 2467 2471 2395 2392 2468 2472 2396
8 2392 2468 2472 2396 2393 2469 2473 2397
8 2393 2469 2473 2397 834 853 854 835
8 474 493 494 475 2394 2470 2474 2398
8 2394 2470 2474 2398 2395 2471 2475 2399
8 2395 2471 2475 2399 2396 2472 2476 2400
8 2396 2472 2476 2400 2397 2473 2477 2401
8 2397 2473 2477 2401 835 854 855 836
8 475 494 495 476 2398 2474 2478 2402
8 2398 2474 2478 2402 2399 2475 2479 2403
8 2399 2475 2479 2403 2400 2476 2480 2404
8 2400 2476 2480 2404 2401 2477 2481 2405
8 2401 2477 2481 2405 836 855 856 837
8 476 495 496 477 2402 2478 2482 2406
8 2402 2478 2482 2406 2403 2479 2483 2407
8 2403 2479 2483 2407 2404 2480 2484 2408
8 2404 2480 2484 2408 2405 2481 2485 2409
8 2405 2481 2485 2409 837 856 857 838
8 477 496 497 478 2406 2482 2486 2410
8 2406 2482 2486 2410 2407 2483 2487 2411
8 2407 2483 2487 2411 2408 2484 2488 2412
8 2408 2484 2488 2412 2409 2485 2489 2413
8 2409 2485 2489 2413 838 857 858 839
8 478 497 498 479 2410 2486 2490 2414
8 2410 2486 2490 2414 2411 2487 2491 2415
8 2411 2487 2491 2415 2412 2488 2492 2416
8 2412 2488 2492 2416 2413 2489 2493 2417
8 2413 2489 2493 2417 839 858 859 840
8 479 498 48 49 2414 2490 1058 1062
8 2414 2490 1058 1062 2415 2491 1059 1063
8 2415 2491 1059 1063 2416 2492 1060 1064
8 2416 2492 1060 1064 2417 2493 1061 1065
8 2417 2493 1061 1065 840 859 124 125
8 24 25 499 480 962 966 2494 2418
8 962 966 2494 2418 963 967 2495 2419
8 963 967 2495 2419 964 968 2496 2420
8 964 968 2496 2420 965 969 2497 2421
8 965 969 2497 2421 100 101 860 841
8 480 499 500 481 2418 2494 2498 2422
8 2418 2494 2498 2422 2419 2495 2499 2423
8 2419 2495 2499 2423 2420 2496 2500 2424
8 2420 2496 2500 2424 2421 2497 2501 2425
8 2421 2497 2501 2425 841 860 861 842
8 481 500 501 482 2422 2498 2502 2426
8 2422 2498 2502 2426 2423 2499 2503 2427
8 2423 2499 2503 2427 2424 2500 2504 2428
8 2424 2500 2504 2428 2425 2501 2505 2429
8 2425 2501 2505 2429 842 861 862 843
8 482 501 502 483 2426 2502 2506 2430
8 2426 2502 2506 2430 2427 2503 2507 2431
8 2427 2503 2507 2431 2428 2504 2508 2432
8 2428 2504 2508 2432 2429 2505 2509 2433
8 2429 2505 2509 2433 843 862 863 844
8 483 502 503 484 2430 2506 2510 2434
8 2430 2506 2510 2434 2431 2507 2511 2435
8 2431 2507 2511 2435 2432 2508 2512 2436
8 2432 2508 2512 2436 2433 2509 2513 2437
8 2433 2509 2513 2437 844 863 864 845
8 484 503 504 485 2434 2510 2514 2438
8 2434 2510 2514 2438 2435 2511 2515 2439
8 2435 2511 2515 2439 2436 2512 2516 2440
8 2436 2512 2516 2440 2437 2513 2517 2441
8 2437 2513 2517 2441 845 864 865 846
8 485 504 505 486 2438 2514 2518 2442
8 2438 2514 2518 2442 2439 2515 2519 2443
8 2439 2515 2519 2443 2440 2516 2520 2444
8 2440 2516 2520 2444 2441 2517 2521 2445
8 2441 2517 2521 2445 846 865 866 847
8 486 505 506 487 2442 2518 2522 2446
8 2442 2518 2522 2446 2443 2519 2523 2447
8 2443 2519 2523 2447 2444 2520 2524 2448
8 2444 2520 2524 2448 2445 2521 2525 2449
8 2445 2521 2525 2449 847 866 867 848
8 487 506 507 488 2446 2522 2526 2450
8 2446 2522 2526 2450 2447 2523 2527 2451
8 2447 2523 2527 2451 2448 2524 2528 2452
8 2448 2524 2528 2452 2449 2525 2529 2453
8 2449 2525 2529 2453 848 867 868 849
8 488 507 508 489 2450 2526 2530 2454
8 2450 2526 2530 2454 2451 2527 2531 2455
8 2451 2527 2531 2455 2452 2528 2532 2456
8 2452 2528 2532 2456 2453 2529 2533 2457
8 2453 2529 2533 2457 849 868 869 850
8 489 508 509 490 2454 2530 2534 2458
8 2454 2530 2534 2458 2455 2531 2535 2459
8 2455 2531 2535 2459 2456 2532 2536 2460
8 2456 2532 2536 2460 2457 2533 2537 2461
8 2457 2533 2537 2461 850 869 870 851
8 490 509 510 491 2458 2534 2538 2462
8 2458 2534 2538 2462 2459 2535 2539 2463
8 2459 2535 2539 2463 2460 2536 2540 2464
8 2460 2536 2540 2464 2461 2537 2541 2465
8 2461 2537 2541 2465 851 870 871 852
8 491 510 511 492 2462 2538 2542 2466
8 2462 2538 2542 2466 2463 2539 2543 2467
8 2463 2539 2543 2467 2464 2540 2544 2468
8 2464 2540 2544 2468 2465 2541 2545 2469
8 2465 2541 2545 2469 852 871 872 853
8 492 511 512 493 2466 2542 2546 2470
8 2466 2542 2546 2470 2467 2543 2547 2471
8 2467 2543 2547 2471 2468 2544 2548 2472
8 2468 2544 2548 2472 2469 2545 2549 2473
8 2469 2545 2549 2473 853 872 873 854
8 493 512 513 494 2470 2546 2550 2474
8 2470 2546 2550 2474 2471 2547 2551 2475
8 2471 2547 2551 2475 2472 2548 2552 2476
8 2472 2548 2552 2476 2473 2549 2553 2477
8 2473 2549 2553 2477 854 873 874 855
8 494 513 514 495 2474 2550 2554 2478
8 2474 2550 2554 2478 2475 2551 2555 2479
8 2475 2551 2555 2479 2476 2552 2556 2480
8 2476 2552 2556 2480 2477 2553 2557 2481
8 2477 2553 2557 2481 855 874 875 856
8 495 514 515 496 2478 2554 2558 2482
8 2478 2554 2558 2482 2479 2555 2559 2483
8 2479 2555 2559 2483 2480 2556 2560 2484
8 2480 2556 2560 2484 2481 2557 2561 2485
8 2481 2557 2561 2485 856 875 876 857
8 496 515 516 497 2482 2558 2562 2486
8 2482 2558 2562 2486 2483 2559 2563 2487
8 2483 2559 2563 2487 2484 2560 2564 2488
8 2484 2560 2564 2488 2485 2561 2565 2489
8 2485 2561 2565 2489 857 876 877 858
8 497 516 517 498 2486 2562 2566 2490
8 2486 2562 2566 2490 2487 2563 2567 2491
8 2487 2563 2567 2491 2488 2564 2568 2492
8 2488 2564 2568 2492 2489 2565 2569 2493
8 2489 2565 2569 2493 858 877 878 859
8 498 517 47 48 2490 2566 1054 1058
8 2490 2566 1054 1058 2491 2567 1055 1059
8 2491 2567 1055 1059 2492 2568 1056 1060
8 2492 2568 1056 1060 2493 2569 1057 1061
8 2493 2569 1057 1061 859 878 123 124
8 25 26 518 499 966 970 2570 2494
8 966 970 2570 2494 967 971 2571 2495
8 967 971 2571 2495 968 972 2572 2496
8 968 972 2572 2496 969 973 2573 2497
8 969 973 2573 2497 101 102 879 860
8 499 518 519 500 2494 2570 2574 2498
8 2494 2570 2574 2498 2495 2571 2575 2499
8 2495 2571 2575 2499 2496 2572 2576 2500
8 2496 2572 2576 2500 2497 2573 2577 2501
8 2497 2573 2577 2501 860 879 880 861
8 500 519 520 501 2498 2574 2578 2502
8 2498 2574 2578 2502 2499 2575 2579 2503
8 2499 2575 2579 2503 2500 2576 2580 2504
8 2500 2576 2580 2504 2501 2577 2581 2505
8 2501 2577 2581 2505 861 880 881 862
8 501 520 521 502 2502 2578 2582 2506
8 2502 2578 2582 2506 2503 2579 2583 2507
8 2503 2579 2583 2507 2504 2580 2584 2508
8 2504 2580 2584 2508 2505 2581 2585 2509
8 2505 2581 2585 2509 862 881 882 863
8 502 521 522 503 2506 2582 2586 2510
8 2506 2582 2586 2510 2507 2583 2587 2511
8 2507 2583 2587 2511 2508 2584 2588 2512
8 2508 2584 2588 2512 2509 2585 2589 2513
8 2509 2585 2589 2513 863 882 883 864
8 503 522 523 504 2510 2586 2590 2514
8 2510 2586 2590 2514 2511 2587 2591 2515
8 2511 2587 2591 2515 2512 2588 2592 2516
8 2512 2588 2592 2516 2513 2589 2593 2517
8 2513 2589 2593 2517 864 883 884 865
8 504 523 524 505 2514 2590 2594 2518
8 2514 2590 2594 2518 2515 2591 2595 2519
8 2515 2591 2595 2519 2516 2592 2596 2520
8 2516 2592 2596 2520 2517 2593 2597 2521
8 2517 2593 2597 2521 865 884 885 866
8 505 524 525 506 2518 2594 2598 2522
8 2518 2594 2598 2522 2519 2595 2599 2523
8 2519 2595 2599 2523 2520 2596 2600 2524
8 2520 2596 2600 2524 2521 2597 2601 2525
8 2521 2597 2601 2525 866 885 886 867
8 506 525 526 507 2522 2598 2602 2526
8 2522 2598 2602 2526 2523 2599 2603 2527
8 2523 2599 2603 2527 2524 2600 2604 2528
8 2524 2600 2604 2528 2525 2601 2605 2529
8 2525 2601 2605 2529 867 886 887 868
8 507 526 527 508 2526 2602 2606 2530
8 2526 2602 2606 2530 2527 2603 2607 2531
8 2527 2603 2607 2531 2528 2604 2608 2532
8 2528 2604 2608 2532 2529 2605 2609 2533
8 2529 2605 2609 2533 868 887 888 869
8 508 527 528 509 2530 2606 2610 2534
8 2530 2606 2610 2534 2531 2607 2611 2535
8 2531 2607 2611 2535 2532 2608 2612 2536
8 2532 2608 2612 2536 2533 2609 2613 2537
8 2533 2609 2613 2537 869 888 889 870
8 509 528 529 510 2534 2610 2614 2538
8 2534 2610 2614 2538 2535 2611 2615 2539
8 2535 2611 2615 2539 2536 2612 2616 2540
8 2536 2612 2616 2540 2537 2613 2617 2541
8 2537 2613 2617 2541 870 889 890 871
8 510 529 530 511 2538 2614 2618 2542
8 2538 2614 2618 2542 2539 2615 2619 2543
8 2539 2615 2619 2543 2540 2616 2620 2544
8 2540 2616 2620 2544 2541 2617 2621 2545
8 2541 2617 2621 2545 871 890 891 872
8 511 530 531 512 2542 2618 2622 2546
8 2542 2618 2622 2546 2543 2619 2623 2547
8 2543 2619 2623 2547 2544 2620 2624 2548
8 2544 2620 2624 2548 2545 2621 2625 2549
8 2545 2621 2625 2549 872 891 892 873
8 512 531 532 513 2546 2622 2626 2550
8 2546 2622 2626 2550 2547 2623 2627 2551
8 2547 2623 2627 2551 2548 2624 2628 2552
8 2548 2624 2628 2552 2549 2625 2629 2553
8 2549 2625 2629 2553 873 892 893 874
8 513 532 533 514 2550 2626 2630 2554
8 2550 2626 2630 2554 2551 2627 2631 2555
8 2551 2627 2631 2555 2552 2628 2632 2556
8 2552 2628 2632 2556 2553 2629 2633 2557
8 2553 2629 2633 2557 874 893 894 875
8 514 533 534 515 2554 2630 2634 2558
8 2554 2630 2634 2558 2555 2631 2635 2559
8 2555 2631 2635 2559 2556 2632 2636 2560
8 2556 2632 2636 2560 2557 2633 2637 2561
8 2557 2633 2637 2561 875 894 895 876
8 515 534 535 516 2558 2634 2638 2562
8 2558 2634 2638 2562 2559 2635 2639 2563
8 2559 2635 2639 2563 2560 2636 2640 2564
8 2560 2636 2640 2564 2561 2637 2641 2565
8 2561 2637 2641 2565 876 895 896 877
8 516 535 536 517 2562 2638 2642 2566
8 2562 2638 2642 2566 2563 2639 2643 2567
8 2563 2639 2643 2567 2564 2640 2644 2568
8 2564 2640 2644 2568 2565 2641 2645 2569
8 2565 2641 2645 2569 877 896 897 878
8 517 536 46 47 2566 2642 1050 1054
8 2566 2642 1050 1054 2567 2643 1051 1055
8 2567 2643 1051 1055 2568 2644 1052 1056
8 2568 2644 1052 1056 2569 2645 1053 1057
8 2569 2645 1053 1057 878 897 122 123
8 26 1 27 518 970 164 974 2570
8 970 164 974 2570 971 165 975 2571
8 971 165 975 2571 972 166 976 2572
8 972 166 976 2572 973 167 977 2573
8 973 167 977 2573 102 5 103 879
8 518 27 28 519 2570 974 978 2574
8 2570 974 978 2574 2571 975 979 2575
8 2571 975 979 2575 2572 976 980 2576
8 2572 976 980 2576 2573 977 981 2577
8 2573 977 981 2577 879 103 104 880
8 519 28 29 520 2574 978 982 2578
8 2574 978 982 2578 2575 979 983 2579
8 2575 979 983 2579 2576 980 984 2580
8 2576 980 984 2580 2577 981 985 2581
8 2577 981 985 2581 880 104 105 881
8 520 29 30 521 2578 982 986 2582
8 2578 982 986 2582 2579 983 987 2583
8 2579 983 987 2583 2580 984 988 2584
8 2580 984 988 2584 2581 985 989 2585
8 2581 985 989 2585 881 105 106 882
8 521 30 31 522 2582 986 990 2586
8 2582 986 990 2586 2583 987 991 2587
8 2583 987 991 2587 2584 988 992 2588
8 2584 988 992 2588 2585 989 993 2589
8 2585 989 993 2589 882 106 107 883
8 522 31 32 523 2586 990 994 2590
8 2586 990 994 2590 2587 991 995 2591
8 2587 991 995 2591 2588 992 996 2592
8 2588 992 996 2592 2589 993 997 2593
8 2589 993 997 2593 883 107 108 884
8 523 32 33 524 2590 994 998 2594
8 2590 994 998 2594 2591 995 999 2595
8 2591 995 999 2595 2592 996 1000 2596
8 2592 996 1000 2596 2593 997 1001 2597
8 2593 997 1001 2597 884 108 109 885
8 524 33 34 525 2594 998 1002 2598
8 2594 998 1002 2598 2595 999 1003 2599
8 2595 999 1003 2599 2596 1000 1004 2600
8 2596 1000 1004 2600 2597 1001 1005 2601
8 2597 1001 1005 2601 885 109 110 886
8 525 34 35 526 2598 1002 1006 2602
8 2598 1002 1006 2602 2599 1003 1007 2603
8 2599 1003 1007 2603 2600 1004 1008 2604
8 2600 1004 1008 2604 2601 1005 1009 2605
8 2601 1005 1009 2605 886 110 111 887
8 526 35 36 527 2602 1006 1010 2606
8 2602 1006 1010 2606 2603 1007 1011 2607
8 2603 1007 1011 2607 2604 1008 1012 2608
8 2604 1008 1012 2608 2605 1009 1013 2609
8 2605 1009 1013 2609 887 111 112 888
8 527 36 37 528 2606 1010 1014 2610
8 2606 1010 1014 2610 2607 1011 1015 2611
8 2607 1011 1015 2611 2608 1012 1016 2612
8 2608 1012 1016 2612 2609 1013 1017 2613
8 2609 1013 1017 2613 888 112 113 889
8 528 37 38 529 2610 1014 1018 2614
8 2610 1014 1018 2614 2611 1015 1019 2615
8 2611 1015 1019 2615 2612 1016 1020 2616
8 2612 1016 1020 2616 2613 1017 1021 2617
8 2613 1017 1021 2617 889 113 114 890
8 529 38 39 530 2614 1018 1022 2618
8 2614 1018 1022 2618 2615 1019 1023 2619
8 2615 1019 1023 2619 2616 1020 1024 2620
8 2616 1020 1024 2620 2617 1021 1025 2621
8 2617 1021 1025 2621 890 114 115 891
8 530 39 40 531 2618 1022 1026 2622
8 2618 1022 1026 2622 2619 1023 1027 2623
8 2619 1023 1027 2623 2620 1024 1028 2624
8 2620 1024 1028 2624 2621 1025 1029 2625
8 2621 1025 1029 2625 891 115 116 892
8 531 40 41 532 2622 1026 1030 2626
8 2622 1026 1030 2626 2623 1027 1031 2627
8 2623 1027 1031 2627 2624 1028 1032 2628
8 2624 1028 1032 2628 2625 1029 1033 2629
8 2625 1029 1033 2629 892 116 117 893
8 532 41 42 533 2626 1030 1034 2630
8 2626 1030 1034 2630 2627 1031 1035 2631
8 2627 1031 1035 2631 2628 1032 1036 2632
8 2628 1032 1036 2632 2629 1033 1037 2633
8 2629 1033 1037 2633 893 117 118 894
8 533 42 43 534 2630 1034 1038 2634
8 2630 1034 1038 2634 2631 1035 1039 2635
8 2631 1035 1039 2635 2632 1036 1040 2636
8 2632 1036 1040 2636 2633 1037 1041 2637
8 2633 1037 1041 2637 894 118 119 895
8 534 43 44 535 2634 1038 1042 2638
8 2634 1038 1042 2638 2635 1039 1043 2639
8 2635 1039 1043 2639 2636 1040 1044 2640
8 2636 1040 1044 2640 2637 1041 1045 2641
8 2637 1041 1045 2641 895 119 120 896
8 535 44 45 536 2638 1042 1046 2642
8 2638 1042 1046 2642 2639 1043 1047 2643
8 2639 1043 1047 2643 2640 1044 1048 2644
8 2640 1044 1048 2644 2641 1045 1049 2645
8 2641 1045 1049 2645 896 120 121 897
8 536 45 2 46 2642 1046 168 1050
8 2642 1046 168 1050 2643 1047 169 1051
8 2643 1047 169 1051 2644 1048 170 1052
8 2644 1048 170 1052 2645 1049 171 1053
8 2645 1049 171 1053 897 121 6 122
CELL_TYPES 2000
12
12
12
12
12
12
12
12
12
12
12
12
12
12
12
12
12
12
12
12
12
12
12
12
12
12
12
12
12
12
12
12
12
12
12
12
12
12
12
12
12
12
12
12
12
12
12
12
12
12
12
12
12
12
12
12
12
12
12
12
12
12
12
12
12
12
12
12
12
12
12
12
12
12
12
12
12
12
12
12
12
12
12
12
12
12
12
12
12
12
12
12
12
12
12
12
12
12
12
12
12
12
12
12
12
12
12
12
12
12
12
12
12
12
12
12
12
12
12
12
12
12
12
12
12
12
12
12
12
12
12
12
12
12
12
12
12
12
12
12
12
12
12
12
12
12
12
12
12
12
12
12
12
12
12
12
12
12
12
12
12
12
12
12
12
12
12
12
12
12
12
12
12
12
12
12
12
12
12
12
12
12
12
12
12
12
12
12
12
12
12
12
12
12
12
12
12
12
12
12
12
12
12
12
12
12
12
12
12
12
12
12
12
12
12
12
12
12
12
12
12
12
12
12
12
12
12
12
12
12
12
12
12
12
12
12
12
12
12
12
12
12
12
12
12
12
12
12
12
12
12
12
12
12
12
12
12
12
12
12
12
12
12
12
12
12
12
12
12
12
12
12
12
12
12
12
12
12
12
12
12
12
12
12
12
12
12
12
12
12
12
12
12
12
12
12
12
12
12
12
12
12
12
12
12
12
12
12
12
12
12
12
12
12
12
12
12
12
12
12
12
12
12
12
12
12
12
12
12
12
12
12
12
12
12
12
12
12
12
12
12
12
12
12
12
12
12
12
12
12
12
12
12
12
12
12
12
12
12
12
12
12
12
12
12
12
12
12
12
12
12
12
12
12
12
12
12
12
12
12
12
12
12
12
12
12
12
12
12
12
12
12
12
12
12
12
12
12
12
12
12
12
12
12
12
12
12
12
12
12
12
12
12
12
12
12
12
12
12
12
12
12
12
12
12
12
12
12
12
12
12
12
12
12
12
12
12
12
12
12
12
12
12
12
12
12
12
12
12
12
12
12
12
12
12
12
12
12
12
12
12
12
12
12
12
12
12
12
12
12
12
12
12
12
12
12
12
12
12
12
12
12
12
12
12
12
12
12
12
12
12
12
12
12
12
12
12
12
12
12
12
12
12
12
12
12
12
12
12
12
12
12
12
12
12
12
12
12
12
12
12
12
12
12
12
12
12
12
12
12
12
12
12
12
12
12
12
12
12
12
12
12
12
12
12
12
12
12
12
12
12
12
12
12
12
12
12
12
12
12
12
12
12
12
12
12
12
12
12
12
12
12
12
12
12
12
12
12
12
12
12
12
12
12
12
12
12
12
12
12
12
12
12
12
12
12
12
12
12
12
12
12
12
12
12
12
12
12
12
12
12
12
12
12
12
12
12
12
12
12
12
12
12
12
12
12
12
12
12
12
12
12
12
12
12
12
12
12
12
12
12
12
12
12
12
12
12
12
12
12
12
12
12
12
12
12
12
12
12
12
12
12
12
12
12
12
12
12
12
12
12
12
12
12
12
12
12
12
12
12
12
12
12
12
12
12
12
12
12
12
12
12
12
12
12
12
12
12
12
12
12
12
12
12
12
12
12
12
12
12
12
12
12
12
12
12
12
12
12
12
12
12
12
12
12
12
12
12
12
12
12
12
12
12
12
12
12
12
12
12
12
12
12
12
12
12
12
12
12
12
12
12
12
12
12
12
12
12
12
12
12
12
12
12
12
12
12
12
12
12
12
12
12
12
12
12
12
12
12
12
12
12
12
12
12
12
12
12
12
12
12
12
12
12
12
12
12
12
12
12
12
12
12
12
12
12
12
12
12
12
12
12
12
12
12
12
12
12
12
12
12
12
12
12
12
12
12
12
12
12
12
12
12
12
12
12
12
12
12
12
12
12
12
12
12
12
12
12
12
12
12
12
12
12
12
12
12
12
12
12
12
12
12
12
12
12
12
12
12
12
12
12
12
12
12
12
12
12
12
12
12
12
12
12
12
12
12
12
12
12
12
12
12
12
12
12
12
12
12
12
12
12
12
12
12
12
12
12
12
12
12
12
12
12
12
12
12
12
12
12
12
12
12
12
12
12
12
12
12
12
12
12
12
12
12
12
12
12
12
12
12
12
12
12
12
12
12
12
12
12
12
12
12
12
12
12
12
12
12
12
12
12
12
12
12
12
12
12
12
12
12
12
12
12
12
12
12
12
12
12
12
12
12
12
12
12
12
12
12
12
12
12
12
12
12
12
12
12
12
12
12
12
12
12
12
12
12
12
12
12
12
12
12
12
12
12
12
12
12
12
12
12
12
12
12
12
12
12
12
12
12
12
12
12
12
12
12
12
12
12
12
12
12
12
12
12
12
12
12
12
12
12
12
12
12
12
12
12
12
12
12
12
12
12
12
12
12
12
12
12
12
12
12
12
12
12
12
12
12
12
12
12
12
12
12
12
12
12
12
12
12
12
12
12
12
12
12
12
12
12
12
12
12
12
12
12
12
12
12
12
12
12
12
12
12
12
12
12
12
12
12
12
12
12
12
12
12
12
12
12
12
12
12
12
12
12
12
12
12
12
12
12
12
12
12
12
12
12
12
12
12
12
12
12
12
12
12
12
12
12
12
12
12
12
12
12
12
12
12
12
12
12
12
12
12
12
12
12
12
12
12
12
12
12
12
12
12
12
12
12
12
12
12
12
12
12
12
12
12
12
12
12
12
12
12
12
12
12
12
12
12
12
12
12
12
12
12
12
12
12
12
12
12
12
12
12
12
12
12
12
12
12
12
12
12
12
12
12
12
12
12
12
12
12
12
12
12
12
12
12
12
12
12
12
12
12
12
12
12
12
12
12
12
12
12
12
12
12
12
12
12
12
12
12
12
12
12
12
12
12
12
12
12
12
12
12
12
12
12
12
12
12
12
12
12
12
12
12
12
12
12
12
12
12
12
12
12
12
12
12
12
12
12
12
12
12
12
12
12
12
12
12
12
12
12
12
12
12
12
12
12
12
12
12
12
12
12
12
12
12
12
12
12
12
12
12
12
12
12
12
12
12
12
12
12
12
12
12
12
12
12
12
12
12
12
12
12
12
12
12
12
12
12
12
12
12
12
12
12
12
12
12
12
12
12
12
12
12
12
12
12
12
12
12
12
12
12
12
12
12
12
12
12
12
12
12
12
12
12
12
12
12
12
12
12
12
12
12
12
12
12
12
12
12
12
12
12
12
12
12
12
12
12
12
12
12
12
12
12
12
12
12
12
12
12
12
12
12
12
12
12
12
12
12
12
12
12
12
12
12
12
12
12
12
12
12
12
12
12
12
12
12
12
12
12
12
12
12
12
12
12
12
12
12
12
12
12
12
12
12
12
12
12
12
12
12
12
12
12
12
12
12
12
12
12
12
12
12
12
12
12
12
12
12
12
12
12
12
12
12
12
12
12
12
12
12
12
12
12
12
12
12
12
12
12
12
12
12
12
12
12
12
12
12
12
12
12
12
12
12
12
12
12
12
12
12
12
12
12
12
12
12
12
12
12
12
12
12
12
12
12
12
12
12
12
12
12
12
12
12
12
12
12
12
12
12
12
12
12
12
12
12
12
12
12
12
12
12
12
12
12
12
12
12
12
12
12
12
12
12
12
12
12
12
12
12
12
12
12
12
12
12
12
12
12
12
12
12
12
12
12
12
12
12
12
12
12
12
12
12
12
12
12
12
12
12
12
12
12
12
12
12
12
12
12
12
12
12
12
12
12
12
12
12
12
12
12
12
12
12
12
12
12
12
12
12
12
12
12
12
12
12
12
12
12
12
12
12
12
12
12
12
12
12
12
12
12
12
12
12
12
12
12
12
12
12
12
12
12
12
12
12
12
12
12
12
12
12
12
12
12
12
12
12
12
12
12
12
12
12
12
12
12
12
12
12
12
12
12
12
12
12
12
12
12
12
12
12
12
12
12
12
12
12
12
12
12
12
12
12
12
12
12
12
12
12
12
12
12
12
12
12
12
12
12
12
12
12
12
12
12
12
12
12
12
12
12
12
12
12
12
12
12
12
12
12
12
12
12
12
12
12
12
12
12
12
12
12
12
12
12
12
12
12
12
12
12
12
12
12
12
12
12
12
12
12
12
12
12
12
12
12
12
12
12
12
12
12
12
12
12
12
12
12
12
12
12
12
12
12
12
12
12
12
12
12
12
12
12
12
12
12
12
12
12
12
12
12
12
12
12
12
12
12
12
12
12
12
12
12
12
12
12
12
12
12
12
12
12
12
12
12
12
12
12
12
12
12
12
12
12
12
12
12
12
12
12
12
12
12
12
12
12
12
12
12
12
12
12
12
12
12
12
12
12
12
12
12
12
12
12
12
12
12
12
12
12
12
12
12
12
12
12
12
12
12
12
12
12
12
12
12
12
12
12
12
12
12
12
12
12
12
12
12
12
12
12
12
12
12
12
12
12
12
12
12
12
12
12
12
12
12
12
12
12
12
12
12
12
12
12
12
12
12
12
12
12
12
12
12
POINT_DATA 2646
SCALARS stress11 float
LOOKUP_TABLE default
-484.3912651836872
-582.3053899817169
-469.0665091332339
-495.75310353562236
519.0432543717325
458.4080415274948
530.9971998454421
474.1842423584312
-379.0363309942186
-549.4297427423298
-802.7684781868011
-1082.6961462497711
-1394.0606629122049
-1696.7132019624114
-1924.2366583179682
-2134.0207863152027
-2286.306715629995
-2309.897706247866
-2291.2929716445506
-2123.933117914945
-1940.2266119755805
-1670.3592957668006
-1387.8035512063652
-1082.7020141333342
-823.9762679766864
-582.3383788056672
-385.04668278060853
-418.867120327428
-604.3145115021616
-841.7459074836224
-1154.3839573543519
-1481.3123358227313
-1778.590277850628
-2036.4907722501084
-2263.6237998977304
-2378.712783271447
-2441.04444382526
-2392.3001007670537
-2238.909339271486
-2045.4823929481208
-1765.1974607682787
-1444.3697807146236
-1142.5467007537372
-831.9437890646514
-585.3036228609271
-359.61182587285293
-372.1434135119198
-549.3761274456047
-817.6037948254962
-1089.681406382937
-1407.7441982077435
-1680.2660646480508
-1937.9391336431727
-2143.5852437671274
-2296.8220383273438
-2301.1772650666535
-2262.7083058664575
-2168.119714184664
-1917.7443877952173
-1659.5263010077178
-1397.2131144497544
-1106.611060678959
-805.969154112041
-559.1738075818866
-379.3705491088331
-384.85339926183224
-559.4838580004871
-805.5861352346838
-1126.3160933703184
-1457.0480391327292
-1810.7265937048942
-2056.55474389717
-2264.126852951944
-2386.422238154337
-2453.593098297715
-2388.9040422588587
-2249.08819918707
-2032.2074579373002
-1811.7729330286384
-1478.637635404244
-1175.8120041768998
-861.231119858101
-561.2138059809804
-375.07883950695395
364.22410041093826
539.560183878988
791.7065051011741
1115.4971551299095
1398.2947759795934
1706.3682263139635
1961.3293251022696
2148.326033225283
2273.1028617806733
2321.3997760787606
2253.4126993902028
2179.0917266141623
2003.393233757466
1708.503647396341
1430.2189897559583
1108.0704333093017
799.5419211369008
515.3370814304799
395.7271589189768
374.894327448681
557.7030073031783
834.9280723407865
1139.3411460835487
1475.896914165467
1799.7994748428464
2081.2099552769214
2255.018346050754
2389.096725150943
2450.4013418480754
2411.5805469807237
2287.817297239788
2074.194564603269
1783.6318958955817
1471.795473032631
1153.3136653280817
808.4872627689037
538.7809944783803
397.5640494420077
369.58273457270116
582.3537094143685
818.3355036072899
1087.2430908302777
1408.5225366195664
1703.129941884894
1977.3230453021824
2154.7935357159004
2210.2426153374836
2327.1725887758657
2270.7603956842795
2123.338623763062
1993.3765647690743
1748.4923916403204
1399.01280865632
1073.6428018212318
770.2080807201564
556.8075559977442
356.59049751609564
379.8492356315255
541.5653335507959
831.8061084914953
1174.545471418649
1496.558505281806
1768.8348999228328
2029.533628437668
2231.3217537160963
2410.362493854016
2426.6102648973465
2397.5293294489384
2275.4016865231097
2052.479436310008
1739.5695674084127
1469.0199453346431
1143.0565435569733
855.6027708910406
575.8341277595609
365.6649598777294
-282.2081195563078
-82.56681117787957
116.34081844612956
316.2963773198426
-371.57242842949927
-163.95012036710978
42.363458132371306
249.21331193298101
-267.77610794789507
-68.92093849778757
129.2889503868355
328.6861619405099
-299.90687575377524
-106.75910464674234
85.46273091994226
278.5360788330436
-503.59338330477476
-981.5775021836162
-1784.2141578178853
-2710.133515069261
-3703.6369601469487
-4621.019610574469
-5429.730824206024
-6048.374036367983
-6406.0387467276305
-6550.205015884712
-6406.295208105817
-6033.965263070539
-5428.571694444865
-4621.745769765228
-3693.491057999432
-2714.964035976678
-1783.6808094214648
-992.1343037448823
-535.1704658009112
-976.8027524854988
-960.3840232100338
-1259.4519966561347
-1694.8266379907727
-2227.7658936604857
-2790.636459685862
-3333.310790643096
-3755.5698627717793
-4015.287432014942
-4153.409110600129
-4036.402273854241
-3776.808141985908
-3310.98173125647
-2807.5877647381276
-2250.7927426528186
-1698.4003242477775
-1265.8397811371833
-943.5313336066902
-976.36946189031
-1751.1991743072867
-1263.3675201777369
-1231.743040587753
-1262.5661667827517
-1464.8912348654121
-1786.353713721037
-2152.0812342986465
-2489.446441343054
-2717.3198074754328
-2789.2876616939902
-2718.640273468569
-2480.8832600712776
-2143.701869925484
-1765.1944431103766
-1484.0996849946678
-1279.0783447362483
-1245.3989048488438
-1250.3777856640518
-1762.4829314593226
-2646.156736606732
-1654.1267398260534
-1238.2176087610424
-777.7008644789457
-480.3222482521087
-389.9019948653877
-488.5979468822479
-653.9166619684547
-801.1773522906005
-863.839616023004
-790.7310873344541
-654.7412267867476
-489.68248306401074
-374.1101175080985
-482.47573670744896
-781.4571523498744
-1248.128779862076
-1646.3760310076177
-2655.0343647673726
-3631.696988021955
-2175.466327322647
-1435.3465231899172
-460.2057538628578
392.70384393259883
1049.8930975459516
1343.692420044914
1367.9923107810318
1334.8338354546577
1299.3659769315273
1316.6441310252994
1386.095088781789
1347.7861642520875
1055.7485337853432
402.5812338292599
-445.1733730006963
-1430.6059361472726
-2178.306105684489
-3624.199336176738
-4533.657375507057
-2710.2564709447324
-1721.8628282453865
-326.1242175884545
1065.6756190992892
2455.7217915318906
3427.3381489776075
3842.581144059077
3956.160896819085
3895.5574395302683
3957.7604781761765
3839.058305779472
3430.0691860150546
2456.8469222392887
1081.2966903354973
-337.70500150695443
-1723.6611473988742
-2718.86496873945
-4540.765858847648
-5326.940570337698
-3232.685743926093
-2068.025885956362
-425.56664691865444
1372.4054597243667
3454.3165893778205
5551.458497079089
6877.410964375362
7171.969742432237
7438.604701800272
7157.097787262872
6884.884108508006
5566.056200323626
3445.624248770997
1402.8363751526922
-422.05071250349283
-2086.6064630523324
-3250.650144099258
-5310.722109164111
-5916.243038864806
-3649.4292297028005
-2381.8337719459087
-577.2126069031656
1465.5848395098
3921.618661221117
6904.126686993986
10213.600149823353
11885.962236143649
11223.650347787887
11867.017263546586
10243.766700264066
6923.527905851603
3903.0155634796247
1473.019791760482
-566.9565107030794
-2382.5352596640587
-3648.6168172722682
-5901.534575412981
-6277.520544262603
-3925.0674901548773
-2613.1142643019557
-711.6780752483755
1439.5165155995637
4033.79676072672
7224.450015423819
11963.745828654617
17950.124862311408
21770.93657715246
17966.23482005112
11929.321288206615
7250.087021512911
4034.1814862787724
1432.7288208194077
-695.2486343886703
-2585.749185649678
-3915.7398721305653
-6277.181568983942
-6400.036018345505
-4012.40926399827
-2664.442921116948
-765.801572503522
1392.8636770229787
4005.791867211461
7568.723530933261
11313.71887804009
21800.78113281168
24641.353612352163
21786.541699949652
11324.856374489143
7541.309514473192
4003.387180853635
1400.3797955960035
-776.0928364517167
-2708.0474234055728
-4010.9937351886183
-6397.206741741858
-6273.069876352325
-3919.3752738852054
-2628.324755763635
-711.950867684558
1431.9148464389145
4040.97877288796
7238.534341178834
11929.170935152099
17940.321751615033
21789.531990493648
17960.38573259674
11901.37503113877
7232.284944070503
4040.096428005956
1438.6602630829439
-707.3491369951516
-2613.971182069741
-3934.784685031511
-6249.773175412789
-5937.072442611679
-3655.5590354017913
-2376.2977354507893
-548.8793941251934
1462.0987189318985
3895.167780097574
6913.805822215974
10213.197245558724
11894.363776385784
11215.71095411107
11886.354496796615
10211.637169960886
6910.616060530767
3934.0898433187976
1472.706291104667
-570.7637614160776
-2406.483095854521
-3630.5226247850806
-5909.18320417963
-5335.302759319544
-3215.5446202643216
-2087.7267638482153
-413.13753009215
1389.424634706229
3464.865876035765
5565.2993192747235
6860.356438400224
7178.19358116854
7446.588944250718
7136.611060281284
6884.482955740765
5564.42182018701
3466.2537992242724
1392.0663406224921
-412.218988571316
-2074.3283851770684
-3252.524496663362
-5321.258998003788
-4534.278057187796
-2706.1739646773785
-1708.363763852045
-342.0670797545463
1071.4459063746035
2449.843924537301
3432.7720944285393
3830.8818368222564
3936.0790282040834
3899.0615561390296
3953.284805363044
3828.1014075390995
3438.378876312636
2460.205642887391
1069.8678415464237
-331.10860925912857
-1723.7451682789251
-2702.351238344796
-4552.274185640737
-3612.321945246309
-2178.4307917952538
-1441.2112915627658
-468.49602608941495
407.93843954615295
1028.4752694424242
1326.1120817437768
1372.3596951877698
1319.9239967530593
1320.5851036449894
1325.925863143988
1403.1270043151453
1310.9556016735733
1038.6096339235082
421.086480374448
-469.95016793720424
-1436.632751797326
-2176.096257953439
-3621.1927980156615
-2660.3380250893533
-1643.068812476471
-1242.448962137103
-759.142205234617
-474.8005618415773
-388.3921047113836
-469.2311793323606
-655.0685973633081
-787.7034555422142
-878.626497217454
-815.131525744684
-652.265789876692
-466.1040680408478
-403.9593765735626
-497.60122810769826
-753.5495220595039
-1249.784838997759
-1663.5833298321813
-2661.6862749466673
-1761.066294129938
-1263.06853585504
-1221.0477065779269
-1260.3486057929695
-1478.4337117299438
-1797.3434611745179
-2151.2131968904287
-2492.426948999986
-2732.4148202259094
-2797.3103798916563
-2735.900077925995
-2495.073065296747
-2137.3898859508336
-1797.1595831979066
-1476.9845600067638
-1262.5053679682314
-1239.4206768823788
-1257.5345795082394
-1740.3460682872683
-963.6009513605386
-948.9062126073986
-1262.1634759735316
-1719.6655419711024
-2223.8173303082585
-2800.2126643285155
-3335.9928629510105
-3772.4894134569913
-4031.54699625168
-4143.631844793446
-4027.52553335391
-3759.7282454725355
-3343.4801736185327
-2814.8434396623634
-2207.3201322536916
-1688.2132435566746
-1294.3704535663128
-922.3078007437289
-1001.3856766519602
-517.0408120471984
-984.5881741121411
-1783.1320345718414
-2723.998779885471
-3694.151567870751
-4644.337615352124
-5434.927873964421
-6026.363697202876
-6439.993837847374
-6558.736618373543
-6432.182864642702
-6047.6320508355275
-5416.397578579374
-4628.30617000768
-3697.8782657948323
-2718.941808633972
-1787.4212441616692
-987.4444199919235
-552.5698417149251
513.8037536554039
981.7344781141728
1772.164125526324
2715.7313299346715
3703.8157309684902
4615.6235710941255
5416.158061293885
6047.48753843829
6425.732002140954
6563.590414261445
6412.244808148593
6050.641536874697
5428.262768376619
4628.566160077229
3689.4873720109463
2721.9189501348883
1788.4792782627046
999.6054773703218
525.480494858697
967.6678522825241
961.9315932281315
1259.3104529194534
1702.025160400197
2226.982013847679
2805.864079589024
3331.093805519864
3763.724547760561
4023.415999023244
4140.281959664077
4047.68779046461
3777.1853971462697
3326.7571746576577
2801.215531989932
2254.840478135273
1701.477236269042
1262.3494146205485
946.9061530698091
999.1179289333522
1760.0027262568474
1250.684460569173
1237.0404325090349
1276.8040420208126
1474.8190495818853
1770.4739870596677
2156.496820634231
2490.9125965517014
2739.3771874252707
2792.982742080465
2721.9144106004387
2485.9573191720992
2157.4702385421842
1773.6496243719012
1488.8641998823732
1282.775786118582
1238.717931797728
1265.8383247181773
1764.0328204128891
2659.4928347151726
1688.2075849846005
1227.5563172586262
769.339631639421
488.5594904217869
399.9576100446284
478.75062824226916
669.5811715722084
807.8863626681268
854.8214439135045
794.5533386301249
638.4772973302752
484.42287969216704
374.8724180869758
484.02948790974915
753.0361806452274
1246.7202875874937
1648.521827319637
2648.0042227562517
3610.993504108861
2162.711774742231
1414.2650259882212
451.8486810438335
-385.1386102773249
-1047.9824643880129
-1328.9633432105184
-1398.3946321085095
-1322.3671878390014
-1311.3455540779978
-1329.901133397594
-1380.3204141687602
-1332.6236681696028
-1033.3756383340806
-412.61532663181424
464.91804039105773
1438.2755408734083
2185.330782232806
3632.2234774362296
4551.636214310303
2712.3193227127194
1711.549335891381
343.0615817271173
-1053.143516967073
-2452.834846863523
-3426.9765437114984
-3859.542038332671
-3959.520822606981
-3891.123889511451
-3962.0243595782667
-3831.2158581763506
-3425.829809654504
-2462.5542324967682
-1092.7071269582957
341.01018910482526
1714.8507470227778
2721.823821350932
4520.62964634411
5331.167279742658
3233.5051120705903
2083.4725954905152
425.2792203053832
-1386.6546254381537
-3442.977013995871
-5553.781854726374
-6847.977649308741
-7168.675178965554
-7436.828613018617
-7174.641752466559
-6883.70207535848
-5557.450857762247
-3469.057013873011
-1390.4338136576116
414.88645172212273
2082.6238401196897
3237.4799274643883
5324.990435314365
5908.5631674565375
3644.941068030894
2392.463632121682
575.1364148817956
-1461.7521163634956
-3904.9036554526538
-6908.317335823551
-10231.219865903258
-11876.583671947941
-11220.102226778865
-11875.811405055225
-10238.937143860385
-6920.821922719479
-3896.7731759166345
-1464.4836227800697
573.4639295060188
2394.227421696298
3651.706824351102
5904.413587841205
6282.465342506766
3920.386195100844
2618.618437299505
709.9042774252594
-1418.6025755926967
-4025.0707414336503
-7232.779401931912
-11944.329017670825
-17957.23317977786
-21774.66131870076
-17925.819495096803
-11927.7441812912
-7233.3550829440355
-4031.528911922127
-1433.3438693648204
699.3758333241567
2608.609003962949
3933.263465489261
6271.947501676157
6413.532974109054
4032.1219011303037
2671.263030424714
793.5842346101999
-1421.2994028031826
-4013.5717831980437
-7544.564111923799
-11310.307123087347
-21816.157270491123
-24680.65952204168
-21804.569385245442
-11306.63056511525
-7527.0637589795515
-4005.512201745063
-1406.4503064155579
772.5801908131689
2710.8398882420734
4024.9211545549333
6391.5200986927375
6283.496845761314
3924.9506635926664
2611.479169834405
714.5380767192692
-1425.4849051665515
-4038.2331032361835
-7243.754987560213
-11930.427428493276
-17938.242641426623
-21764.186039052904
-17937.251304713078
-11946.629516244866
-7209.310879060999
-4039.1898622075096
-1451.770632237196
717.3566345470026
2611.737549720332
3927.1321772905067
6288.83789628651
5913.562248907983
3662.9603126607835
2387.3538124915212
553.2310895994306
-1459.8405672833323
-3901.3952267151326
-6928.019234653562
-10218.202218176797
-11882.486212574877
-11222.864856792614
-11886.563334203325
-10209.697367670946
-6910.200432084501
-3906.4545113258064
-1455.8675193302333
560.5433589387685
2419.581008112058
3649.7840476185083
5910.087109292857
5318.783584570512
3237.7191936559975
2096.0705406554043
418.87187365442514
-1396.5268942676485
-3472.937173170969
-5547.9752625525
-6882.8118144553155
-7149.632211409509
-7449.600084448233
-7132.348946706392
-6882.760613573715
-5558.410933833569
-3475.9147423142567
-1381.60793664027
402.46108700800687
2081.7547212308273
3232.5539783565328
5306.572937996127
4532.882530614734
2709.2593325302005
1715.798975335434
338.1569115743041
-1037.1957895103842
-2448.3129667583853
-3430.3621568549424
-3821.348365332
-3945.7667391188443
-3882.0896838894114
-3960.3161510014907
-3825.5819088676944
-3437.8174313642085
-2444.845655426383
-1067.649322250858
347.47367788944393
1704.6603110558353
2707.7634261539206
4558.18341994565
3621.2303641289473
2163.987859841436
1441.0651772413403
451.81229845806956
-413.37226398848
-1038.0523783247918
-1326.3939889315516
-1388.2904095407575
-1329.6043474534526
-1309.958903344348
-1317.7588948262855
-1415.0918771484867
-1336.9019547151402
-1025.4741190345958
-406.6210769088939
451.18271546578035
1442.3269304614514
2168.1742187244818
3641.5982197155245
2663.342102330178
1669.0216713305563
1241.7181657627225
764.4123426824808
470.7024674285203
396.4857477545738
479.0181685993448
664.7526153568178
804.2813696339726
869.2804459137842
818.9034120021388
650.4013936445117
494.53511773981154
389.3056271392852
490.5732627646066
771.6166316401213
1247.2418285589665
1651.7605191227049
2652.933378401678
1747.6384968627244
1228.9596701394767
1228.0462489798665
1266.9531781245023
1494.136433424428
1795.0192715208977
2152.886575001292
2513.8759849863127
2718.9841718059033
2809.398846069351
2723.073859902099
2501.984491219744
2161.894262915477
1789.5842281947844
1473.7881675311364
1268.486892286688
1246.982920765411
1241.1872775543015
1748.115094433073
951.6010079011321
935.8277808334678
1290.646592490375
1713.3003780059516
2223.382162006572
2802.0695294272155
3329.7039624173194
3772.2821513190866
4035.714453501627
4157.709843858145
4017.1619341457263
3779.371983844787
3322.9228324191645
2812.0751332300715
2218.323051881045
1695.5636985376477
1275.0063755805604
958.4633692698553
981.6928032883443
525.6554784812033
1011.819938423112
1765.8094321489334
2727.8521911129355
3705.892518306151
4631.713605856523
5434.783822263591
6041.391004932113
6428.4162164079025
6550.27548235096
6446.439152823761
6041.989914738573
5410.281672182493
4649.608210759703
3689.5601922525093
2717.578554836102
1789.7739044756163
997.2562475381419
534.8373656097101
-226.80935678258538
-79.8044473156333
65.41325035318732
212.29410437121987
-326.2701691929251
-111.0173938702792
101.54166559316218
316.66825361177325
-475.9350063931197
-160.9042100943625
150.09520824812353
465.05102369748056
-632.8585578706115
-199.05382525920868
229.56099968776107
664.1470024231821
-821.5034176129848
-270.14008469320834
274.0588693488389
825.5381341166794
-999.0653574187309
-327.2320253010839
335.93194014951587
1008.0935424678028
-1127.9747950658202
-361.2129788789898
395.7838447075337
1163.4096985142678
-1255.501227164641
-409.993356782943
424.29239386692643
1269.8037770204246
-1350.818132614717
-450.49376281537116
437.8282015696168
1337.9997169859707
-1360.4346690755337
-446.3216825276613
455.97735485993326
1370.7166191413999
-1358.5405448414385
-461.0211806166917
424.3783175405115
1321.494704650715
-1242.2952068205923
-393.25135029293597
445.0774399228394
1295.2497644722462
-1132.1908446140587
-353.86989870481193
414.62068787775934
1193.7678153552115
-977.5821867398918
-310.5436133444309
347.83659183233976
1015.1721144076437
-810.8682494908571
-254.78503591008484
294.5138329323381
851.5137146674097
-633.9911911785603
-201.47998153977096
225.664924075827
658.5895140357316
-490.9989489093423
-170.03368606604636
146.75140727125108
467.3399179726839
-356.36871556937695
-138.83565653301775
75.44568991661072
291.7679939828813
-225.93234577029943
-71.82603329606354
80.79608679749072
235.4906662236899
-256.1447594165802
-98.94974084757268
56.235451525077224
213.008793419227
-366.05566303245723
-136.0457109156996
91.0272030569613
320.5196171980351
-498.5638908855617
-167.13131093420088
160.31699806079268
491.75911499746144
-684.303597966209
-230.77670831046999
216.9857917446643
670.1018880717456
-875.1817599218339
-290.5009239539504
286.71024723537266
870.8585936706513
-1045.824344985187
-338.7944181971252
359.5277400743216
1066.7223445829004
-1193.6288319602609
-380.2902128826827
423.2013213513419
1237.1652146661654
-1337.9150598607957
-445.074330387637
436.5750550311059
1329.3836772730574
-1401.8507167305797
-459.8216229295358
470.3442824538797
1412.341201924719
-1439.007558150217
-472.52929686382413
481.8639262076467
1448.3609754815698
-1408.8956640185788
-460.0688312705606
477.2281609401107
1426.7782630585134
-1312.4540922734886
-418.4806942110881
464.74734295811504
1359.6221164129674
-1202.06305505801
-388.2119063939899
415.7129115043208
1229.9805520083755
-1038.8088075830601
-337.83998556341976
354.66195054212585
1056.1798940557055
-847.4395218412392
-271.41700960462913
297.64345288602635
874.0888889050111
-672.8773465659469
-219.2983550815843
228.93145957496017
682.8959189429879
-495.78409975674003
-171.42136779264547
148.84811678598635
472.9329938357696
-354.25264301756397
-131.52615349646658
88.0508565318305
309.7577239435632
-205.3719671270228
-56.01586476434022
91.94843849382596
241.99527052463964
-220.00933135964442
-73.2284205328906
71.63018735544756
218.09772763581714
-318.0784291634336
-94.58747857715935
126.38943613367155
350.2872360397596
-482.4962486231234
-159.25808213325217
159.9678249452263
483.2348914449103
-643.0289110797457
-212.93323571095243
211.4510406940244
641.2444223780185
-829.9432959114201
-273.62793486425653
275.2960373843089
831.3388813552447
-986.4531381363049
-318.49296083068475
340.759744301904
1008.9335482753813
-1135.3475260967389
-362.487617591396
400.4122054120526
1173.7632824508473
-1262.1481297239661
-413.587942850776
423.88050994277
1272.7474174620584
-1370.6945484858006
-480.1305248886347
397.8348122667521
1286.950229600072
-1352.4837381783873
-439.0147174280137
462.7108976505697
1376.945321796462
-1333.1423802040517
-438.2954118838534
444.90999555401504
1340.2391287861392
-1286.931627101265
-439.1672114767134
396.9470161097124
1243.8628688072786
-1116.9284594012424
-345.37066471669823
416.7225787062198
1189.7253100778908
-962.2398834750056
-290.09655117429793
374.05394200980663
1047.8818617556244
-823.9756299294531
-271.8738062083721
273.11384220048785
825.4075650498271
-659.1269119475037
-228.2502152081579
196.8265229780227
627.1839486174285
-482.6237813308835
-171.1613219305873
136.19046717882156
447.3929646797478
-330.96482137963176
-110.54969899915159
107.32430235110223
328.029439330101
-228.38415070809424
-82.73984734341502
61.00454518944025
206.3146686963737
-228.37608963251114
-77.1306961607188
72.34253147803247
223.5319636799395
-334.04036293178797
-116.39420080184937
98.61557651311159
316.23844731226563
-470.8782637268305
-147.5330286063254
172.1429223101586
496.0495079495013
-656.022997289896
-201.66260778717697
247.54626368917525
702.7063330058008
-853.0150528512895
-269.73924933187664
306.7692188862711
890.9045620709658
-1076.9812907855958
-369.30341877415776
329.2917839922011
1036.3445463646203
-1219.4650765936822
-412.0725492630154
385.2021954935044
1192.5544627271593
-1343.1171549689025
-454.9014425147325
422.15315721556544
1310.362934699282
-1404.7793568801135
-457.4977282229811
478.42818504199386
1426.7282105460763
-1453.491034064442
-489.0764250662178
463.0797643624246
1427.1636959630996
-1408.802350366488
-463.3018457442522
470.5845725964755
1416.5425639171153
-1322.7211114615202
-428.9889527335763
453.8188291657716
1348.072127604857
-1195.9553933348507
-389.17124960012734
407.7955710347742
1215.1481823064387
-1083.480298312381
-381.3179665580392
311.6721190903336
1012.9811461679637
-874.9396524503827
-292.41609086096287
282.915082314983
865.4181093107909
-700.5748576708138
-242.00626393966377
210.76492157392204
668.8382403217256
-509.8155356347561
-170.3365363087505
165.05605400167406
504.42892100661993
-328.8074596654624
-104.15229231491685
117.98656471446157
342.9086407329887
-223.25054740905762
-76.65001105517149
68.1030039191246
214.42941576987505
-290.6071880850941
-91.86889488250017
101.99224134534597
300.7764328997582
-572.9179166257381
-188.12759314663708
188.4438665509224
573.1815264560282
-1046.9305341467261
-348.07473927922547
337.40854424983263
1035.8031565267593
-1587.861290577799
-521.1888178382069
526.3877527434379
1593.2183053325862
-2172.754166647792
-715.90580990538
715.4619083311409
2172.5248674862087
-2711.8555590044707
-894.6944180615246
890.5654181819409
2707.323488505557
-3188.093200987205
-1054.1152760349214
1042.4882935546339
3175.8115298487246
-3549.7855373006314
-1170.4084958434105
1167.9790786840022
3547.877018781379
-3756.571935135871
-1233.0847904719412
1247.4745494052768
3772.7450204584748
-3842.034099107608
-1262.8015100583434
1272.3409212566912
3852.8783336505294
-3759.1045211125165
-1238.0542925149202
1239.8983724787831
3762.3228745795786
-3538.58943666704
-1161.8838131260127
1174.3011825922877
3552.4359868243337
-3185.751097144559
-1050.0932179857045
1048.6825294662267
3184.716357730329
-2710.2946172561496
-890.7013981714845
897.2130958400667
2716.922744942829
-2167.5137012265623
-715.5159879717976
710.9986509699374
2163.1798479370773
-1590.9611673876643
-522.3308269046247
527.4115434419364
1596.6775361765176
-1044.1548574753106
-342.61514748446643
345.9884436689317
1048.012457774952
-578.2916499245912
-188.12663532793522
194.07930860109627
584.7599773239344
-312.74431553296745
-105.20028630830348
97.07846879586577
304.09685116633773
-572.0940230190754
-191.20218162238598
181.57205939479172
562.6465313192457
-557.5779627691954
-182.3145394269377
183.56176318973303
558.9490974266082
-732.7083952948451
-240.32676181010902
240.281064260751
732.6493255253881
-986.0862194951624
-321.80128990113735
327.401924489066
992.2289419453591
-1298.468833560124
-426.3637938834727
426.04596999660134
1298.0064103864133
-1624.5696597825736
-528.6927970927209
543.1490161456168
1639.2918578442186
-1945.2070493996143
-639.8438882622868
637.1409229841083
1942.6674026437104
-2190.8616661801934
-718.4497720394284
722.6787464953959
2196.4171991106123
-2342.2371566295624
-767.9904029089957
772.6754544377327
2348.0792963951826
-2426.5298130530864
-801.5825361311436
788.3514632377774
2413.329818394035
-2354.0211342833936
-770.7267850209028
778.8629990052432
2363.2181485258043
-2204.2325382083654
-724.5368492733687
723.4143098052591
2203.6138734705746
-1929.183143414557
-629.5806228239089
642.1391674131155
1942.8234652206302
-1638.7618902567774
-540.3689831458032
533.8544113393873
1632.2963536661118
-1311.3412292618304
-429.2829505931586
433.1112241819501
1315.2530176080763
-988.6954079028219
-323.71139523386955
326.0050740186125
991.2757912650704
-737.0958635229617
-242.88056802935898
239.50611570477486
733.7008986081928
-547.1951070986688
-178.31870140880346
181.23324446566403
550.2867293264717
-566.6074998732656
-180.25907590985298
198.55294356495142
586.403426380828
-1024.1549050696194
-334.99560513719916
341.38812456838787
1031.3632012680173
-737.0421991217881
-245.4491948094219
234.0795059185475
725.2420118302107
-716.6733897682279
-233.66071351245046
238.4248945787549
721.634694987908
-734.2022662553936
-237.7451199181378
248.1924631036818
745.9347113016993
-853.8048298954964
-278.2245463524014
285.478970522061
861.9651984870434
-1046.262978380546
-348.49340384453535
334.50353707000613
1031.6361986733973
-1257.7420043312013
-412.7085682451725
415.5294619239867
1261.0951912477612
-1456.9049532487988
-480.29805777966976
477.5241129435599
1455.5530393440276
-1586.7324588522315
-516.8094821386039
532.888828465715
1604.8100557997823
-1631.1241113618016
-535.947890855372
537.7548295576125
1633.558155681938
-1590.1907290108502
-522.8958632517606
523.6259516254067
1591.7702751327306
-1450.5038736313581
-476.2985654696822
478.8582380488515
1453.9075539819896
-1251.4933182001114
-408.2570932228118
418.52100168541074
1262.9374259151518
-1030.8031963910908
-337.6449520364404
341.8143067918718
1036.4115779157728
-866.3520938251168
-284.302591631189
285.85567101091146
869.0000760257244
-745.076841937378
-243.68146700412035
246.6050184685737
748.2702553253621
-726.2500893007964
-239.74549987353384
235.31275516562164
721.0775585062802
-724.5841421280056
-233.08582106418908
246.85831958800554
738.9392813835293
-1032.24313602224
-340.03190335072577
339.3572521470487
1032.3327182102948
-1549.045091887936
-506.9079323038459
516.6712180208415
1560.016252093017
-957.974558044225
-305.51552036590874
332.7184566035867
987.5142492745072
-723.3884039781988
-240.94447169825435
230.3845296036452
712.8012431617826
-453.8769577201456
-151.49760259874165
143.4823577646166
445.7555348780006
-278.49420436285436
-89.5616132542491
95.23258598893881
285.03961947746575
-226.6113524939865
-72.36375246569514
79.1355523057282
234.49205278791487
-288.51800785958767
-98.42181097716093
88.25874767266214
278.4550815653056
-381.92049962468445
-122.06198859214783
134.00712735019624
395.10888360254467
-470.27904837951064
-154.13667134009302
157.29039380326867
474.6196054518223
-509.02191139757633
-170.66059149987996
161.97257466241717
500.21492973715067
-463.9509780872613
-152.11185522563756
154.70195981115103
466.9442414008081
-387.30792984366417
-132.59311203286052
117.57304593734443
371.8563338071108
-288.1365311779082
-96.61437095887959
91.44304677657783
282.93047682382166
-218.14719477295876
-71.4864061307162
71.99662618339062
218.7343037314713
-280.5019690785557
-91.70338971912861
92.65214927121997
281.65709819085896
-459.4954976569861
-159.29720989055932
133.19658374786377
432.6214919090271
-727.5583789329976
-239.4186296891421
237.62779651023448
725.8985581323504
-958.1747910697013
-314.2748999968171
314.62347064726055
959.1442854590714
-1556.9672070052475
-514.5909617934376
508.48792419582605
1550.5650176666677
-2132.491270566359
-707.9666091855615
690.4294038526714
2113.893692944199
-1268.7458087038249
-419.59514679946005
409.50509141385555
1257.7699236012995
-840.6014638245106
-282.17586893588305
263.50218959897757
821.1200981102884
-268.63490401394665
-90.48636963032186
82.96320050954819
260.8305879291147
231.2685983888805
78.18239823542535
-71.87913538515568
-224.53986186347902
612.9489483721554
201.59951137565076
-200.83258102461696
-611.8081197962165
784.7169622145593
261.364670176059
-249.4512829259038
-771.8646794743836
789.5397871825844
249.5530297998339
-277.53297628462315
-818.3473134115338
776.033272691071
257.1252349894494
-247.7841298021376
-765.6538711953908
751.7590428255498
242.91726697050035
-252.88548386469483
-762.4197776280344
761.7137021515518
245.77645298466086
-257.04356153681874
-773.6633029766381
806.3319986071438
265.7004412971437
-261.3721145056188
-801.5294538103044
787.6933909244835
263.09824962355196
-249.18438499607146
-773.3734935820103
620.125161735341
210.37374808453023
-190.22837094590068
-599.2321537099779
234.1641621235758
74.0629006717354
-83.26809932850301
-243.64773833192885
-255.70772146061063
-78.81523815356195
94.2579585313797
272.5941961929202
-833.501740925014
-272.1120733395219
277.2933650948107
839.5317431446165
-1268.3138059303164
-415.0809081774205
419.0182494856417
1273.3048125561327
-2124.2663300987333
-698.0345262810588
703.0982863344252
2130.3357161898166
-2655.823796587065
-869.6966251656413
885.06351303868
2672.082292944193
-1578.6918835043907
-517.4815809838474
519.5632755924016
1580.773642199114
-1006.9153597652912
-334.1262501589954
324.12680684030056
996.813921160996
-187.2668352406472
-57.32525743730366
70.03730939142406
201.403861599043
624.0433423481882
208.05852234363556
-198.76033905521035
-613.6652525831014
1434.0264091622084
471.7251248769462
-470.03327737376094
-1431.9429059457034
1998.9641172289848
656.2256556730717
-656.976239675656
-1999.3562534023076
2235.5483965929598
728.308279402554
-744.7531355191022
-2252.1846072208136
2302.2363495696336
753.8327594939619
-758.2552273441106
-2306.3164094612002
2267.254171896726
745.1504071447998
-740.5513128209859
-2262.718189964071
2303.3562134932727
754.2969483677298
-758.6201454922557
-2307.6753337364644
2237.5141667556018
736.1484592333436
-730.5738739203662
-2231.1948638092726
2001.7595637515187
658.9427344575524
-654.5118905287236
-1997.40702964738
1433.6739493757486
469.7101357020438
-474.069468844682
-1438.4978679344058
629.6471383236349
203.47331109642982
-214.0310135986656
-640.4921081773937
-195.53481903672218
-62.908905778080225
66.41238716617227
198.97064702957869
-1007.1338261961937
-333.09629208408296
326.1168855652213
999.5419944860041
-1584.1486369725317
-519.6660532038659
520.8754371162504
1585.9460410289466
-2667.158047409728
-885.4661037977785
864.591327002272
2646.533767785877
-3124.032518872991
-1028.4475274775177
1030.3534800540656
3126.7163568977267
-1884.4938121866435
-618.9766989853233
618.2920568697155
1884.3142550680786
-1205.5440494064242
-392.27333395928144
404.43085143715143
1218.8107395600528
-249.54106017947197
-83.24581459723413
80.01461153104901
247.28377777151763
797.1342322006822
256.90192562527955
-271.30436911806464
-811.4999573007226
2017.0556839685887
665.439762827009
-656.4920309167355
-2007.3120457157493
3239.5255816429853
1063.175693711266
-1066.4621500447392
-3242.4962352458388
4015.7311648353934
1326.5891127493232
-1302.6736224610358
-3989.97531016171
4177.943629326299
1371.1942690778524
-1370.9327461812645
-4176.676601875573
4335.7477788589895
1423.947510221973
-1422.2549189589918
-4334.045803565532
4166.42567627877
1362.225325414911
-1378.1517946776003
-4182.910620126873
4015.617629081011
1318.5394212119281
-1319.1772023458034
-4015.6562983058393
3249.8856715001166
1069.7164885625243
-1063.4627613592893
-3242.861509796232
2005.8058981485665
651.2927870247513
-674.0049034785479
-2028.7715241182595
819.6411171033978
272.22692936472595
-262.5980021003634
-809.0819498728961
-247.4607864310965
-83.15719795692712
77.44043573271483
241.2583485338837
-1219.4001237982884
-402.0636088857427
398.1054237904027
1215.4309686413035
-1897.2931877570227
-627.127947495319
614.4059388842434
1884.4243629071862
-3112.9339842656627
-1022.0504863951355
1032.367320205085
3124.590981822461
-3470.6505393125117
-1144.8908803816885
1139.248877344653
3464.330828245729
-2128.6820088140666
-700.7837565764785
695.3203394338489
2123.5522053223103
-1390.3876306619495
-454.95772689394653
461.63135092146695
1398.3957920279354
-338.2036859448999
-112.02543181739748
109.73815494589508
335.98099658451974
853.5789891891181
280.66607110761106
-278.6419054735452
-850.962204253301
2288.051400575787
754.9800762273371
-743.0633873231709
-2274.5399185288697
4026.595574637875
1320.7233887724578
-1326.0485662594438
-4031.5502983517945
5960.102724319324
1953.3819202706218
-1968.7681892123073
-5976.262314422056
6935.246143845841
2280.106308389455
-2273.1908122189343
-6927.516231050715
6531.392523050308
2142.1708918213844
-2142.6250563617796
-6530.51924562268
6920.737268529832
2269.6562275830656
-2279.842532005161
-6930.479277163744
5981.338595978916
1966.4553821571171
-1963.156930135563
-5977.538446076214
4039.131458815187
1326.797668416053
-1326.1884940043092
-4037.8315025642514
2275.264736556448
747.7161274384707
-745.0419147964567
-2271.404215220362
858.3733054371551
283.16992104426026
-278.1282576881349
-852.1651152065024
-331.3939832728356
-108.04211252648383
111.42461746092886
335.8122301157564
-1390.2144924653694
-454.0985337616876
462.98505796305835
1400.0468481490389
-2127.2385043306276
-698.4435881739482
698.8323820643127
2128.535094032064
-3461.113088021986
-1139.7079638279974
1140.8026177361608
3462.8093575630337
-3681.089079592377
-1211.3723311629146
1214.7680260278285
3685.0058713443577
-2289.610324908048
-753.6751961316913
748.1448673680425
2284.3567613307387
-1526.6044374201447
-501.2307028993964
503.4603296164423
1529.9297293704003
-417.2677424047142
-138.24858944490552
135.5310028400272
414.8538811914623
840.4344407264143
281.1839112173766
-264.00690014846623
-822.0064075309783
2350.2716607991606
772.5373564995825
-768.3950505908579
-2344.606348140165
4207.87898992002
1377.9541924633086
-1387.7441556043923
-4217.196142500266
6983.562229586765
2299.137417949736
-2283.2598671298474
-6966.509926442057
10485.725536206737
3444.1127229686826
-3451.950393648818
-10493.338001925498
12735.90374006331
4188.053132619709
-4191.976083347574
-12739.781260708347
10503.226631788537
3463.620801605284
-3429.584951395169
-10467.063876073807
6960.430337463506
2286.57001611311
-2285.820134278387
-6959.4202115042135
4227.454589296132
1391.9746279418468
-1378.8534050108865
-4213.1284986054525
2350.079291026108
771.3800807362422
-770.9152842583135
-2348.8835517084226
832.6305286781862
272.1668547047302
-274.54123293980956
-834.4276265725493
-407.05225851759315
-133.69995053391904
134.84621429163963
409.18680690042675
-1507.7515311101452
-490.2660280102864
507.0677137263119
1526.574922037311
-2281.0019620042294
-745.0466390904039
757.5277788154781
2295.188886919059
-3683.1320431418717
-1215.6050796611235
1208.4541927808896
3676.627540753223
-3752.6872020270675
-1233.8615142218769
1241.2487305887043
3762.1315970793366
-2337.0261038336903
-762.7619023360312
777.3046416081488
2353.3092131521553
-1555.76841330342
-509.92677798494697
514.5214184336364
1561.1074250675738
-445.00184779800475
-139.7919369917363
160.77482482790947
468.2622629366815
804.4251323547214
254.77723860740662
-281.7659690454602
-831.9147527553141
2330.7003654055297
761.966100635007
-770.2517992500216
-2338.8321095276624
4416.9802425168455
1457.0090315733105
-1436.7056109588593
-4395.401853341609
6585.664847636595
2160.366033036262
-2160.6360684465617
-6584.70951811038
12752.57127150707
4190.927519805729
-4203.438621461391
-12766.067306097597
14402.310202965513
4721.499674253166
-4766.434020360932
-14445.363005110994
12743.822510525584
4187.378940453753
-4201.965282018296
-12759.58735151589
6594.964563988149
2167.946000044234
-2154.5945497779176
-6579.987596611492
4398.6994081977755
1447.6013159519061
-1437.3053568908945
-4387.089825908653
2329.8570285942405
762.930596921593
-767.1947379298508
-2333.4142559729517
812.5693439142779
263.98550251312554
-271.06525277812034
-819.324212083593
-455.7357983915135
-151.7791688516736
146.67480992432684
451.1566287614405
-1582.782203182578
-520.6447400441393
520.1229070369154
1583.3641028665006
-2337.183486485854
-764.5653676819056
773.8036326095462
2347.9984700549394
-3753.8847270142287
-1239.4282695678994
1230.8570842668414
3746.2889089398086
-3677.715678025037
-1208.8809870947152
1216.56359199062
3686.3319911956787
-2284.452729413286
-748.8588508907706
752.7772172670811
2288.932414546609
-1538.2624928988516
-510.28677323646843
496.0246124472469
1523.1298175435513
-417.54202193953097
-137.99023810960352
136.8393314462155
417.63922938890755
833.4834424331784
274.69640811719
-270.30388768576086
-828.4236553534865
2354.1657147500664
772.8048043530434
-772.1469249613583
-2352.8128573819995
4216.91612239182
1382.0660004336387
-1388.5469618868083
-4222.990688215941
6960.182860257104
2286.0003662202507
-2286.9273938369006
-6961.243404017761
10481.222697619349
3444.9632659386843
-3445.5149493701756
-10480.905061550438
12751.870488863438
4201.935713128187
-4179.667391302064
-12728.586622117087
10497.523446540348
3457.548323566094
-3436.674251757562
-10475.903405797668
6936.574643943459
2265.5871277255937
-2305.0842008609325
-6978.032968488522
4217.393311803229
1389.7571383370087
-1372.9203568380326
-4198.50497194007
2352.8816149411723
771.3258488820866
-773.6315730111673
-2354.1204634951428
833.948912486434
268.8007283741608
-282.71101429406554
-847.5999711658806
-412.356878278777
-132.7177185593173
141.726683546789
421.6933466019109
-1527.6016017524526
-502.9328698264435
500.500945456326
1525.2253694394603
-2296.9766791807488
-758.2631848491728
746.8102837130427
2286.8018367169425
-3659.972447294742
-1195.5919249365106
1226.4078090004623
3693.573579338379
-3486.274429956451
-1155.501041661948
1133.6452396512032
3463.8638881314546
-2130.133479403332
-697.5549753457308
703.3003027718514
2136.441851809621
-1386.279121497646
-452.5647526551038
461.955714115873
1396.2226513754576
-320.8955919109285
-105.0141190905124
106.94814897701144
323.63326167687774
850.9276293646544
279.0308535601944
-279.1527125593275
-850.2640016153455
2268.9590032119304
742.5038391277194
-749.618361260742
-2275.78579133749
4030.7742588445544
1319.3699053004384
-1333.1258991397917
-4044.7043810524046
5962.153728084639
1957.9487835932523
-1961.5566104557365
-5966.250397488475
6940.463290445507
2282.266869597137
-2273.921318114735
-6930.943215207197
6524.965110110119
2137.0190919339657
-2146.7469100160524
-6533.852547125891
6934.1340289749205
2277.1341093583032
-2278.3159737698734
-6935.005355333909
5962.488249843009
1960.10560344439
-1957.523851991631
-5960.140537011437
4030.5410100882873
1322.6227251486853
-1325.7487918408588
-4032.4875110853463
2297.1831045961007
761.1773291202262
-739.5372536880895
-2273.546800901182
859.707468082197
286.2021535318345
-273.33332996908575
-845.515424773097
-335.57028279826045
-113.31027226895094
104.33787200599909
326.17403270397335
-1404.1501386044547
-458.297746039927
468.45341662690043
1415.2919032936916
-2114.033919335343
-689.6772307613865
703.5914525156841
2129.7423720574006
-3466.1583341835067
-1142.1910481480882
1140.9102314934134
3465.613183826208
-3131.6935989409685
-1036.1841082908213
1021.7806220054626
3116.5918721612543
-1870.5462139267474
-607.8846361041069
626.8613999057561
1890.6068067792803
-1218.4638457112014
-398.6364303417504
404.4499470628798
1225.129113100469
-240.45454730652273
-77.65953448787332
81.89465315453708
245.19116577133536
807.9365544971079
262.0265848543495
-271.42409194260836
-816.5657517723739
2019.4080440234393
659.7892305385321
-670.0886379424483
-2028.967775957659
3250.975215686485
1072.6764504052699
-1058.5336683169007
-3235.777147579938
3997.461169006303
1306.0073033161461
-1326.7468005493283
-4018.793236883357
4186.196033813059
1381.6653348440304
-1357.981866612099
-4160.890717415139
4339.219600833021
1423.0635386612266
-1427.3052768250927
-4343.060812888667
4157.290984467603
1364.802173025906
-1363.2549352804199
-4154.842663085088
4015.7413861025125
1318.941310645081
-1318.6294197048992
-4014.9698142986745
3248.5503087015823
1068.6129779238254
-1064.4094724301249
-3243.7498416295275
2020.1192483222112
659.8398596970364
-670.809233462438
-2030.6620593238622
812.6919673644006
269.04577368404716
-261.97555562574416
-804.4940424123779
-242.5913288295269
-82.94895238801837
73.22784836683422
232.85170249454677
-1210.952571596019
-396.7569847255945
400.8926165206358
1216.196429352276
-1899.7674557520077
-630.1289374157786
610.8723390437663
1880.26332268212
-3123.164238685742
-1032.9168322142214
1019.8973410967737
3109.599146570079
-2659.036037588492
-875.9338238667697
875.2925972286612
2658.161150401458
-1576.2226427346468
-516.4907449372113
519.1710001658648
1579.0437294598669
-996.4537073932588
-326.1041763573885
330.31649943068624
1001.7532786671072
-199.97501687705517
-67.33004248701036
62.21383213624358
195.25717303343117
630.8201520461589
216.38440894335508
-188.357437139377
-600.7096623945981
1429.7585290148854
469.26819755882025
-470.4287907704711
-1430.0257722157985
2002.3587526287884
657.659729462117
-657.3507045321167
-2001.3567621260881
2232.7497349288315
734.7451084116474
-728.5246606264263
-2225.430150547996
2289.2879964336753
747.6196584599093
-757.9105478487909
-2299.3897387171164
2270.4533971380442
748.6617307867855
-736.0187644055113
-2256.370926178992
2299.9837523000315
752.0520198205486
-759.6684661954641
-2307.4191267136484
2230.065462964587
732.0607709512115
-731.408838278614
-2228.802149824798
2005.2151322150603
657.938078282401
-659.5995603660122
-2006.1446634754539
1438.395256136544
476.43774879258126
-464.5636566700414
-1425.3574634399265
624.7757728733122
205.36760479491204
-205.0045547168702
-623.794290558435
-190.34054415952414
-58.48138542659581
70.777801502496
204.00457247998565
-1010.1171182068065
-338.4451924529858
318.86537935584784
990.7016591378488
-1574.1025550523773
-515.7696771780029
518.8146301330999
1577.9509678580798
-2668.838455908466
-877.5199026777409
882.1496880701743
2673.9033442335203
-2116.4739492665976
-694.5286322496831
702.0733720231801
2124.4953376054764
-1271.2231687493622
-421.4170012138784
408.508056813851
1257.7994893677533
-841.0633594766259
-276.8426573649049
275.20105903968215
839.9222013354301
-274.9677929878235
-95.0347690321505
80.0492328312248
259.4090532027185
238.10729219950736
76.65547964908183
-81.92788454145193
-243.43740507774055
598.3920204490423
193.49719576723874
-202.77452424541116
-607.7770732939243
771.595301495865
252.44765901751816
-254.38232507929206
-772.9829463176429
794.5122047774494
255.3341652294621
-270.67540188133717
-810.0698037296534
763.5840352866799
246.59412558190525
-256.867150968872
-773.6732858456671
767.2878123437986
253.6289897877723
-246.1178013375029
-758.737774620764
770.4872236745432
254.5353369982913
-247.75309767201543
-763.2533005317673
813.6993333511055
263.2107687331736
-274.0607127211988
-824.9336438933387
758.8614418022335
241.39073560293764
-264.5223974343389
-782.9444842068478
607.9280093312263
202.99256052542478
-192.77202185802162
-596.7308477358893
248.49911763239652
85.06005411967635
-74.76058619562536
-236.7983037037775
-276.9149889224209
-97.1636615502648
78.05081095546484
257.91255578864366
-837.0829567508772
-273.48645311268046
277.8998404298909
841.9357600859366
-1268.646512249019
-418.5245513296686
411.7754232403822
1261.5153768509626
-2119.539713272359
-691.9179482357576
710.3838052828796
2138.6774395452812
-1558.7469802498817
-512.6106745991856
514.5209426321089
1561.0319369249046
-951.8515248894691
-304.81075101718307
327.4497283976525
975.6282499562949
-723.7197541017085
-237.568216342479
237.35982646793127
723.3484796788543
-440.4103957731277
-142.85140573047101
147.5265348367393
445.2891986798495
-276.8601099550724
-92.12256773002446
88.06882010959089
272.793178005144
-225.41855414956808
-71.8557303790003
78.61629615351558
232.62612694874406
-273.9769147345796
-88.13475448731333
94.79883217159659
281.68504971731454
-383.8742294656113
-124.75104287546128
130.6084272712469
391.00088574923575
-460.18587724212557
-147.38262173719704
160.6887976070866
474.5755895972252
-518.0798009326681
-174.0276799518615
164.34812923707068
508.4949081018567
-478.06150839291513
-156.4426260823384
159.87103147432208
481.5973418680951
-383.539233176969
-127.30308495182544
124.69823904056102
381.17775963712484
-269.38322707265615
-81.59070189017802
103.81055056117475
293.6912470785901
-238.9972041947767
-83.58134834654629
68.58484873641282
224.11157959792763
-291.2099235369824
-98.11029912764207
90.49533417867497
283.7947483267635
-435.53187983855605
-138.24263029405847
152.38805253617465
450.9988212767057
-728.8034393740818
-240.27424551034346
237.1718200938776
725.8903324757703
-969.8198898299597
-321.15692915860564
311.75406757975
959.6075734742917
-1560.7634685449302
-515.8566940170713
509.46427785325795
1553.594662410207
-1033.0968675352633
-343.7061415538192
332.1985890734941
1020.9661763086915
-739.5568720903248
-251.464225910604
223.78069190308452
709.7285915296525
-709.2501176558435
-229.7377609666437
238.49974818341434
717.4350371994078
-733.3991360124201
-238.84594320878386
244.68107941932976
739.4993768781424
-861.1761052049696
-279.36568539589643
290.7308871932328
873.9974470324814
-1050.813601916656
-346.48772964812815
343.4054453596473
1047.9876505434513
-1258.0210621356964
-414.090408872813
413.1721506174654
1257.9681051271036
-1455.3705476839095
-474.0986868934706
488.73616326320916
1472.301294023171
-1601.1179700409994
-531.3827535156161
517.2288389354944
1587.2026870660484
-1634.4861539667472
-534.6407728688791
543.8376509929076
1644.6450110785663
-1602.6133167641237
-531.1459697699174
518.9576793797314
1590.2008571904153
-1459.0968333529308
-479.14818599261343
481.95240588858724
1463.2628391254693
-1246.4156941082329
-404.0452414965257
422.29424769058824
1266.7623451156542
-1051.6421179547906
-348.3548012408428
340.44633502094075
1043.8427731413394
-862.8175690188073
-284.6553321555257
281.1851460575126
859.4434779807925
-735.2536812485196
-240.15430929651484
244.13270768383518
739.9204659569077
-721.2789234444499
-235.04977978067473
240.4684576005675
727.4141588285565
-734.2789255608805
-245.76439935830422
230.68164696148597
718.7692098144908
-1017.3780716299079
-332.51076494157314
339.3366043306887
1024.5225910367444
-564.4420253355056
-189.11942911334336
177.91646288707852
552.9745316468179
-553.0734310019761
-184.9383053407073
173.53756480291486
541.1224389001727
-729.6306332815439
-231.0963310394436
256.1625081934035
755.8648742847145
-1003.738489182666
-332.42097965441644
323.82696484029293
995.9041589144617
-1297.6223159972578
-427.847625432536
423.0548873320222
1294.3033369220793
-1633.1899927612394
-536.360050348565
536.5364481844008
1633.9264268055558
-1947.280589941889
-641.5492665758356
635.6232928074896
1941.2302997093648
-2202.6240502512082
-725.2640963671729
720.7829635757953
2199.579023505561
-2353.0854176981375
-773.4411282120273
772.7792096147314
2354.0489881876856
-2416.0613714279607
-790.0778053328395
801.2969911526889
2428.241948135197
-2352.0914183501154
-776.1690654922277
765.5703724361956
2341.566589598544
-2191.3517529349774
-715.2468516286463
729.7269415073097
2207.5744452290237
-1954.1263531027362
-648.005664056167
629.303599588573
1934.7962009403855
-1642.3194260476157
-540.3588983896188
537.3692167364061
1639.4093559756875
-1285.4196255812421
-419.82360362494364
426.8836509855464
1293.824374585878
-982.5550019987859
-321.0991204204038
325.51762939430773
987.9738518525846
-756.5885542656761
-253.87666891980916
236.57693130918778
738.5986903291196
-529.2456789964344
-162.99427839368582
194.58056356851012
562.3791069160216
-587.577976068249
-198.47363511193544
181.83612657501362
569.9285434947815
-299.51473709382117
-96.1667600646615
102.55734097771347
306.6677705049515
-570.8012770246714
-180.2826965264976
202.78439423255622
594.9097590651363
-1047.7453002166003
-350.58928427658975
333.3841596413404
1030.5002442076802
-1596.5858319755644
-524.8217353466898
527.8395764175802
1599.8883102349937
-2164.982128912583
-709.7421263251454
720.135898815468
2175.8477825392038
-2727.2452683839947
-902.3363310806453
890.6419876497239
2715.2539812047035
-3188.994088964537
-1050.6251846663654
1050.5935955280438
3188.9339284971356
-3534.05777737312
-1160.5893636578694
1172.2178344912827
3546.843552012928
-3781.0658913571388
-1249.3390523083508
1238.4013348324224
3769.9236328369007
-3850.0835770629346
-1271.153213929385
1262.9672219557688
3841.7994444062933
-3772.85538479127
-1240.0057170223445
1249.6740929428488
3784.077085832134
-3550.0123108830303
-1171.7942336704582
1165.2770200418308
3543.793618518859
-3179.0784114366397
-1049.1474997503683
1043.6287859585136
3173.368157874793
-2712.538440721575
-888.0896914312616
905.2825678945519
2731.1226018262096
-2171.201316821389
-718.3990629059263
709.0224859328009
2162.187639807351
-1595.0563982147723
-526.4768682685681
523.2400642293505
1592.4648089995608
-1046.389181429753
-343.65511802583933
345.90838163602166
1048.6983783422038
-574.4345665504225
-185.44895126740448
195.28542916080914
584.2720352921169
-323.9970727964537
-110.78041983640287
96.762274732464
308.73279486899264
SCALARS stress22 float
LOOKUP_TABLE default
-483.6031020209193
-582.263971535489
-469.076747028681
-495.83143076114357
518.5916449092329
458.45077271200716
530.9927008450613
474.45564712025225
-384.6562292985618
-566.9204345010221
-837.1583309080452
-1136.1157857365906
-1466.8529551234096
-1787.5426704604179
-2030.3266056068242
-2251.4512569401413
-2411.0188579503447
-2436.7369645386934
-2415.87529229559
-2241.4335887506604
-2046.301726700738
-1761.1904987227172
-1460.6383832935244
-1136.072042234242
-858.2627368997782
-600.0031593590975
-390.8138962108642
-413.0206861272454
-586.5762840341777
-807.4039897993207
-1100.960322637111
-1408.4476805478334
-1687.7055043261498
-1930.3926154486835
-2146.079228721559
-2254.0857510603964
-2314.0325506562367
-2267.679632456042
-2121.3710318272933
-1939.399413115345
-1674.3277749745175
-1371.5245473729447
-1089.1463534287177
-797.6352383333724
-567.6179290516302
-353.80322792736115
-377.9641590270912
-567.0936899452936
-851.9329949591774
-1143.0869017201476
-1480.616551653482
-1771.1777683906257
-2044.0596353374422
-2261.1256407424808
-2421.4767471700907
-2428.1694996422157
-2387.3844237467274
-2285.8352422453463
-2023.777425649576
-1750.4195061139762
-1470.1279621943831
-1160.0741105601192
-840.760652128607
-576.9632441811264
-385.2270636577159
-379.0522333495319
-542.2321230825037
-771.2498244885355
-1072.6729955747724
-1385.0895024035126
-1718.946358744055
-1951.3467692248523
-2145.2696218322963
-2260.5568779762834
-2328.0917826220393
-2264.254232097417
-2134.236713675782
-1926.4537888616323
-1721.3368687964976
-1405.3419643919915
-1120.7083086259663
-826.1821835115552
-542.8832884859294
-371.46213222667575
370.42714527621865
557.2015645410866
825.9252727832645
1168.907315529883
1471.109555825591
1797.231693515554
2067.3827753234655
2265.9860648289323
2397.3069315701723
2448.4613327644765
2377.966272605583
2296.5718466751277
2109.3968868982047
1799.2663288209587
1503.0298148617148
1161.4528734404594
833.8486335240304
533.0420634839684
401.5660944413394
369.1427757702768
540.0723047573119
800.6887657418847
1086.0095292571932
1403.1273405626416
1709.0182978101075
1975.2300122277811
2137.598236406222
2264.5931268986315
2323.5071749053895
2287.0716719441116
2170.3847289197147
1968.1908164266497
1692.8302409364842
1399.0037381243892
1099.9604136613198
774.2123074582778
521.102485786425
391.7659627220128
375.36519645078806
600.0054526871536
852.5923425233923
1140.5737546361051
1481.3043099273928
1793.8948108181357
2083.2439174987376
2272.216274614446
2334.763713565655
2454.070460896939
2395.131663138978
2240.608726424165
2099.4937198441476
1839.2758708782494
1471.836630165577
1126.9378173258156
804.6884069256485
574.2048071362078
362.06937095709145
373.3888362701982
524.7947792578489
797.9251044522971
1120.8471042215824
1424.080515127629
1677.0649832691997
1924.3375951107591
2112.4805876929313
2288.5462386664003
2300.059280084446
2271.541786218062
2156.544689135626
1945.6443308833987
1647.6923583243042
1397.6872908845544
1092.088304584846
821.1033595241606
558.4899118840694
358.65849793329835
-281.65881318598986
-82.2643296122551
116.40325882658362
316.1060491576791
-371.52737805247307
-163.92046982236207
42.39766095019877
249.2441460043192
-267.78209018992493
-68.92879585319315
129.28752502650605
328.67971976634
-299.90965536236763
-106.69791001267731
85.59384773112833
278.7360470443964
-503.7921171374619
-968.5044814683497
-1752.9494943134487
-2657.4505511522293
-3629.6532938126475
-4527.05877661705
-5317.924874346703
-5924.626313930377
-6274.306749043986
-6414.18897870183
-6275.239737438038
-5909.843199335039
-5317.406381992623
-4527.577158823609
-3619.1669370159507
-2662.482128860429
-1752.1434420496225
-978.8001624383032
-535.1956859752536
-989.9944936353713
-960.5152073707432
-1242.073649695143
-1657.1654101926833
-2168.884203709662
-2711.8787829838693
-3237.508709423244
-3646.539611166343
-3898.3995439372957
-4033.7749384958297
-3919.3084788993
-3668.095215940848
-3215.0735551994294
-2728.8602430410683
-2191.9184949956834
-1660.8163308370858
-1248.3334800023586
-943.5335931424052
-989.6495071575046
-1782.657354209572
-1280.8672490548342
-1231.9053888246417
-1242.2538221832365
-1422.6872103475034
-1722.5952454824
-2069.3693916276097
-2392.371904095635
-2611.4352354481816
-2680.3385446388274
-2612.6885457634926
-2383.805755686015
-2060.6509813554585
-1701.7076268941164
-1441.8553155530244
-1258.7569954805076
-1245.5828999467194
-1267.7788328118622
-1793.9392310343683
-2698.6475676745176
-1691.827168930322
-1258.6458372101188
-777.8351581245661
-456.7618780825287
-342.2684302255511
-418.4777412712574
-566.4107763450593
-702.7525276690722
-761.1546729803085
-692.3345858957618
-567.0183456968516
-419.6140632480383
-326.33367315866053
-459.1795984618366
-781.5381546467543
-1268.5729296859354
-1684.2083777878433
-2707.2785612270236
-3705.9159240145236
-2234.3413321655244
-1477.8029627781361
-483.6078287754208
392.61745252646506
1077.037907814607
1398.9563049990684
1446.575932489708
1428.2320226375014
1398.4657339043915
1410.3340195734054
1464.4278367124498
1403.0609223246574
1082.9943048711866
402.52610975690186
-468.640738112852
-1472.953751001507
-2237.2488742601126
-3698.4157724697143
-4627.880222501233
-2789.075376851484
-1785.8594091441482
-374.1201848667115
1038.3679463695735
2455.7738243229687
3460.5972159113735
3908.9336240813136
4044.9190876334906
3992.4396817795932
4046.4571827165782
3905.2979324180633
3463.2956057414412
2456.7706567943096
1053.9807410817593
-385.6500024627894
-1787.600252687931
-2797.578012801707
-4635.037039896473
-5438.314513195306
-3328.579757217318
-2150.746569218114
-495.7604553233832
1317.0735113173723
3420.6837035585195
5551.796748129651
6920.075922248885
7253.334033137187
7532.931905353442
7238.830163966864
6927.589418461546
5566.04078553617
3412.0986869018525
1347.5400801189244
-492.12891215924174
-2169.323429153301
-3346.488352677785
-5422.105791461654
-6040.374997595325
-3758.346860570833
-2478.9481060821563
-665.1138398367912
1386.9785817414522
3855.2591504696757
6861.34394675307
10213.549134599045
11941.739695945755
11318.234443124384
11922.80811320804
10243.487978691235
6880.80635516718
3836.7359737260267
1394.469292908907
-654.6782360225916
-2479.7909092744812
-3757.5058042397723
-6025.62544109486
-6409.50523032248
-4042.134120453149
-2719.028970144689
-810.5432980936021
1345.8634995035827
3944.9705480262637
7142.70296077989
11908.062249092385
17949.9971667137
21808.273129316047
17966.314100619406
11873.566035960801
7168.4290736261755
3945.2324275150895
1339.122248920612
-794.1139072636142
-2691.8085981365293
-4032.796466089785
-6409.279222565703
-6534.781342104077
-4132.166453545913
-2773.518932364881
-868.3277400508523
1294.0143124032766
3908.9978389758617
7474.369642524049
11219.44350023754
21763.06307555549
24641.28451016918
21748.925519886427
11230.211089788005
7446.9873467143625
3906.6247012848035
1301.5420744055882
-878.6143173268065
-2817.1584641830996
-4130.7069978760555
-6531.989063982852
-6405.0851478129625
-4036.387049900368
-2734.3464737720788
-810.7277256380767
1338.3284775912762
3952.135822819546
7156.7694698907435
11873.608899001032
17940.211347643286
21827.02750652563
17960.330212789588
11845.685585184954
7150.564089836553
3951.2754676993936
1344.9683211091906
-806.1243233829737
-2720.0599776543677
-4051.8336790967733
-6381.819910816848
-6061.136260071769
-3764.457259323448
-2473.402123577893
-636.6465969663113
1383.507801162079
3828.8744084145874
6870.864316513762
10213.165266951546
11950.013441918418
11310.298100703396
11941.998685250059
10211.628687544726
6867.697549491189
3867.789242251776
1394.1325950911269
-658.4879230214283
-2503.5863405968994
-3739.502843555063
-6033.354414110072
-5446.547738360241
-3311.461481567472
-2170.370433660224
-483.3670755047351
1334.143261358142
3431.5121280234307
5565.22222786583
6903.220308145508
7259.8484721351415
7540.825653871521
7218.292166571133
6927.296667168848
5564.42369163502
3432.7967882538214
1336.7876455001533
-482.39808709546924
-2157.047170052305
-3348.4715853333473
-5432.573293424211
-4628.570578472689
-2784.9500605035573
-1772.21215938963
-389.82607406005263
1044.0833562724292
2449.8509823028
3466.1051819641143
3897.1528496844694
4024.8467388981953
3995.848939373158
4042.07313980069
3894.356771061197
3471.7499026935548
2460.1617830591276
1042.5714712785557
-378.91691365558654
-1787.6655960129574
-2781.1753793521784
-4646.547686412465
-3686.451943496242
-2237.2499026469886
-1483.6075517702848
-491.8203990776092
407.9798950571567
1055.799944654107
1381.3385755047202
1450.8797780135646
1413.47864496056
1419.4306060317904
1419.433788627386
1481.741735513322
1366.1761399172246
1065.8890306223184
421.0859812842682
-493.35025549912825
-1479.0437732404098
-2234.9402672653086
-3695.3725144816563
-2712.849843511358
-1680.740090917796
-1262.8203127328306
-759.1634604316205
-451.43788882158697
-340.60687870159745
-399.06997600663453
-567.3462549932301
-689.0012678774074
-776.1159074231982
-716.3202616730705
-564.5982476370409
-395.8676705127582
-356.27662282716483
-474.2683291747235
-753.562460005749
-1270.173205908388
-1701.3026265609078
-2714.258407668676
-1792.4932512901723
-1280.517859717831
-1221.0373572148383
-1239.96200109832
-1436.031579958275
-1733.4269320704043
-2068.5489273890853
-2395.326852934435
-2626.4083368247375
-2688.2653555311263
-2629.8748575719073
-2398.005735282786
-2054.7202480826527
-1733.2799699553289
-1434.613303909544
-1242.157628542278
-1239.4311336241663
-1275.0220617193263
-1771.8191287333611
-976.7005066797137
-948.8762750830501
-1244.6677788104862
-1681.9543402846903
-2164.9934206977487
-2721.4058786090463
-3240.059696645476
-3663.566319352947
-3914.554189133458
-4023.911059242673
-3910.54403597489
-3650.8103078659624
-3247.5654240353033
-2736.0549542196095
-2148.5225306139328
-1650.5293205548078
-1276.898704757914
-922.320037957048
-1014.53290535626
-517.0062203314155
-971.4184123892337
-1751.6472890432924
-2671.4238379951566
-3619.971401769668
-4550.068163197488
-5323.639878312126
-5902.262421914376
-6307.959588850848
-6424.011291964911
-6300.150294514373
-5923.535318514332
-5305.119563553482
-4534.051729409024
-3623.722512521781
-2666.389115229249
-1755.9744582660496
-974.3139214308467
-552.5721153341001
513.4569243248552
968.6731669250876
1740.6947911642492
2663.049354976043
3629.7640635296702
4521.326489806175
5305.029738808051
5923.216092407703
6293.808076314628
6428.959761241451
6280.133433522657
5926.800327384844
5317.27365639247
4534.14719741419
3615.3989786058664
2669.2970571294427
1757.1833479776978
986.0724504105747
525.5781048294157
980.9198037944734
961.8209027908742
1241.8063988648355
1664.2215051297098
2168.0887942109257
2727.0586624480784
3235.214611986652
3654.8781812321395
3906.686055364087
4020.6555184405297
3930.7373248934746
3668.328936289996
3230.814880369231
2722.592605257407
2196.0433867592365
1663.7285013385117
1244.7634331081063
946.7741209492087
1012.1899866051972
1791.4038905519992
1267.9590177573264
1237.0772572942078
1256.3634486142546
1432.4604160264134
1706.6997571792454
2074.0231085624546
2393.9562224764377
2633.4993318822235
2684.022581640631
2616.0045835487545
2389.2551541943103
2075.256832152605
1709.4115007761866
1446.4435283336788
1262.2739201039076
1238.9185993745923
1283.1329778637737
1795.3731331042945
2711.83956714347
1725.8963111694902
1247.867419904098
769.426787558943
464.87155490368605
352.1765207182616
408.6271113678813
582.0658373404294
709.4215892441571
752.1527769174427
696.3671988975257
550.6723736170679
413.9585798420012
327.0762789994478
460.66159781627357
752.9902902320027
1266.9001989737153
1686.2187153473496
2700.483810501173
3685.1286253482103
2221.4610841162503
1456.632584668696
474.9326241835952
-385.004853926599
-1075.2762827724218
-1384.2213894762099
-1476.8080489654094
-1415.7312623579055
-1409.7882975265384
-1423.1763114593923
-1458.6102566868067
-1387.8632906526327
-1060.6855614352971
-412.6859160065651
488.0620895307511
1480.566345365718
2244.0558414626867
3706.1694971639663
4645.806130290031
2790.971581686288
1775.3731972556561
390.72590610943735
-1025.9207509551197
-2452.9166633225977
-3460.318292265758
-3925.5326791517437
-4047.968052504584
-3987.3073892053217
-4050.4401611257344
-3897.2950617298484
-3459.3124801926315
-2462.5490482598543
-1065.5096711535007
388.7386928256601
1778.66312488541
2800.395278584212
4614.982990166172
5442.251123268157
3329.367057353258
2166.0250773970038
495.358213191852
-1331.6571591086686
-3409.6075819227844
-5553.7753336541355
-6890.940817158669
-7249.410183124244
-7530.208663981408
-7255.299859637395
-6926.420461507514
-5557.460324099287
-3435.740408409387
-1335.3137147165835
484.76383619662374
2165.136237449944
3333.1407362613827
5436.139871885069
6032.581986332312
3753.765754379332
2489.3552128579468
662.644103480503
-1383.550565097481
-3838.8255795054138
-6865.673327667639
-10231.26162118651
-11932.184086365625
-11309.781674651429
-11931.332764547318
-10238.769646149129
-6878.385454347357
-3830.8238057615235
-1386.2181992679834
660.9207334183156
2491.1605723965913
3760.3935802979395
6028.364284384996
6414.399633862078
4037.197430919856
2724.357364423573
808.4213516451418
-1325.4143961463124
-3936.789035493508
-7152.022012298927
-11888.746643180028
-17957.22212108597
-21812.40185582079
-17925.85234395601
-11872.208090044558
-7152.950381553732
-3943.1603806894273
-1340.0773194832727
798.0296427179128
2714.379454127513
4050.081944926642
6403.786819499917
6548.141873409972
4151.67373817414
2780.121935259551
895.7922818455845
-1322.9022243004292
-3917.5087060462683
-7451.107737818733
-11220.86728415452
-21778.679990185425
-24680.712287081406
-21766.911534151994
-11217.176084687002
-7433.742585355416
-3909.3571197967976
-1308.1341980518773
874.6783881010488
2819.734186847694
4144.360997252166
6526.075401280075
6415.383473785594
4041.795530576259
2717.284046702087
812.9975849296898
-1332.263214616105
-3949.939078493044
-7162.967538448051
-11875.050279643387
-17938.230858923867
-21801.774906514212
-17937.33984369319
-11891.25854773447
-7128.432981905527
-3951.0575372269377
-1358.4765907321125
815.9152138251811
2717.536912638694
4043.9144066357985
6420.704073940404
6037.615789717063
3771.738098213449
2484.2231543138623
640.7853263113648
-1381.514721058309
-3835.424616282806
-6885.3824209570885
-10218.196211263537
-11937.99135930743
-11312.423156881705
-11942.019105153158
-10209.745200910605
-6867.607358659618
-3840.4685070766136
-1377.5813874192536
648.0296965455636
2516.4335338538513
3758.530968814157
6034.042626703158
5429.960117708892
3333.5392571389675
2178.6303058713675
488.92785440571606
-1341.4413438476622
-3439.6341186203063
-5547.986955372617
-6925.503755018115
-7230.468646777794
-7543.101433672942
-7213.1786236343905
-6925.414351778105
-5558.447117909789
-3442.670899955556
-1326.584994269535
472.4916448984295
2164.3024388942868
3328.336495196447
5417.7372656315565
4627.127521913499
2787.9427945334464
1779.6265497077256
385.8812087159604
-1009.9785905890167
-2448.3585733976215
-3463.630500793457
-3887.3773044496775
-4034.099624973722
-3978.161284931004
-4048.666785856709
-3891.6492801001295
-3471.142339743674
-2444.8676775181666
-1040.436599493958
395.1672082776204
1768.4414453096688
2786.4414000422694
4652.3358719008975
3695.349944859743
2222.7972848266363
1483.3951487671584
475.14760673977435
-413.3833529371768
-1065.2951060682535
-1381.5113331973553
-1466.5892760138959
-1422.8791426597163
-1408.4095160793513
-1410.972281220369
-1493.419868849218
-1392.031578538008
-1052.7222317494452
-406.6588393403217
474.46463602175936
1484.632049843669
2226.8982146629132
3715.6649185898714
2715.8603978995234
1706.7117452584207
1262.0861273165792
764.4005184117705
447.3628037478775
348.8085861708969
408.9863517517224
577.2264977004379
705.7420405494049
767.0154707022011
720.3619402367622
562.8650154452771
424.51902310550213
341.5671407384798
467.2360419956967
771.602322882507
1267.5608961940743
1689.3966321772896
2705.430929453578
1779.1033401470631
1246.4355584271252
1228.0784241221845
1246.6177757065743
1451.818710733205
1731.1958316490054
2070.3398599941283
2416.979982807301
2613.1693988051265
2700.5479276226833
2617.2344534043223
2405.0693763419986
2079.324521820061
1725.7604990447871
1431.439088714309
1248.129804876633
1246.963495159056
1258.62517838669
1779.5277211118955
964.7518342398107
935.860303428024
1273.2139452900738
1675.6577896289527
2164.6418815776706
2723.3685095719993
3233.899670958519
3663.5095339445397
3918.8896175064147
4038.1584542226046
3900.3313099658117
3670.586976921186
3227.105768482201
2733.3576756161638
2159.5567158577032
1657.894619927276
1257.5347933161538
958.4484733010177
994.8015999207273
525.6926644816995
998.7285671941936
1734.4133376814425
2675.3614497557282
3631.806764855981
4537.543401660398
5323.613212010823
5917.408064426854
6296.517511818558
6415.6851990465075
6314.529378231615
5917.9979799780995
5299.100694406778
4555.41767018754
3615.4552121232264
2665.059329037089
1758.3365816688165
984.1286799255759
534.8296610737452
-230.06553694605827
-80.69244757667184
66.88455832749605
216.12699314951897
-336.7362586669624
-114.44616490788758
105.13669883273542
327.2965134419501
-496.63364111445844
-167.86477772705257
156.88871796242893
485.58040737360716
-664.9537320546806
-209.75949347764254
240.2637276723981
696.2448913920671
-865.2348224371672
-284.71676916629076
288.66605388745666
869.3050651084632
-1053.6535447128117
-345.4320080168545
354.15824345499277
1062.7032479792833
-1191.7339733671397
-382.49485719949007
417.03611814789474
1227.1379663869739
-1326.0309326704592
-433.4540775306523
447.9610218703747
1340.5546342208982
-1425.860233278945
-475.683666145429
462.54215365462005
1412.5485266335309
-1436.6204728111625
-471.67232343554497
481.5254281181842
1447.114520439878
-1433.4171660989523
-486.00222122110426
449.33652248978615
1396.3464180603623
-1312.9099148679525
-416.8132369052619
468.61981621198356
1365.846440905705
-1195.9537535049021
-375.1661355290562
435.84512802772224
1257.457406129688
-1032.1782520338893
-328.77859161794186
366.004517249763
1069.7000855561346
-854.6391990426928
-269.3920476641506
309.10072237998247
895.2673313189298
-666.0615922119468
-212.1716512106359
236.36934339255095
690.6685655098408
-511.59484229050577
-176.88953659310937
153.6362366322428
487.9574779961258
-366.9738111831248
-142.35980876907706
79.00503834336996
302.4077498149127
-229.37210687063634
-72.95372687838972
81.99051249027252
239.00029013864696
-252.61211406439543
-97.74782117083669
55.12627178430557
209.5810924526304
-355.381169853732
-132.4501977134496
87.53673046454787
309.9503986071795
-477.91258771903813
-160.20151536352932
153.49114034883678
471.20571118593216
-652.1769296955317
-220.0248984694481
206.3382434360683
638.0767687205225
-831.3705066535622
-275.8511963933706
272.16208424791694
827.1458197329193
-991.1819072626531
-320.5276619568467
341.3681022506207
1012.1889086160809
-1129.8411422912031
-358.9683882603422
402.0004318971187
1173.5014426074922
-1267.2538156621158
-421.46451143734157
413.081380601041
1258.8385604899377
-1326.9339363062754
-434.79326655715704
445.42863161023706
1337.5437766350806
-1362.6582746170461
-447.01959093939513
456.47045732382685
1372.1278975540772
-1333.9786324929446
-435.03847837168723
452.31306517869234
1351.9751662313938
-1241.8008914794773
-394.87270253058523
441.2421279344708
1289.072544677183
-1138.2977181784809
-366.91162464302033
394.49592315685004
1166.2957180012017
-984.191078749951
-319.59710971219465
336.48253834433854
1001.6264462205581
-803.6604726654477
-256.79911391204223
283.0772088980302
830.3584973923862
-640.7801188821904
-208.57944987062365
218.2428248655051
650.8401517230086
-475.1680326133501
-164.53772255126387
141.99256184324622
452.34833918255754
-343.62705832510255
-127.98081531445496
84.51577482232824
299.14201148203574
-201.89297539973632
-54.847521095653065
90.78926776169101
238.52808508946327
-223.504723321239
-74.40826497232774
72.77455519587966
221.56040893524187
-328.7334623718634
-98.16436481243
129.89971615117975
360.88002622057684
-503.1413999097422
-166.16847546421923
166.8044419104699
503.8109915680252
-675.1414880808443
-223.67136808438227
222.10765381809324
673.2797417677939
-873.7562161232345
-288.2806393583305
289.8494367697276
875.0575799341314
-1041.1145844673738
-336.77264724718407
358.8979864581488
1063.4546139780432
-1199.1610282678157
-383.8497144225985
421.56676972284913
1237.3806804083288
-1332.8083587205037
-437.1992951333523
447.3815374150872
1343.2913996689022
-1445.6335753826424
-505.18012548517436
422.74819072522223
1361.7546847322956
-1428.8161159856245
-464.5169279659167
488.112008090131
1453.1830494208261
-1408.1255805967376
-463.4080883897841
469.72284134756774
1414.9243190232664
-1357.7619773708284
-462.9389800662175
420.28651998750865
1314.2500759828836
-1180.643075988628
-366.6034541046247
438.0206737043336
1253.5138204442337
-1016.8772140406072
-308.3605257794261
392.21288342401385
1102.4245850536972
-867.8092016447335
-286.51948862709105
287.67864199355245
869.1551218032837
-691.2848771363497
-239.0383938252926
207.43002698756754
659.1627064868808
-503.58931703679264
-178.26201950013638
142.97481690347195
468.0535606164485
-341.7219364605844
-114.26354612223804
110.65694087557495
338.39924518577754
-231.9674719143659
-84.05663846060634
61.955519530922174
209.5280057899654
-225.0237240176648
-76.22124442644417
70.80423977412283
219.54098272696137
-323.59234830364585
-112.76261063292623
95.4329265076667
306.2467741277069
-450.1653856188059
-140.48343320004642
165.5234111994505
475.769298998639
-623.7974383737892
-190.93800893053412
236.76405351795256
670.4300271291286
-809.8691638167948
-255.5123711246997
292.04015495814383
847.247343217954
-1021.8158963713795
-350.8932437039912
310.9082844275981
981.207463607192
-1156.233544509858
-390.97342496179044
364.10964538529515
1129.3297138977796
-1271.6891560517251
-431.0627617165446
398.3450593240559
1238.9553995858878
-1328.3992642126977
-430.75209951773286
455.5171753950417
1354.2536948602647
-1378.290252506733
-464.351260073483
437.27471341751516
1350.8865927793086
-1334.142116330564
-438.81846615485847
444.82265216484666
1340.5803698878735
-1254.421733347699
-407.45511997677386
428.49784685112536
1275.9071417357773
-1132.6130808424205
-368.39296317473054
385.9461535848677
1150.7304636202753
-1029.3933765795082
-363.72220235317945
292.72307441197336
957.5103263389319
-830.537702197209
-276.98730309307575
269.338233159855
822.9060992076993
-666.7230295054615
-229.4334517493844
202.07074484974146
638.9489613361657
-488.6626758649945
-163.11032802052796
158.34806269221008
483.8080503139645
-317.62733024545014
-100.12288971990347
114.87713733315468
332.6707790326327
-221.68265407532454
-77.17945236712694
65.45359811931849
209.61477321386337
-290.802700323984
-92.07557077147067
101.760548369959
300.4913167040795
-565.0756307784468
-185.5276360847056
185.81057015061378
565.3200286161155
-1028.1950620636344
-341.8967023342848
331.0070210210979
1016.8558543398976
-1556.241352217272
-510.67309531755745
515.7884529884905
1561.5481230691075
-2128.3325068037957
-701.1321223452687
700.5729908943176
2128.009319201112
-2655.461349081248
-875.9754604194313
871.5670629236847
2650.630003122613
-3120.8323494736105
-1031.4906895793974
1020.4469695668668
3109.1601763404906
-3475.51751152426
-1145.7706230022013
1142.9256785102189
3473.1575887892395
-3677.4735806696117
-1206.7623256426305
1220.977769235149
3693.4670085776597
-3760.15070386976
-1235.1366061326116
1245.7885277662426
3772.1943366210908
-3680.553984962404
-1212.1674177721143
1213.0534759704024
3682.780904043466
-3463.964599005878
-1136.903320465237
1149.6035732682794
3478.1016736943275
-3118.954498009756
-1027.7740529030561
1026.4894338864833
3118.061594152823
-2653.775140121579
-871.9195621907711
878.2103445567191
2660.1650879886
-2122.835202516988
-700.5554401259869
696.2276073414832
2118.6986156776547
-1559.4644994158298
-511.87513946555555
516.7977819573134
1565.0303355678916
-1025.1778394784778
-336.23065029270947
339.77977214567363
1029.241557918489
-570.3226280715317
-185.5315129123628
191.29214438423514
576.6012378986925
-312.7479948364198
-105.1722752507776
97.12318781763315
304.1684882361442
-580.0152336303145
-193.8357136566192
184.241298886016
570.6092887688428
-557.7016690373421
-182.4378031976521
183.4521798081696
558.8369877096266
-722.2993934694678
-236.89928192272782
236.71698583476245
722.1062434259802
-963.495633488521
-314.31880613043904
319.76457443088293
969.4992222562432
-1263.1144440732896
-414.586569653824
414.24109961465
1262.6322428341955
-1577.2830391675234
-512.9425740912557
527.3473152779043
1591.9557296913117
-1887.6850777454674
-620.6823789328337
617.9078030530363
1885.0762004796416
-2125.3556855600327
-696.5480276551098
700.9506443906575
2131.0831820052117
-2272.021829649806
-744.5279677398503
749.351521262899
2278.0085453242064
-2354.6814109012485
-777.6176729183644
764.3958929087967
2341.4958000853658
-2283.6782240197062
-747.2297848146409
755.4924046713859
2293.0149356126785
-2138.9689901955426
-702.8136303815991
701.5644831992686
2138.216863486916
-1871.597271528095
-610.3930749874562
622.905468320474
1885.1973176877946
-1591.4648546241224
-524.5509856175631
518.1525016389787
1585.1046228706837
-1275.9793575443327
-417.4748058784753
421.3511367607862
1279.9482473060489
-966.1500644888729
-316.24999965541065
318.38441202789545
968.5723929349333
-726.6033252906054
-239.41506879404187
235.9480709321797
723.1168255582452
-547.2226335704327
-178.37192567437887
181.1540911141783
550.1765817627311
-574.6207633111626
-182.99603163264692
201.09716460481286
594.2265759389848
-1043.0646052844822
-341.32195342332125
347.65000383742154
1050.2157840579748
-747.6003448851407
-249.04002022370696
237.4566444400698
735.5726815499365
-716.7974266353995
-233.73927805945277
238.384475171566
721.6313894744962
-722.0312879662961
-233.7264128550887
244.04387960769236
733.6329876706004
-828.4857601672411
-269.82407286949456
276.9336190856993
836.4965466652066
-1007.9760566689074
-335.739251261577
321.722916636616
993.3306507039815
-1208.038454061374
-396.0682689882815
399.0900808647275
1211.6044724527746
-1398.5836027245969
-460.8056392930448
458.16363970562816
1397.355291435495
-1523.1415557935834
-495.595562197268
511.69548650085926
1541.2344640549272
-1565.6994387786835
-514.1252583190799
515.9371083080769
1568.131637237966
-1526.558627769351
-501.669509280473
502.4271163959056
1528.171916052699
-1392.1452219188213
-456.7314092759043
459.6151108853519
1395.893948096782
-1201.4762818869203
-391.3243896532804
402.3552508018911
1213.7075723279268
-992.7928769756109
-325.1799709703773
328.6962970495224
997.717551663518
-841.0197174996138
-275.9201335068792
277.2797629740089
843.481882840395
-732.9073613788933
-239.68535770103335
242.42621210590005
735.9201325178146
-726.3614964708686
-239.78776591084898
235.3480546362698
721.1883721593767
-735.0572266001254
-236.61441281624138
250.28473996184766
749.3088813051581
-1051.1706064213067
-346.3945946637541
345.5748839545995
1051.1274510603398
-1580.604642663151
-517.4871872216463
527.0992359109223
1591.4327008910477
-980.6301243491471
-313.0837243255228
340.2555267829448
1010.1346800532192
-735.6769826859236
-245.08179737441242
234.4006762970239
724.9802705664188
-453.97028171643615
-151.55144491419196
143.47811910696328
445.79530478455126
-264.3724966198206
-84.89119732007384
90.43516021221876
270.7845997624099
-198.02686073072255
-62.873725136741996
69.5094647500664
205.76518508419394
-246.4017839357257
-84.37190956436098
74.22140541672707
236.34001472592354
-329.35695048607886
-104.52405386790633
116.49336925521493
342.55737585760653
-411.17151750810444
-134.43475231155753
137.55957510508597
415.4789611585438
-447.33571726456285
-150.06138296611607
141.44624924100935
438.58072344586253
-404.80737816914916
-132.30612074397504
135.13471648283303
408.0280891470611
-334.6365732010454
-115.05542243272066
99.9600290209055
319.112028837204
-246.10894100554287
-82.69715236872435
77.20970225706697
240.56029178760946
-189.46359345316887
-61.929490093141794
62.412664741277695
190.0218252260238
-266.5275892801583
-87.06862223893404
87.93927450478077
267.60542203485966
-459.5715210661292
-159.36235925927758
133.13304607197642
432.56594646535814
-739.8822693098336
-243.6098689213395
241.5821449328214
737.9793454203755
-980.9246305581182
-321.90319829806685
322.12672726251185
981.7564182393253
-1588.3247782737017
-525.0008908566087
519.0627965498716
1582.1172530911863
-2177.096016354859
-722.8687894195318
705.2576917614788
2158.4185803923756
-1304.1353790014982
-431.4402466788888
421.21624198555946
1293.0293848961592
-866.1197392195463
-290.7216569762677
271.9485701043159
846.544481402263
-282.7495157532394
-95.28694780915976
87.47201034426689
274.63856591284275
231.21437829360366
78.17451198399067
-71.84404344297945
-224.46185300312936
629.2321660891175
206.9880397208035
-206.35519310086966
-628.2295464258641
817.9184674639255
272.4439626298845
-260.51628475263715
-805.0552945528179
836.7778068073094
265.36577310040593
-293.1729236263782
-865.4161665420979
832.15516413562
275.87222524918616
-266.4507500678301
-821.715048186481
811.4037588499486
263.016054732725
-272.3569644819945
-821.4250072315335
818.0716404151171
264.70899431593716
-275.5637536998838
-829.6079295743257
853.3992299828678
281.41713775508106
-277.0337912067771
-848.5450614280999
820.9047049172223
274.18688832223415
-260.2371350303292
-806.5494715552777
636.4748236499727
215.8061954509467
-195.72739769890904
-615.647752225399
234.10780127719045
74.00466018170118
-83.33327550813556
-243.71506948024035
-269.85588224232197
-83.63592116348445
98.77822346612811
286.43848607316613
-858.949863826856
-280.62039582803845
285.74074849300086
864.9217090271413
-1303.7527428418398
-426.96992103755474
430.69103081151843
1308.5317276809365
-2168.8949842639267
-713.0071230325848
717.8161187004298
2174.7103176694363
-2712.4401117675006
-888.6013178918511
903.9071856252849
2728.6414892934263
-1626.0605519413948
-533.3406054284424
535.247653702274
1627.9728025011718
-1045.3837981205434
-347.01429065316916
336.8380006644875
1035.1060351654887
-216.1535447780043
-67.05821162089705
79.4645392652601
229.97636680677533
607.6243334878236
202.55426001548767
-193.34134699217975
-597.3290938660502
1434.0535208806396
471.723846366629
-470.05779799446464
-1431.9962589014322
2018.9374298062176
662.866308696568
-663.6824216023088
-2019.3965157847852
2275.4835109394044
741.7435541767627
-757.8447612021118
-2291.767380328849
2355.6313648186624
771.7530505768955
-775.8510290216655
-2359.389963036403
2325.5931266564876
764.8370981998742
-759.5527793373913
-2320.3708383906633
2356.7008310947567
772.1800555624068
-776.2354703713208
-2360.7453600596637
2277.347767971456
749.4913756996393
-743.7557861413807
-2270.8655337281525
2021.6817643940449
665.5135668832809
-661.3116464335471
-2017.5636395327747
1433.6109834089875
469.6629561763257
-474.1029655225575
-1438.514079771936
613.2159755993634
197.95464723929763
-208.62786460109055
-624.1824169401079
-224.36440554447472
-72.59189369343221
75.89446185342968
227.59766918979585
-1045.555982787162
-345.95173693820834
338.84268889017403
1037.8347905222327
-1631.4483804497868
-535.4864575043321
536.5520583633333
1633.104553911835
-2723.7854171954095
-904.3367008902133
883.5083920937032
2703.215796491131
-3190.9871204458177
-1050.861524535343
1052.4965193755925
3193.4005262218416
-1942.0918535888195
-638.2026019655168
637.4664535969496
1941.86980740726
-1255.2569731790572
-408.90699380263686
420.8989944886416
1268.3536521494389
-291.7231894489378
-97.35552363470197
94.00408928096294
289.35057001002133
763.8341048788279
245.68835018016398
-260.41139674931765
-778.5229616742581
1996.8047767467797
658.6038991864771
-649.9028011970222
-1987.3122272510082
3239.7728707809
1063.3498658388853
-1066.3562041968107
-3242.4484057407826
4041.3271729964763
1335.0454050898552
-1311.3857489787042
-4015.841337118298
4226.980667652562
1387.7665367070585
-1386.8699377216399
-4225.083252467215
4392.623016791418
1443.2302795741707
-1440.606918413192
-4389.984046790749
4215.751930186525
1379.0189609378576
-1393.9274565167725
-4231.196816120297
4041.272206025198
1327.0819787029177
-1327.761542737484
-4041.347664291039
3249.8673822693527
1069.6978332418948
-1063.480762919411
-3242.8760068826377
1985.6238650530577
644.494380377233
-667.4096819870174
-2008.7956162896007
786.3846995867789
261.07449189201
-251.62853660434484
-776.0138284992427
-289.5954286372289
-97.27901128586382
91.35266616847366
283.18079372216016
-1269.1154264565557
-418.7091995822266
414.54911143891513
1264.9427446071059
-1954.8907963233069
-646.3957185260952
633.4869166314602
1941.8307168716565
-3179.8872442133725
-1044.4561520647258
1054.5403178595006
3191.311278693378
-3545.234454046935
-1169.80018568784
1164.052488669753
3538.8090367671102
-2194.1091007590294
-722.6325163263828
717.077463246882
2188.8831568267196
-1448.7512852642685
-474.48942295461893
480.9469037912786
1456.5345632433891
-391.06501426920295
-129.77695155143738
127.11944660358131
388.4640829600394
806.2775994744152
264.75415633805096
-263.1375652886927
-804.0666678193957
2248.1150756441057
741.5532781779766
-729.9474333934486
-2234.9000799693167
4000.8436560649425
1312.0778068825603
-1317.568656982854
-4005.958331681788
5960.054730167612
1953.3340939227492
-1968.8120898958296
-5976.3032757323235
6968.819529572502
2291.3702239245176
-2284.2751499991864
-6960.9117268919945
6589.290960110724
2163.148081280291
-2158.6617465224117
-6583.4920132588595
6954.335874224082
2280.953982239589
-2290.8793921452016
-6963.810011582449
5981.153585776687
1966.3627059049904
-1963.1626275535673
-5977.456513214856
4013.398892264813
1318.1224134638906
-1317.7877692990005
-4012.3804166540504
2235.369292688556
734.2915465068072
-731.96420946531
-2231.8483147080988
811.1274545723572
267.3093713056296
-262.5686468780041
-805.2162882452831
-384.13552406895906
-125.7199581656605
128.83405841700733
388.2825500611216
-1448.6803358523175
-473.69899130798876
482.2707600835711
1458.1986970119178
-2192.6721625244245
-720.3361544804648
720.515606363304
2193.766137749888
-3535.6794772241265
-1164.6270782500505
1165.5736698843539
3537.2363947387785
-3760.375563647598
-1237.8329316508025
1241.1883685812354
3764.247516958043
-2359.955427320674
-777.2150040622801
771.4416295457631
2354.4531068149954
-1590.2451668903232
-522.5150115676224
524.5616750437766
1593.3909702580422
-476.7046477496624
-158.18121144920588
155.1274118553847
473.9509170372039
784.087364019826
262.23690683580935
-245.5234354417771
-766.1238951738924
2296.7906424440444
754.5132602676749
-750.9273366630077
-2291.676434095949
4158.549448655918
1361.1743874978274
-1371.9336069971323
-4168.842215234414
6950.044531608
2287.899704489857
-2272.173042483628
-6933.125598501414
10485.630794709548
3444.046675529331
-3451.9930091053247
-10493.355130573735
12758.301486305892
4195.406947741285
-4199.699394471943
-12762.557948153466
10503.276653354988
3463.644232591614
-3429.5862354673445
-10467.080469500273
6926.864058430307
2275.2995047969744
-2274.763771640137
-6926.066256952472
4178.134177040309
1375.1239954819903
-1363.2015763083473
-4165.026300792582
2296.5244742231444
753.3282573567703
-753.4292884971946
-2295.9045324455947
776.3312223814428
253.27254782803357
-256.00093276426196
-778.4811289068311
-466.47360253706574
-153.59144597686827
154.51125202700496
468.38772201072425
-1571.498696909286
-511.620484395884
528.1319078207016
1590.0343445464969
-2351.3480251654983
-768.5845337882638
780.8283086065203
2365.2932644011453
-3762.532969704829
-1242.1685056127608
1234.7679469510913
3755.771794691682
-3833.6561302021146
-1260.9083932284266
1268.1665954533964
3842.9664958566427
-2408.9831583779305
-786.8283707816154
801.1671930719167
2425.056963954121
-1621.3151583261788
-531.8599604777992
536.2306002806872
1626.4287723600864
-506.64198784157634
-160.4566912036389
181.1139236241579
529.5748341102153
744.9619203414768
234.79489091970026
-262.2367784846574
-772.904562516138
2272.3959048930556
742.2678163163364
-751.298060266301
-2281.2682045027614
4360.105176405981
1437.746999334544
-1418.3098808713257
-4339.400598140433
6527.94620058313
2139.4612827561796
-2144.637086030096
-6531.8748346455395
12729.833652919158
4183.261833690107
-4196.003465857357
-12743.563511339948
14402.246376432478
4721.437494656071
-4766.494223881513
-14445.421687180176
12721.194090212695
4179.83319542557
-4194.394272590987
-12736.92852813378
6536.974107149057
2146.8532778685912
-2138.7099560592324
-6527.199384287931
4341.823576673865
1428.3105347789824
-1418.9742461265996
-4331.191805345938
2271.5932461759076
743.2889941483736
-748.176318093203
-2275.7702921638265
753.1002226695418
243.98182204086334
-251.57396417669952
-760.3731282157823
-517.3864039396867
-172.48167690075934
166.95782914105803
512.3873385414481
-1648.353502418846
-542.5940239606425
541.8350985459983
1648.705591948703
-2409.1281781839207
-788.6490329066291
797.614534959197
2419.671045165509
-3834.8934137988836
-1266.5208182511851
1257.726515442133
3827.071890783496
-3757.0387072488666
-1235.3773765340447
1242.9421226587147
3765.536532180384
-2354.7595856525004
-772.3588610906154
776.1097981221974
2359.0621201582253
-1601.976259348914
-531.6076409239322
517.1266736239195
1586.6224472206086
-476.9254687000066
-157.8949346654117
156.4339233133942
476.7112071085721
777.1986008100212
255.79921762645245
-251.77496812306345
-772.5046827699989
2300.676355132833
754.779156902805
-754.669791828841
-2299.8760143890977
4167.572260351852
1365.28079957515
-1372.7304121796042
-4174.621010014787
6926.731352839619
2274.7737944051623
-2275.891939982772
-6927.983947398141
10481.138684015721
3444.9075341206044
-3445.5488423686475
-10480.915153481066
12774.412148705684
4209.42821157258
-4187.251133652404
-12751.221313642338
10497.462417288683
3457.482805404812
-3436.746056537144
-10475.981789490208
6903.029990032315
2254.2916754996404
-2294.097453083843
-6944.797002522275
4168.098475556821
1373.0279339617118
-1357.0411126315594
-4150.062922373414
2299.381809811108
753.256033741869
-756.2346557509154
-2301.3005759203807
777.5904393047094
249.8687790967524
-264.18524797447026
-791.6481367228553
-471.72361422982067
-152.5943302353844
161.37349747493863
480.8352908482775
-1591.366490226239
-524.2926211329177
521.5722800474614
1588.6984357936308
-2367.3216432426125
-781.8135244250298
770.0853717457503
2356.8735545529053
-3739.326222270727
-1222.117473772727
1252.7562915151939
3772.7554499022663
-3560.8055571466684
-1180.362017929554
1158.4972070865333
3538.3762646447867
-2195.5569881703705
-719.4126239828765
725.0349424164742
2201.7372655887157
-1444.6373546384275
-472.10596920736134
481.2624639403075
1454.3492153491825
-373.6530169546604
-122.68259659036994
124.39760231971741
376.16929904930294
803.6671060044318
263.17841792851686
-263.56582734175026
-803.2709706705064
2229.0592611860484
729.0840089637786
-736.5263356585056
-2236.213080946356
4004.91071979329
1310.6422832217067
-1324.6919255573303
-4019.1333549022675
5962.129848251119
1957.9283482320607
-1961.5673629418015
-5966.252346420661
6973.952507568523
2293.4945609932765
-2285.003077795729
-6964.292268084362
6582.893143204041
2158.037841917947
-2162.7166436174884
-6586.735847762786
6967.632406488992
2288.3734387382865
-2289.3679314311594
-6968.310822761618
5962.471296129748
1960.0790683580562
-1957.5583248501644
-5960.18210347835
4004.6842126902193
1313.8939651064575
-1317.3326606992632
-4006.948616590351
2257.2862399565056
747.7631317544729
-726.4382598521188
-2233.959148888476
812.4554254775867
270.350759758614
-257.75993198994547
-798.544259683229
-388.30422425456345
-130.97869503311813
121.76567519083619
378.664047928527
-1462.5144926765934
-477.84019520971924
487.748284089379
1473.4049406414852
-2179.52206279058
-711.5899897050112
725.2786795599386
2195.003629372455
-3540.7835681606084
-1167.1480035847053
1165.661667155102
3540.03354379721
-3198.534898845479
-1058.4995881337672
1044.0260907877237
3183.3572744205594
-1928.1691244728863
-627.1289963964373
646.0128032043576
1948.1351382732391
-1268.1093528140336
-415.21869701333344
420.95451835915446
1274.6886660512537
-282.6718705929816
-91.79584259539843
95.86090194247663
287.23440707474947
774.692310070619
250.87248059920967
-260.4649934656918
-783.5171148274094
1999.3524231370538
653.0784514024854
-663.4401146452874
-2008.9744824264199
3250.9153254237026
1072.6312710177153
-1058.5634546708316
-3235.7980883140117
4023.253453630954
1314.6656015627086
-1335.2439364604652
-4044.422069715336
4235.440579952672
1398.3652485553175
-1373.8727046111599
-4209.320909093134
4395.998819200322
1442.2471034415066
-1445.76236804761
-4399.112464488484
4206.559137010016
1381.5219459719956
-1379.1277671921998
-4203.262970478274
4041.5037469724193
1327.5880489284173
-1327.121939111501
-4040.5742365196347
3248.543453840539
1068.5964265977964
-1064.4335610521957
-3243.7800854556262
1999.9776654550806
653.0469923578203
-664.2305553629994
-2010.7311991704628
779.4387685153633
257.870984878391
-251.04687749780715
-771.4871799871325
-284.7705567628145
-97.06759239640087
87.19322478212416
274.8808188615367
-1260.663805901073
-413.3953411038965
417.35471216216683
1265.7347534298897
-1957.421732582152
-649.4162227846682
629.9869595030323
1937.749581957236
-3190.0616184640676
-1055.2852776944637
1042.1098538897932
3176.3390910234302
-2715.6864870954305
-894.844549274072
894.1546530742198
2714.7666632365435
-1623.5443748999387
-532.2967275157571
534.8948315437883
1626.2845799122006
-1034.804191879928
-338.9017631690949
343.09123858064413
1040.0815534330904
-228.66966377012432
-76.90638091787696
71.7630211841315
223.918175207451
614.3597855884582
210.85136954672635
-182.9575988482684
-584.3834172096103
1429.755948960781
469.2534196265042
-470.4524055030197
-1430.0607973337173
2022.3993516750634
664.3685173951089
-663.9941165819764
-2021.3332005925477
2272.6180030209944
748.1227254150435
-741.664569706656
-2265.0585697079077
2342.708230528049
765.5870625562966
-775.4374147094786
-2352.3748393943533
2328.7479273164645
768.3461184836924
-754.9848549002782
-2313.943971108645
2353.4174302658066
770.0261743115261
-777.196357794106
-2360.414013860747
2269.913128586486
745.4166658651084
-744.5728727951646
-2268.4603751972318
2025.2745518274605
664.6421321844682
-666.2625048635527
-2026.1597905764356
1438.3545709615573
476.40272538363934
-464.59347131382674
-1425.3829616829753
608.3623596634716
199.86614012904465
-199.58646829612553
-607.4616753850132
-219.07700282428414
-68.1028150478378
80.28420768864453
232.62386655807495
-1048.529960570857
-351.301794459112
331.5874025383964
1028.9796530385502
-1621.4690446928144
-531.6145533029921
534.5109744020738
1625.176101009827
-2725.4963719639927
-896.46149540646
900.966779124923
2730.4426228031516
-2161.0162535198033
-709.3894501179457
716.9205754287541
2169.0179189089686
-1306.5514129605144
-433.2082664389163
420.27715176716447
1293.111741103232
-866.5334397684783
-285.36063027754426
283.65714010223746
865.3403441924602
-288.97836581617594
-99.70338954776525
84.7282751146704
273.4287289325148
238.13977502658963
76.67505782283843
-81.92119671031833
-243.44362069107592
614.8186061475426
198.99853665940464
-208.2051161378622
-624.1279934141785
804.7988580893725
263.55849013477564
-265.37883501313627
-806.0707807037979
841.7235482437536
271.1537846578285
-286.27622400410473
-857.055504492484
819.838778572157
265.4522051885724
-275.4373425152153
-829.6427805274725
826.7362869335338
273.5861665001139
-265.6821227064356
-817.7943091196939
826.7213116204366
273.39211333729327
-266.3032701415941
-819.181327293627
860.9753603022546
279.06918618641794
-289.64514995738864
-871.9291176358238
792.0534844053909
252.48974530771375
-275.533545197919
-816.0457908902317
624.3195716608316
208.47049896791577
-198.22077274415642
-613.0924573512748
248.48833858035505
85.04562929365784
-74.78377106878906
-236.82462171372026
-290.9861746295355
-101.89693778613582
82.67839741194621
271.87650645757094
-862.5756183215417
-282.0239019552246
286.33580019837245
867.3231656197459
-1304.0125168408267
-430.3632438261993
423.4881029808894
1296.7582890330814
-2164.131663301494
-706.8279286394827
725.1837153085507
2183.1483213300817
-1590.287757107988
-523.1266809720546
525.050117617473
1592.5834511108696
-974.4698911160231
-312.34781620651484
335.00470836274326
998.265576928854
-735.9560086764395
-241.6495290622115
241.43992039002478
735.5798960849643
-440.4249673280865
-142.86017291806638
147.51998033560812
445.28252260759473
-262.82265322841704
-87.4327927455306
83.407903496176
258.77863725461066
-196.7007611617446
-62.23992885090411
69.11249842308462
204.01235093735158
-231.8069416489452
-74.02363497857004
80.82453009299934
239.6491466332227
-331.15677175763994
-107.10274205822498
113.15814314223826
338.4739307910204
-400.8735380610451
-127.54227185808122
141.02991580963135
415.4353219708428
-456.46978534851223
-153.40073867421597
143.9669309835881
447.1316057415679
-418.6669469969347
-136.54068436007947
140.24029545206577
422.47211640235037
-330.85970597341657
-109.68654214031994
107.22418270539492
328.63480768352747
-227.15965410135686
-67.44082508888096
89.8702447116375
251.6768451416865
-210.36511646118015
-74.04527215659618
59.0125561831519
195.4287711996585
-277.1969696432352
-93.44168007839471
85.82208611397073
269.7752266637981
-435.5485074245371
-138.25957544334233
152.36970059480518
450.98919428978115
-741.0632686717436
-244.38671310711652
241.20885771885514
738.0775674618781
-992.489490905311
-328.7456458127126
319.25627729529515
982.1963918949477
-1592.3661662051454
-526.4278995776549
519.9486380359158
1585.1180463079363
-1051.973478410393
-349.9953749142587
338.51583341136575
1039.8724473249167
-750.0290863532573
-254.94917083717883
227.2867386341095
720.2250836957246
-709.2343196310103
-229.7214313466102
238.52350259386003
717.4583354387432
-721.142035715282
-234.7420034892857
240.6276378724724
727.2917884923518
-835.6945246588439
-270.84624847956
282.2856164146215
848.6030314676464
-1012.407813899219
-333.65102441236377
330.66250184364617
1009.6803612336516
-1208.350299159065
-397.4865380646661
396.68824193812907
1208.4165691900998
-1397.0192287033424
-454.57313571777195
469.4088553963229
1414.1479713106528
-1537.4224555380642
-510.0798967005685
496.1161839058623
1523.7012039665133
-1568.9607954770327
-512.7254638429731
522.1178388576955
1579.3208868987858
-1538.9085165821016
-509.84261138457805
497.83505291771144
1526.6801162296906
-1400.7778969714418
-459.65537659917027
462.6002598972991
1405.090220768936
-1196.7470069602132
-387.44847002252936
405.80022573284805
1217.2000347990543
-1013.2690375666134
-335.53965091193095
327.68747412925586
1005.525291682221
-837.3640575916506
-276.15844054101035
272.71055104536936
834.0073735988699
-723.0351693239063
-236.08591486886144
240.0513455402106
727.6860557487234
-721.2946263072081
-235.06890385737643
240.44956946419552
727.3929145885631
-744.7970926484559
-249.2910207931418
234.14718302246183
729.2384865225758
-1036.2960876836441
-338.8410712934565
345.5993664597627
1043.3783270511776
-572.3067195173353
-191.72341225855052
180.5709123443812
560.8845842070878
-553.0388530120254
-184.90273656509817
173.5692612491548
541.1479158643633
-719.108225831762
-227.56754062511027
252.69901560619473
745.4071921370924
-981.0753434039652
-324.84122204221785
316.3198795169592
973.3135273624212
-1262.2785349339247
-416.03235082142055
411.3301689475775
1259.0470711700618
-1585.8366828653961
-520.5277517177165
520.8147101961076
1586.6881944276392
-1889.6375909456983
-622.2830372676253
616.4873733688146
1883.7213559001684
-2137.1861049234867
-703.3923852713779
699.0574635704979
2134.285674800165
-2282.7956803459674
-749.9444557884708
749.4511145520955
2283.9333660015836
-2344.1348647372797
-766.0354080423713
777.4265136802569
2356.479934011586
-2281.8103048466146
-752.6791124446318
742.2400796972215
2271.440335973166
-2125.9172725901008
-693.3771328488365
707.9892262388021
2142.2675195867196
-1896.5035674553365
-628.7551483651623
610.158055594191
1877.2742217388004
-1594.984624200035
-524.5472543998621
521.6340405000374
1592.1463056900539
-1250.102876668796
-408.03188336314633
415.1331200553104
1258.5393531564623
-959.9219923405908
-313.5419826004654
317.98098675440997
965.3538435241207
-746.1013154499233
-250.37697276496328
233.07581889629364
728.1082839621231
-529.2561202484649
-163.0038052748423
194.56828437116928
562.3707063640468
-595.4895995962434
-201.12633587955497
184.4405459316913
577.7900176746771
-299.4796806499362
-96.13149911351502
102.59553639218211
306.70355371013284
-562.8744980283082
-177.6085206270218
200.1953365430236
587.0663455314934
-1028.8052342478186
-344.2448930796236
327.12580514885485
1011.6536360867321
-1564.9792829137295
-514.2523376252502
517.3544350620359
1568.3764005731791
-2120.400922900066
-694.8424811922014
705.3334727864712
2131.365460054949
-2670.5960638392717
-883.4070196971297
871.8179866746068
2658.7052071988583
-3122.1175792077556
-1028.2782684089616
1028.3726238273084
3122.177413366735
-3459.479423398152
-1135.6726124892011
1147.4274782128632
3472.3905164496973
-3701.728231162764
-1222.836107977666
1212.0281172227114
3690.7195006096736
-3769.1288486383855
-1244.1032842928544
1236.0537626054138
3760.986401709728
-3693.5183531679213
-1213.5101038226858
1223.2947482680902
3704.86010357365
-3475.4477573642507
-1146.8876337772235
1140.4778816429898
3469.332739093341
-3112.2165516586974
-1026.8198881614953
1021.3884104881436
3106.596289240755
-2655.9034110032953
-869.1833519833162
886.4439885611646
2674.5533955483697
-2126.6403432949446
-703.5199547312222
694.1987952832133
2117.682067574002
-1563.490694290027
-515.9334891214967
512.7336703897454
1560.9210369186476
-1027.495256499853
-337.34890936291777
339.6210373148788
1029.821057044901
-566.5433164928108
-182.81465221289545
192.66021529072896
576.3875258381013
-323.9953911360353
-110.78987521131057
96.75787291803863
308.7261477141874
SCALARS stress33 float
LOOKUP_TABLE default
-1107.7612814754248
-1336.7960565946996
-1072.7091818203335
-1135.0203442238271
1189.2966798841953
1048.0424775332212
1217.265038606245
1084.8777320832014
-868.9708776548505
-1256.633140143007
-1833.6528436020017
-2469.9814964793622
-3178.6183343827724
-3868.785129196942
-4385.616363745183
-4864.287612684071
-5213.219476852566
-5265.943021051586
-5224.784926645458
-4840.870724782348
-4422.894762583077
-3807.1478232629597
-3164.3148379325867
-2469.9486750774086
-1883.2350513748825
-1333.7090736180544
-882.6667841002345
-948.0271149128675
-1343.693225711584
-1844.6238221563399
-2512.635101623833
-3212.520954936743
-3847.670151203871
-4399.937437074259
-4892.62378189899
-5138.066589610651
-5275.703622311354
-5169.779013765976
-4834.978822963312
-4420.999576330185
-3816.481122675352
-3126.3832976855338
-2485.0812316751108
-1821.8596448213793
-1299.4477316429839
-809.8814438810805
-852.7072316601407
-1256.9412784064189
-1868.472705298569
-2486.3468255847692
-3211.057212203741
-3830.394147486426
-4417.632561473176
-4886.9306232165545
-5237.913234276697
-5245.687955562025
-5158.424513513222
-4944.469060027972
-4370.592289693654
-3782.166700594127
-3186.6778608858585
-2526.613748949021
-1840.9169808141887
-1280.4966889359057
-869.7085747495294
-868.9075642935932
-1239.0465524792671
-1760.8028989508748
-2447.3239524811506
-3156.4318339563906
-3922.1269689053297
-4447.142089586705
-4893.287825185806
-5156.21008387953
-5307.505753617734
-5160.011581480503
-4863.408634513617
-4392.099765788764
-3925.9510500878096
-3205.0039860121906
-2560.2538257688284
-1889.2574004419148
-1241.7209748998284
-849.812066629529
835.1644840836525
1233.9377360641956
1808.1094220764935
2546.8488638848066
3189.197736222297
3891.6973263546824
4472.303600713611
4898.22954865545
5182.618175946176
5293.222997814417
5136.815956298262
4969.96857297048
4570.551942896098
3896.383866008371
3263.6142247393727
2529.4681525826454
1826.5421413965523
1177.684512194246
907.9260057657957
845.7650266252458
1235.3057665526867
1829.1149077862501
2477.9317266866565
3200.3120192959905
3897.615556526929
4504.783503625542
4873.04116380401
5162.7803449854255
5298.02901931107
5215.250650985166
4949.550053080544
4488.354489466175
3859.833793687634
3190.6779691074044
2510.473079781048
1767.3221590509638
1191.03927043546
898.5442247474566
846.7664048651932
1333.9100611475296
1870.235043354798
2480.7037187963724
3212.798842621967
3883.7871829150245
4509.563930710778
4913.13236939162
5035.838877452537
5306.430493270978
5176.982763811946
4839.911820815876
4546.544918637723
3989.813892327249
3190.689837228507
2448.461094275117
1758.1519155837595
1273.5584867820144
816.409911159426
854.874658793211
1199.862708400935
1821.9768806621432
2559.1189779527485
3248.8765810467303
3826.1283659376204
4384.7953704968095
4817.911762971431
5212.984025977552
5241.772606775165
5181.8236499503255
4918.03373503685
4435.386259458959
3756.885021351278
3182.3211694173515
2492.259755101055
1877.1350238993764
1277.6023324541748
821.2603347226977
-644.9177255854011
-187.918345361948
267.4449425265193
725.144516274333
-853.8492694422603
-378.0826735533774
94.67376577854156
568.6751695424318
-611.7907002825523
-156.48446155968122
297.40004292782396
753.9727712884196
-686.7645617052913
-244.71434212103486
195.21773302555084
637.0917177945375
-1152.8847347944975
-2231.5828667208552
-4051.3027698658407
-6147.5034173205495
-8399.618965368718
-10477.201621633023
-12309.040764573961
-13711.98094086349
-14521.954710882157
-14847.513489942998
-14523.12518805638
-13678.775375954807
-12306.936470165849
-10478.391946792603
-8375.417479880154
-6158.76042053476
-4049.70740487054
-2255.9200447313488
-1226.5019448809326
-2251.17136721313
-2191.5735189430416
-2854.0128817260265
-3823.4846604801714
-5015.559531331062
-6276.3388435952365
-7495.848944246769
-8444.192675612867
-9026.59183106944
-9340.79858514294
-9075.654695685953
-8493.671866964549
-7443.944488085806
-6315.919400651008
-5068.226595923305
-3832.5130343548954
-2869.118480410427
-2152.4856018051505
-2249.945630669594
-4047.0066753700376
-2903.8354271166027
-2815.2029623948038
-2861.679919794202
-3300.059462148696
-4009.712732117623
-4824.167260617018
-5578.352665450424
-6089.243362989277
-6249.6939761936665
-6092.099049471319
-5559.193058300763
-4803.690380331129
-3962.045879755169
-3344.2056373506784
-2900.3023611456156
-2846.9455124512315
-2873.55690613389
-4073.1123662889004
-6120.744169615209
-3816.519093748182
-2852.454524677247
-1776.5147823765874
-1070.1354170143604
-835.9715156368911
-1035.46656280756
-1393.7059241347015
-1716.5076424516737
-1855.090072300285
-1693.1072518900037
-1394.8544993959367
-1038.458211299032
-798.8721400722861
-1075.3796714693308
-1785.430920381099
-2875.7918083146214
-3798.5322992764413
-6141.7612997069955
-8404.321812782437
-5030.219193063676
-3329.341232549399
-1077.970111809671
896.2183214128017
2429.4989002384245
3132.0037365555763
3212.9371342137456
3156.4621228687465
3080.849765036255
3113.1267407462
3254.8746746368706
3141.970613140613
2443.327063318342
919.5123300366104
-1043.0226105861366
-3318.4618774987757
-5036.975757397711
-8387.061559055
-10492.606866672635
-6272.580339871347
-4008.563171863556
-798.7538819722831
2402.9039708040655
5610.0379049777985
7867.488822996616
8853.506989136338
9139.414979759604
9007.046191666275
9143.17439160496
8844.76908256486
7873.074677433819
5612.505176540464
2439.230329159647
-825.3975189514458
-4012.9191030710936
-6292.471668437123
-10508.998762648553
-12329.496598944068
-7484.502478532493
-4820.797672919929
-1052.3849459961057
3070.4879434518516
7851.3554119467735
12682.087562143803
15758.943700045347
16474.87491727993
17106.593734785914
16439.692655231804
15776.983546152711
12715.935918211937
7830.70451464504
3141.5701991952956
-1044.3878789395094
-4864.3600217644125
-7526.722982970998
-12291.75004465133
-13693.400273755193
-8450.543038070202
-5554.021162346005
-1418.8761405609548
3257.569214247167
8883.485027167946
15721.161942694336
23334.327915545553
27213.183561790735
25723.49308829382
27169.109179776162
23404.779877040535
15766.54608342424
8839.532632084563
3275.166637202725
-1394.7933522947133
-5555.571360675618
-8448.507164416835
-13659.314221555367
-14528.982236426324
-9089.21980612725
-6092.8594463169575
-1738.1709877289832
3181.544701758772
9113.104866478592
16407.002418030053
27265.414081066847
41010.05593934283
49830.96073984355
41048.68522601947
27184.426620693877
16466.466165333986
9113.810252556577
3165.3614696171135
-1699.8256732709706
-6029.564096309245
-9067.303647389635
-14528.582805790007
-14812.743489190936
-9291.208589561284
-6212.490412224084
-1865.9161144122481
3068.5185625441372
9038.386142823845
17190.983456317335
25712.43276355788
49813.04628857225
56127.203912727535
49779.85551308654
25738.29153793864
17126.806443331763
9032.861920457333
3085.9855663776398
-1890.5296360831708
-6314.219083111733
-9288.047534925863
-14806.310881100595
-14518.893394805491
-9075.72012578696
-6128.571717895567
-1738.632781419903
3163.9036551192403
9130.020893279463
16439.558566298336
27184.35166247934
40988.69551124424
49874.559512475505
41034.982356974855
27119.24875033088
16425.769439145923
9127.3096338287
3179.664381723851
-1727.9242892973125
-6095.210819996893
-9111.81754053384
-14464.750631507486
-13741.926132924855
-8464.632785137743
-5541.189516089857
-1352.6165989115834
3249.5808281488717
8821.066886737943
15743.670072827488
23333.42054180801
27232.92681023851
25704.60261535272
27214.22473787889
23329.949148749933
15736.283366015181
8911.839327260852
3274.2978668753058
-1403.7731847781688
-5611.629784278572
-8406.474916806445
-13677.05851586163
-12348.907593287528
-7444.677624065429
-4866.692421738058
-1023.4002300575376
3110.187059890479
7876.570317983627
12714.365705117583
15719.093550685793
16489.467586673796
17125.628398939967
16392.4105582349
15775.386732716113
12712.292565790936
7879.762079723179
3116.185757206753
-1021.27821476385
-4835.722592929378
-7531.003700064495
-12316.301304189488
-10494.177275292575
-6262.987620297819
-3976.924824692309
-835.2531439438462
2416.263889402151
5596.427787199616
7879.427287697792
8825.728657785803
9092.603996405378
9015.08050696738
9132.532558215782
8819.227384140715
7892.532494835556
5620.532650595531
2412.5322591885924
-809.8374211750925
-4012.9149239035323
-6254.245217507705
-10536.259134364314
-8358.931384656578
-5037.231463439763
-3343.0254376530647
-1097.1035234071314
932.1968174651265
2379.887045390904
3091.235122013837
3223.371057899669
3120.9087567981333
3130.392897935584
3134.852578183636
3295.4272820409387
3055.825676828623
2403.3414920214564
962.7281575743109
-1100.640345422551
-3332.4544294662774
-5031.874826860614
-8379.726583771408
-6153.709123354405
-3790.7315632626414
-2862.2513971552253
-1733.1486642584205
-1057.3575330674648
-831.9192396067083
-990.492279464379
-1395.6614908669144
-1685.1186989806592
-1889.8957088664174
-1748.8439934644848
-1389.160973513499
-983.2713519148529
-868.3523875866085
-1110.6386155821383
-1720.1350561063737
-2879.4462503017858
-3838.736888960935
-6157.040703871287
-4069.9545975103974
-2902.9184211455286
-2789.9884359762073
-2856.469140589237
-3330.9683855473995
-4035.391605924815
-4822.048114497215
-5585.568675614893
-6124.175960408524
-6268.012574158609
-6132.245193583891
-5591.7771921008825
-4789.838181179017
-4035.0434305220842
-3327.65772084333
-2861.595147812739
-2832.9654537905008
-2890.124500101432
-4021.761203276925
-2220.190067693591
-2164.514280922711
-2860.038269061595
-3881.515631403774
-5005.940584175289
-6298.599887758493
-7501.825285129249
-8483.4463633392
-9064.442991385236
-9317.944854741916
-9055.098545126617
-8453.68010988459
-7519.351999195293
-6332.805003207177
-4967.51055188477
-3808.207853715867
-2935.2811726736836
-2102.559439645149
-2308.490426145494
-1184.0442865788937
-2238.5113808065653
-4048.0698115564883
-6179.707912959158
-8376.820284217596
-10531.004041526467
-12321.796255528927
-13660.805435435846
-14600.39816932194
-14868.797065299004
-14582.182913322002
-13710.450678823516
-12278.59208492376
-10493.655300084502
-8385.581567365676
-6167.979279649444
-4058.192192614544
-2245.2780055990443
-1267.0687655208167
1176.2041896879673
2231.78140084818
4022.934433080256
6160.799996517599
8399.87903290242
10464.411302302033
12278.359726786613
13710.136640485376
14567.183979459107
14881.382629942149
14535.875959601253
13717.765251588076
12306.810220606625
10494.1316739209
8365.893680900335
6175.016783058643
4060.8784081228077
2273.4385482668877
1203.7986976578832
2230.1547742411494
2195.0841606780887
2853.663507606834
3840.056084431708
5013.538128133863
6312.1725537367165
7490.93064821884
8463.253713198006
9045.736447498202
9310.49073081091
9102.279594756663
8494.506545618176
7480.400440920144
6301.413232538849
5078.315815374255
3839.2014582268894
2860.5245497226715
2160.3237736187875
2303.2871916517615
4067.7433811984956
2874.1902975291014
2827.7687652781606
2895.024898443371
3323.0539198182523
3972.8988850712776
4834.76968882978
5582.688787270337
6140.646024771035
6258.210103776306
6099.157853830606
5571.561391532421
4838.170333769172
3979.5370638407767
3355.49525045231
2908.926049347967
2831.5406153053045
2909.5071519501507
4076.9736272655427
6151.73479122296
3896.0434079281986
2828.098877493292
1756.9316345006227
1089.0638895593584
858.972027413547
1013.0578901730478
1429.8255417272449
1732.7080265060067
1835.6285833828151
1702.0230663828552
1356.5610216632485
1025.6625251471996
800.6579912565649
1079.037610102445
1719.0137527622283
2872.1976124942303
3803.4740929678082
6124.93998529017
8356.176137093455
5000.591326031834
3280.47971425578
1058.2156455554068
-878.1749833598733
-2424.8585459664464
-3097.7746816948056
-3283.5080112703145
-3126.613724246621
-3107.8790054880083
-3143.9137936867774
-3241.2448544353247
-3106.297116842121
-2391.037006765604
-942.8910938389599
1088.760309226811
3336.061313048005
5053.632656831294
8405.165670469403
10534.870064973831
6277.550792470574
3984.6979551687837
837.8797215744853
-2373.4255106933415
-5603.173702072352
-7865.710857540369
-8892.252976760268
-9146.30119369179
-8995.371392872185
-9152.204950802028
-8826.365302182734
-7863.189616043121
-5625.808656785637
-2465.6851505301893
832.8831587471068
3992.310225393623
6299.575674343854
10462.43516921252
12339.583044193685
7486.705397035927
4857.130052763969
1051.839580103755
-3103.6782218441367
-7825.309281259775
-12687.273467816412
-15690.31002182886
-16466.292595420033
-17101.78287652135
-16479.41878218949
-15773.004301492125
-12696.226489972323
-7886.440485626459
-3112.5796003192663
1027.5234468877316
4854.855032142252
7495.86268911697
12324.917590370402
13675.721723936498
8440.427656441927
5578.893964111805
1413.8690501525998
-3248.735122062266
-8843.95330086723
-15731.344250388443
-23374.970024988055
-27192.62795265019
-25703.38911336288
-27190.839741565287
-23392.87660188973
-15760.836220547557
-8825.316336274147
-3255.5679744090885
1409.854668231681
5582.845798285678
8455.813322914764
13665.81432402134
14541.09463269636
9078.185322977602
6105.989462982863
1734.0327701307833
-3133.0996273867786
-9093.13674493134
-16426.812493611127
-27221.576473090798
-41031.43419086188
-49844.15154866502
-40958.96178205311
-27182.27458692342
-16428.609408080578
-9108.650067063048
-3166.78765306063
1709.2324344143271
6082.576211320236
9107.967227108777
14516.568907726556
14844.551262263209
9337.29597664252
6228.52798563987
1930.7151963822544
-3134.9455922096968
-9056.512572191656
-17135.23092378676
-25704.73319375515
-49853.303620651364
-56258.720219127834
-49826.233569316566
-25696.141394151375
-17094.628625500947
-9037.653901159763
-3100.389016404748
1881.7903889603913
6320.5703202504665
9320.401382032782
14793.161334555596
14543.514671973884
9088.912784613669
6089.3759932257235
1744.698578439653
-3148.8837768919766
-9123.90178719163
-16452.430276524276
-27188.86367410049
-40987.69065820053
-49819.49992716499
-40985.47772264853
-27226.540538908914
-16372.615531727672
-9125.648171788082
-3210.5012184381485
1751.2472832798958
6089.927352242172
9093.719956118613
14555.92090676725
13687.451150469482
8482.23916503787
5567.032403793186
1362.8559652231634
-3244.3206913247705
-8835.622981708497
-15777.452600400895
-23344.51116252318
-27206.242917662486
-25709.882653247565
-27215.710805838928
-23324.8602411896
-15735.815870128572
-8847.616885026917
-3235.0208041314036
1379.742128437385
5642.127903511748
8451.333204457536
13679.111151590943
12310.70002913475
7496.600830502808
4886.49709649384
1037.0123239271343
-3126.7550973705947
-7895.152226131409
-12673.63508317247
-15771.47431851551
-16421.30865382217
-17131.678292155266
-16381.093410149217
-15771.29901975207
-12698.061191938818
-7902.249347424135
-3091.8684219643474
998.5133013594896
4853.004079995677
7484.378845795989
12282.082331361249
10491.203221667558
6270.500279307365
3994.491885010153
826.5338421538472
-2336.2842354141176
-5592.587937194854
-7873.389623574913
-8802.806472154334
-9114.318158300593
-8974.095639104024
-9148.05732533522
-8813.028285101056
-7890.9569534529
-5584.574627568945
-2407.254022954032
848.0805514361709
3968.3612065576017
6266.883130648173
10550.050121997483
8380.009194143116
5003.917092464864
3342.9401968196034
1058.5155736543238
-944.5159349665046
-2401.664953611791
-3091.520854178816
-3260.0891590192914
-3142.7083325497806
-3104.8327882140875
-3115.0778712257743
-3322.685612987727
-3116.0719113405794
-2372.5038517080247
-928.7952437829226
1056.8993255868554
3345.789037643932
5013.465147648938
8427.402730343863
6161.017654761672
3851.7138417698443
2860.9024356529117
1745.7520400881767
1048.03722461313
851.2740114405751
1013.8367242962122
1418.7967309448868
1724.1849244646728
1868.6715748999268
1758.3639226295054
1385.2262521255761
1050.080613810569
834.3818587753922
1094.4602903164923
1762.4715884122998
2873.622066700831
3811.2194838058203
6136.693163215183
4038.9962374307215
2823.677526321262
2806.719185385853
2872.2230906262994
3368.023317657411
4030.3902150392532
4826.413277955726
5636.198813281953
6093.359756685793
6296.827753979713
6102.8436564058065
5608.360214767978
4847.400579631329
4017.6773572368547
3320.4500809712335
2875.7588019520044
2850.7559377448633
2852.1007437277585
4039.966114303563
2192.5485657788813
2134.36988497898
2926.9021794833243
3867.051304977387
5005.3380507826805
6303.398727156222
7487.629341140389
8483.450930001214
9074.702455390245
9351.334230640903
9031.400574538857
8499.967590305954
7471.760636031628
6326.669704203494
4993.453353586607
3825.602208514698
2890.294670028612
2187.0504809836857
2262.6297311238013
1204.5062987320125
2302.449125301093
4008.0511194989085
6189.097177110612
8404.642463162541
10501.99597394839
12321.93224972114
13696.343893507496
14573.877980152145
14849.533665979281
14615.909360431135
13697.70378747955
12264.72126930207
10543.67933820095
8366.459840303287
6165.033033726737
4063.8660332220607
2268.3354100226425
1225.8004440744407
-519.8672696501017
-182.83689032495022
150.02977772057056
486.7465316429734
-746.0323835723102
-253.8307977169752
232.07202639058232
723.9862874634564
-1086.7900638878345
-367.4426586329937
342.4922321513295
1061.6448416672647
-1442.7759718075395
-453.0281746350229
524.58664265275
1516.1405911035836
-1872.1207756511867
-615.1762058436871
625.0226545333862
1882.2493864633143
-2276.858037967235
-745.3134607672691
765.9765506237745
2298.303392302245
-2569.2292165383697
-821.8661288172007
902.6784325167537
2652.0556029565632
-2860.205154567957
-933.3448446393013
967.2569774203002
2894.1367125995457
-3078.8270688578486
-1026.6872383244336
997.364689540118
3049.12220935151
-3099.8254979886115
-1016.402097273618
1039.3767627701163
3124.247105181217
-3096.765823855996
-1051.1532077118754
966.0768111906946
3010.734864387661
-2829.4863459318876
-894.3664801567793
1015.6833570823073
2953.4464527741075
-2579.0451666153967
-804.6734674945474
946.6936774663627
2722.982743218541
-2226.6788608692586
-706.3789205029607
793.6445819884539
2314.6240680404007
-1847.5562529340386
-579.550506900996
672.5866524092853
1942.7304181419313
-1445.4146425500512
-458.7020880281925
515.4584628865123
1503.1273023076355
-1121.9718520380557
-388.7326830364764
334.73999709635973
1067.099596299231
-816.450441095978
-318.8229766897857
171.23460257425904
666.0388734266162
-517.70750349015
-164.34458749741316
185.60322119295597
540.341088090092
-580.080784201622
-224.9153215587139
125.59570769965649
479.78008772432804
-814.2336524240673
-304.0180042088032
199.36381869763136
708.3780023939908
-1091.508425552398
-365.89840967953205
350.3841807283461
1076.0282822102308
-1487.9281172454357
-502.0671833753586
470.2899894937873
1455.199833624065
-1895.4493783935905
-628.7797070778906
620.3742318749428
1885.8046911992133
-2258.4390065036714
-729.7170506082475
778.5522257946432
2307.673762500286
-2573.5472771301866
-816.5846824087203
917.2271124459803
2675.650540424511
-2887.8009756412357
-960.2816845979542
940.9323282167315
2868.3914287872612
-3023.1078270655125
-990.0651164315641
1015.0910352449864
3048.0804710853845
-3105.1213817708194
-1018.1418950110674
1040.4098693914711
3127.425630638376
-3039.545618461445
-990.6314577795565
1031.1669126506895
3081.7558686006814
-2828.4256639666855
-898.2478347662836
1006.650144521147
2938.9244085252285
-2593.308888459578
-835.1458929460496
899.6815883144736
2658.8205717708915
-2242.144470056519
-727.5473837023601
767.1427336726338
2283.0146380169317
-1830.810554785654
-584.3234802149236
645.8087037559599
1893.2752381274477
-1461.3517122603953
-475.3589206794277
498.0752064017579
1484.9611373357475
-1085.1224042405374
-376.0176992644556
323.5543332854286
1031.9983852971345
-786.8077967041172
-293.5772879109718
192.3060466358438
683.1446431535296
-461.73264009621926
-124.85792593390215
208.80606410012115
547.303900035331
-504.02875023928937
-167.76214376091957
164.06729056476615
499.6074506411096
-727.263803801965
-215.73718909779564
289.9616398140788
802.4485756265931
-1102.2729453579523
-363.74144889134914
365.4307626443915
1104.035402994603
-1466.6273993831128
-485.5745859257877
482.1376372044906
1462.505495174788
-1892.2913704002276
-623.7384029543027
627.5376269007102
1895.4639870254323
-2247.492965091951
-725.0424624430016
777.0243348749354
2299.973744582385
-2586.476435655728
-824.903557209298
913.4106334652752
2676.1646853908896
-2875.9953480232507
-941.9954170659184
966.0562988277525
2900.7745054978877
-3125.346706179902
-1095.984876813367
903.9140794370323
2929.8947522807866
-3081.388463722542
-999.5126228220761
1054.897290572524
3138.562314186245
-3037.818027470261
-998.4660563506186
1013.6707635130733
3054.1669093482196
-2934.046292377636
-1001.7895876783878
903.2157526668161
2833.4602423645556
-2543.672799795866
-785.1880006715655
951.154646679759
2713.022907100618
-2191.09509768337
-658.81893941015
854.7581661343575
2390.9825468435884
-1878.515419561416
-619.7066168226302
622.4202816523612
1881.6553834155202
-1504.865428391844
-521.9465974271297
447.43361454457045
1429.1411439366639
-1102.2201121747494
-391.2192645929754
310.20921831578016
1020.6324371434748
-758.0224514789879
-253.67208198085427
244.75913815572858
749.7579457573593
-523.7057956978679
-190.07321860268712
139.17230473831296
472.0500168427825
-515.9447398260236
-175.09141244366765
161.63728231936693
502.3461961299181
-739.123292285949
-257.34708961471915
218.32268573716283
700.0945780351758
-1027.3007497116923
-320.4186939559877
377.8628712743521
1086.0391054823995
-1422.2756274752319
-434.61623207107186
540.9657182022929
1530.4836496338248
-1844.1044042818248
-580.5134667605162
667.161637943238
1932.7319923304021
-2330.5793576948345
-800.3246466480196
708.6317820176482
2237.4845506213605
-2634.01720444113
-890.7463767677546
828.7511057928205
2571.9270033054054
-2899.5171919092536
-982.8537070974708
907.5693808682263
2824.2179449163377
-3029.9782293476164
-984.5224420763552
1034.2210342362523
3082.048734534532
-3141.072008125484
-1058.565668977797
995.1275646984577
3076.8748595304787
-3038.0287457220256
-997.3942537382245
1015.9643739908934
3057.69184711203
-2856.5108605585992
-926.406195897609
977.9375926442444
2909.1174853742123
-2581.1325011253357
-839.4722698181868
879.0716457590461
2622.018519423902
-2347.023421816528
-829.4950675740838
666.4536510780454
2181.9577744938433
-1894.2596566602588
-633.2262034527957
610.8804452009499
1871.8333863019943
-1523.0400694571435
-524.8289651423693
459.85247941315174
1457.0699850320816
-1117.163478564471
-372.9791634231806
361.6401790641248
1105.5790662392974
-726.2726705633104
-228.8249337375164
262.7573160864413
760.8495258688927
-506.9293498471379
-176.24898331612349
150.10405577719212
480.0360430255532
-664.9268173724413
-210.1171446889639
233.3471131324768
688.2062577083707
-1301.5971864387393
-427.30047423765063
427.8609315343201
1302.058488920331
-2375.745155610144
-789.8690744899213
764.7300083301961
2349.514324042946
-3599.2278845906258
-1180.8038229830563
1193.0104405470192
3611.8601895570755
-4924.290273871273
-1621.9728193804622
1620.7947115451097
4923.602710720152
-6144.346688259393
-2026.515538033098
2016.744459901005
6133.616374887526
-7222.222061891109
-2387.032642636448
2360.8251470066607
7194.501086767763
-8041.906001903117
-2650.490374032408
2645.1108958795667
8037.721162918955
-8509.854262251407
-2792.2192894779146
2825.06801873073
8546.863905895501
-8702.265139393508
-2858.3093758411705
2882.678466256708
8729.849104579538
-8516.134417641908
-2804.0418213680387
2807.3101289980114
8522.582912903279
-8016.062909353524
-2630.7718099802732
2659.8288319446146
8048.470949113369
-7217.208876982331
-2377.94276131317
2375.1328270845115
7215.316950172186
-6140.426714856178
-2017.1259460859
2032.139900676906
6155.718085885048
-4911.745912529528
-1620.9805352836847
1610.2666879817843
4901.465898949653
-3606.4471141137183
-1183.4958678856492
1195.3319614492357
3619.7961278557777
-2368.996329240501
-776.9809033311903
784.8355026878417
2378.0015665367246
-1313.9453884586692
-427.17638337239623
441.06775852665305
1329.0883152261376
-716.5192043073475
-241.1250013783574
222.01446303352714
696.1895476467907
-1318.0692692920566
-440.46061558276415
418.2549805864692
1296.2775333710015
-1271.4558532945812
-415.57633903995156
418.4285335764289
1274.5819376297295
-1658.8276526518166
-543.8317659832537
543.6990713514388
1658.6758103370667
-2222.202095042914
-724.7203446179628
737.5564330331981
2236.3160243481398
-2920.1761791296303
-958.3672591634095
957.4478398226202
2918.8982407562435
-3649.377712585032
-1186.4079857356846
1220.417842309922
3684.0248179659247
-4369.4579966925085
-1436.4008680060506
1430.346949070692
4363.792318992317
-4920.508200068027
-1612.4990809112787
1622.4136597067118
4933.504523023963
-5259.526443686336
-1723.3277628533542
1734.4005764611065
5273.317943513393
-5451.314686447382
-1800.0209228284657
1769.4333204850554
5420.817052185535
-5286.879739079624
-1729.6242388561368
1748.8773459494114
5308.605645280331
-4951.6815696023405
-1626.728357706219
1624.0431467667222
4950.1780292876065
-4332.32255390659
-1412.7529123350978
1441.6684248968959
4363.775435525924
-3682.4868441931903
-1213.592023525387
1198.8045963011682
3667.7915377616882
-2949.4340734668076
-964.6814948432148
974.1590816602111
2959.152533363551
-2228.734957050532
-729.4175598062575
734.3091012276709
2234.3025304935873
-1669.2649825662374
-549.9802050329745
541.6993124298751
1660.9033071510494
-1247.3630864843726
-406.28326708450913
413.0561536774039
1254.5439748987556
-1305.157998982817
-414.92907973378897
457.7782246544957
1351.5630291737616
-2366.2013790234923
-773.7681736424565
788.8623986691236
2383.217071942985
-1693.3962863087654
-563.9216560870409
537.3717660605907
1665.805292867124
-1636.8972451500595
-533.3838731385767
544.6600063294172
1648.6583505496383
-1662.5483415089548
-537.8397159911692
562.3027545027435
1690.0040815509856
-1921.3804791495204
-625.605953477323
642.3954826332629
1940.2601927816868
-2346.082520645112
-781.3267334327102
748.9265428334475
2312.2056161761284
-2816.1386904865503
-923.3450597375631
930.2106137312949
2824.255142915994
-3260.9197995252907
-1074.2099575586617
1068.5907994098961
3258.6165886819363
-3551.497791636735
-1155.5745819620788
1193.058924663812
3593.6365913264453
-3650.6096699535847
-1198.767621703446
1202.8775242753327
3656.18574026227
-3559.502087343484
-1169.8990800976753
1171.154093503952
3562.697416510433
-3246.5370978042483
-1065.177713111043
1071.6405340358615
3254.977913428098
-2800.680475369096
-912.0812765322626
938.1071589402854
2829.538246333599
-2311.401978749782
-757.1509920246899
765.0168104209006
2322.497889891267
-1950.21670909971
-639.580420397222
643.3106399551034
1956.5138235017657
-1687.9754257462919
-551.7450429536402
558.55851681903
1695.4144962243736
-1659.1792572848499
-547.5736535936594
537.3576826192439
1647.2683538533747
-1664.3394318334758
-535.1276640221477
567.1496560834348
1697.727074060589
-2384.944330122322
-785.4794391803443
784.0839242935181
2385.357462860644
-3582.2607022710145
-1172.102635677904
1194.7644411325455
3607.758717689663
-2209.4169362410903
-704.2447749748826
767.7299858778715
2278.328480504453
-1665.7985686920583
-554.6805561855435
530.5121470727026
1641.591155141592
-1036.201375119388
-345.91156109049916
327.1435924731195
1017.1941045336425
-619.4817684777081
-198.93542946875095
211.95509196817875
634.5077469870448
-484.4995798356831
-154.20945953577757
169.64368119090796
502.4904657267034
-610.2840518914163
-208.4929453767836
185.31337911635637
587.3421618677676
-811.8135278746486
-258.43637254089117
286.0364079847932
842.2585298456252
-1005.3133806809783
-328.7646857984364
336.7285844050348
1016.0310957320035
-1090.981081660837
-365.45299342274666
346.64362125098705
1071.9339607954025
-991.2378399968147
-324.4432035982609
330.55637238919735
998.2685319632292
-823.9133568704128
-282.83859706670046
247.55168348550797
787.5967332907021
-609.8169655390084
-204.69368340075016
192.26755421236157
597.2656311318278
-464.5496151819825
-151.97714285552502
153.17779387161136
465.92770159989595
-624.2754826843739
-203.89341728016734
206.13205667957664
626.9846223294735
-1049.4299639500678
-364.1571351401508
303.1365543194115
986.6039924062788
-1675.8009833954275
-551.4619588404894
547.0077908188105
1671.6478903703392
-2209.961535871029
-724.7372934184968
725.4879457764328
2212.1555630862713
-3600.98255225271
-1190.177925337106
1175.578466217965
3585.6716657988727
-4933.936044715345
-1637.89977382496
1597.1694628186524
4890.733985248953
-2932.8460607901216
-969.8318162970245
946.4009547308087
2907.3694977648556
-1949.4794713072479
-654.3448569178581
611.0776603631675
1904.325760934502
-629.3798463717103
-212.05360573902726
194.30596635490656
610.9454670026898
527.583186738193
178.51944640278816
-163.46243658661842
-511.5335952453315
1418.0738905631006
466.40883120149374
-464.4297179803252
-1415.2162283807993
1829.0253103896976
609.1511842906475
-581.4781507439911
-1799.163767054677
1854.964430078864
586.6646604463458
-651.567108605057
-1921.8112337440252
1836.1183225549757
608.7093143761158
-586.0896827280521
-1811.0983636677265
1783.7798013463616
577.0122698545456
-599.3763123638928
-1807.7517896480858
1802.0357018597424
581.7796998918056
-607.901949364692
-1829.756001777947
1893.938530165702
624.2120564207435
-613.9207205735147
-1882.5538478009403
1836.3072439804673
613.4492108002305
-580.6835251487792
-1802.5891239866614
1434.8789741955698
486.8602538369596
-439.7915761657059
-1386.0590127818286
534.4312246777117
168.82931880280375
-190.2901801019907
-556.5353865921497
-599.3116309121251
-184.89731601253152
220.62912024185061
638.4087652340531
-1933.1304880604148
-631.1188504658639
642.9402167201042
1946.9148554317653
-2931.9177525043488
-959.2884309403598
968.6870278567076
2943.7800581529737
-4915.026719503105
-1615.0517742708325
1626.3084427118301
4928.629769589752
-6145.227442227304
-2011.9473645985126
2048.105611745268
6183.474760834128
-3652.751928254962
-1197.1216678507626
1202.1069541946054
3657.738263439387
-2343.964971613139
-777.7451917901635
754.572139788419
2320.5657468140125
-459.72004364803433
-141.4494250304997
170.80971774086356
492.37254920229316
1405.8594770655036
468.77025090530515
-446.87309354543686
-1381.4259995184839
3273.9992408901453
1076.6941694580019
-1072.6134736165404
-3269.0036743804812
4586.532279718667
1505.5584607757628
-1506.4497468359768
-4586.572832137346
5148.910510748625
1677.197562802583
-1714.7711184322834
-5186.922609578818
5317.134907715023
1741.0084057115018
-1750.4012901484966
-5325.721810527146
5241.019810989499
1722.710433933884
-1710.6853627935052
-5229.138198059052
5319.748154643923
1742.0662749670446
-1751.290094036609
-5328.94452470541
5153.064937867224
1695.1175272241235
-1681.9921483807266
-5138.193938862532
4592.428138751537
1511.4014805555344
-1501.0709106139839
-4582.279037114233
3273.0665355175734
1071.922923821956
-1082.0703807026148
-3284.2876601554453
1418.8424016311765
458.0234425775707
-482.5397873595357
-1444.0093877203763
-478.7692226320505
-154.37569860368967
162.3439507521689
486.5704199746251
-2344.6020119674504
-775.4433832168579
759.121255196631
2326.84944678843
-3665.3509476445615
-1202.1651626452804
1205.1531308330595
3669.733567841351
-6171.577592317015
-2048.6920201964676
2000.3163184560835
6123.7961146868765
-7229.230592362583
-2379.550227306783
2384.239526618272
7235.745997026563
-4361.974132496864
-1432.4481713175774
1431.1393922418356
4361.848184771836
-2810.1145149879158
-914.2751158513129
942.9027720503509
2841.331084217876
-617.9019570983946
-206.08911384269595
198.66594659537077
612.7666889689863
1780.8295839726925
573.0471668951213
-606.6233410052955
-1814.3037820830941
4581.034386865795
1510.740851946175
-1490.2136560566723
-4558.661365896463
7395.956340953708
2426.49627969414
-2433.877521812916
-7402.626151934266
9196.861446704715
3037.614337068051
-2981.828364647925
-9136.790326911956
9592.868827991188
3147.876254081726
-3146.319962423295
-9588.989695355296
9966.782889578491
3272.7775584198534
-3268.1606988571584
-9962.148697402328
9565.764194875956
3126.9617556780577
-3162.9079380892217
-9603.006414353848
9197.133866801858
3019.3533035740256
-3019.816611547023
-9196.13557421416
7419.866697590798
2441.4480097666383
-2427.2202961556613
-7403.83914648369
4554.447422239929
1477.4447809569538
-1531.3486175350845
-4609.003694172949
1833.396336298436
608.8314207978547
-586.3200076520443
-1808.7244948931038
-613.2294273469597
-206.04208201542497
192.53325501829386
598.5919691696763
-2842.646889708936
-937.3293120097369
927.9064181484282
2833.1939917355776
-4392.102075049654
-1451.6790889184922
1421.8806739933789
4361.9578802883625
-7203.472326500341
-2364.7760102562606
2388.7398641314358
7230.5528731532395
-8031.306371457875
-2649.0041529871523
2636.1136654429138
8016.823283288628
-4927.9084042795
-1622.0220103897154
1609.6313707567751
4916.275136895478
-3242.034527130425
-1060.7987690642476
1076.4355213232338
3260.770004607737
-832.3961313068867
-275.85644030943513
270.38174181059003
827.0686088353395
1894.3240332081914
622.3993036225438
-617.7639326043427
-1888.3121731467545
5178.548164647073
1708.3272845111787
-1680.0744028836489
-5146.535555545241
9161.959726542234
3003.70629844442
-3016.5236031226814
-9173.918256837875
13608.144383776933
4458.384736131877
-4493.83177241683
-13645.385972432792
15869.228119827807
5215.410875413567
-5200.615966267884
-15852.52802913636
14963.262060757726
4910.133228763938
-4899.3418337106705
-14949.390298083425
15835.483251363039
5191.103712107986
-5216.08698848635
-15859.422328330576
13657.765909329057
4488.96574011445
-4480.667951397598
-13648.287571374327
9191.241788584739
3017.8246242143214
-3016.9914628900588
-9188.800477489829
5148.230638701469
1690.9537052698433
-1685.0771514326334
-5139.584101807326
1905.6068350858986
628.1919547077268
-616.754636881873
-1891.4538642019033
-816.4389114510268
-266.53950135037303
274.2979420404881
826.6022634599358
-3241.593999389559
-1058.8092185724527
1079.5373869817704
3264.531724419445
-4924.5126972049475
-1616.646306725219
1617.6233484391123
4927.617773644626
-8009.277548830956
-2637.1386052519083
2639.495271919295
8013.032268343493
-8517.829660192132
-2802.54840522632
2810.990291532129
8527.511987429112
-5300.791983868927
-1744.695744112134
1731.7261269427836
5288.443953745067
-3559.334583811462
-1168.5300944186747
1173.998823095113
3567.3693413324654
-1020.169970355928
-338.1027156598866
331.7506700716913
1014.5328141264617
1854.5038469433784
620.4824733920395
-580.721184052527
-1811.8403190746903
5304.309281133115
1742.5489884018898
-1733.2805125042796
-5291.477885991335
9548.045937925577
3124.9456672519445
-3148.173557691276
-9570.168570708483
15904.203633379191
5233.819164589047
-5198.255975805223
-15865.895414188504
23940.800341382623
7859.257817849517
-7882.2715496867895
-23963.30384561792
29134.56398107484
9576.309973891824
-9589.898899827152
-29148.069908794016
23982.272337976843
7905.034049984068
-7830.19353358075
-23902.458981759846
15849.821016903967
5204.3410079889
-5204.142408126965
-15849.003189271316
9593.368382113054
3157.304842699319
-3127.7938276212662
-9561.080132395029
5303.653180429712
1739.6131177004427
-1739.4403052609414
-5301.823230437934
1836.1607368718833
599.5200192611665
-605.016120525077
-1840.3309921324253
-996.3701047450304
-327.56119264662266
330.0310760643333
1001.1383311152458
-3515.78743872419
-1143.2762298826128
1182.169366247952
3559.392725037411
-5280.650416567922
-1724.597648287192
1753.5111777484417
5313.526707159355
-8522.908392064273
-2812.6521171070635
2796.118959190324
8507.905770426616
-8683.662259571254
-2854.683120280504
2872.2222740612924
8706.016434431076
-5410.297902900726
-1765.475232090801
1799.5085633210838
5448.381338015199
-3627.320180401206
-1188.8475166745484
1199.6903817094862
3639.90504283458
-1085.7612240239978
-342.00403794646263
390.9269394725561
1140.0090931095183
1768.024203762412
558.1235435120761
-621.1869922652841
-1832.2585096471012
5253.11438723281
1716.173564888537
-1735.4917722679675
-5272.065430324525
10024.319133389741
3305.4474128372967
-3258.6963914185762
-9974.583071246743
14954.37004166469
4903.310988698155
-4904.205934111029
-14952.41399814561
29120.8125009425
9565.49971273169
-9598.970828365535
-29156.613043870777
32773.73343432322
10725.882333822548
-10870.858163110912
-32914.206597439945
29100.421262407675
9557.234423508868
-9595.516148846596
-29141.47346266359
14975.991356294602
4920.952709674835
-4890.123264899477
-14941.392368702218
9981.446530910209
3283.294706951827
-3260.3126212935895
-9955.413070216775
5251.21160181798
1718.4882273972034
-1728.306383986026
-5259.367421992123
1786.9691778421402
579.5521586667746
-596.2743008937687
-1802.9541187975556
-1111.2506508640945
-370.26345853321254
357.8590819314122
1100.0576114784926
-3690.4081462025642
-1213.9723233692348
1212.5729547720402
3691.5903174411505
-5410.797651289031
-1769.799242561683
1791.2349420636892
5435.898988908157
-8686.608710026368
-2867.7943783979863
2847.9019296504557
8668.998536637053
-8510.179328110069
-2796.884495418519
2815.1031060516834
8530.565926134586
-5288.574292041361
-1733.3161961399019
1742.6484881304204
5299.201509997249
-3586.6990246735513
-1189.760995335877
1156.6007652170956
3551.5032371990383
-1020.7068342790008
-337.4429052360356
334.787385661155
1020.9548974223435
1838.4057033136487
605.4861359447241
-595.2295632995665
-1826.5922340713441
5313.516799528152
1743.2495622001588
-1741.9959030039608
-5310.649695128202
9568.900281403214
3134.379555094987
-3150.1407302841544
-9583.733727097511
15849.409243050963
5203.051860164851
-5206.799373384565
-15853.461080607027
23931.333912160248
7861.853301484138
-7867.057469688356
-23934.488469529897
29172.017943285406
9608.90408407338
-9560.974757598713
-29121.7436371278
23968.946831619367
7890.885039735585
-7846.66867214255
-23922.983135003597
15794.157824154943
5155.331378694624
-5249.1900527682155
-15892.580212850124
9570.511815544218
3152.5480766575783
-3113.730972064659
-9526.915530608967
5310.083171078935
1739.5897184498608
-1745.437079437077
-5313.442414186895
1839.442544080317
591.6219589188695
-624.3502025157213
-1871.5687698535621
-1008.6321204509586
-325.16871160827577
346.1672443561256
1030.3884023297578
-3561.932439893484
-1172.7041854597628
1166.945139752701
3556.31131003052
-5317.965277051553
-1755.467978682369
1728.507499249652
5293.978206941858
-8468.966252131388
-2766.037598481402
2837.948022443801
8547.382799150422
-8067.721827760339
-2673.7217819280922
2623.0956821516156
8015.78585819155
-4931.170687448233
-1614.462878484279
1628.1941778473556
4946.216468341649
-3232.4971152171493
-1055.2374718599021
1077.2116629071534
3255.7486038915813
-791.8912615738809
-259.38253250718117
263.9787512347102
798.3602301515639
1888.2333911284804
618.6420853435993
-618.9234949275851
-1886.697000514716
5133.492249704897
1678.8913162089884
-1695.5265115946531
-5149.452162347734
9171.63239159435
3000.4585347510874
-3033.1317408047616
-9204.720982298255
13612.984610401094
4469.107911575586
-4476.940074183047
-13621.951425552368
15881.535922873765
5220.599425125867
-5202.177548989654
-15860.375248849392
14947.995283165947
4897.910631122068
-4909.094072632492
-14957.251053480431
15866.769427062944
5208.618986668065
-5212.414664123207
-15869.820993749425
13613.854944257066
4474.157238930464
-4467.577395167202
-13607.820539109409
9171.13248723559
3008.0861312150955
-3015.8859597034752
-9176.18065781705
5199.276645090431
1722.3595678657293
-1672.128152249381
-5144.384871024638
1908.7036580797285
635.3597407378256
-605.3563382718712
-1875.612203810364
-826.2391354832798
-278.8581379726529
257.7649718876928
804.1312025859952
-3274.237171916291
-1068.6606852654368
1092.298225145787
3300.148993978277
-4893.825774092227
-1596.294060913846
1628.67330378294
4930.404847519472
-8020.971891408786
-2642.875253904611
2639.8188169784844
8019.640234671533
-7247.037011645734
-2397.5553450882435
2364.274157669395
7212.122338723391
-4329.559228245169
-1406.633082602173
1451.1080511957407
4376.5465021543205
-2840.202618319541
-929.0793218128383
942.9752406738698
2856.066720958799
-596.6971697509289
-193.0108897946775
203.12395982071757
607.9785047061741
1806.0284096375108
585.0021229013801
-606.9116866029799
-1826.1518990024924
4586.966631110758
1497.8941520825028
-1521.7055552117527
-4609.048376407474
7422.660609271377
2448.666753794998
-2415.34966352582
-7386.885271199048
9154.203322410583
2989.5960397161543
-3037.967219389975
-9203.961961217225
9612.277371305972
3172.547337472439
-3115.7794997766614
-9551.724868196994
9975.184890702367
3270.914040742442
-3279.8514115288854
-9983.176251621917
9544.786367688328
3133.138879245147
-3128.159110283479
-9537.701644070446
9196.860163355246
3019.791342943907
-3019.009188234806
-9194.998599199578
7416.959502188489
2439.1319197677076
-2429.124923842028
-7405.556744672358
4588.561368776485
1497.920357014984
-1523.48940959014
-4613.12608104758
1816.9997674785554
601.3020578604192
-584.8950213287026
-1797.9601216167212
-601.7170563768595
-205.44702384993434
182.7664046958089
579.0093201100826
-2822.9166548978537
-924.8911679424345
934.5005277302116
2835.116062425077
-4397.805906482041
-1458.6416585128754
1413.6740659549832
4352.259880071506
-7227.285926619545
-2390.087322779
2359.748983491212
7195.681162213907
-6152.808677628636
-2026.536963261664
2025.311681509018
6151.027565713972
-3646.8983447365463
-1194.7115217521787
1201.2827670872211
3653.7921111918986
-2319.4381941109896
-758.9657830484211
769.0303265489638
2332.046631049365
-488.8201607912779
-164.37294406816363
152.8387767598033
478.22890692576766
1421.5917099416256
488.1354078017175
-422.66041342541575
-1351.246075540781
3264.126174982637
1071.0430785678327
-1073.4777721092105
-3264.4753530249
4593.944572877139
1508.5921049006283
-1507.4564580954611
-4591.19495203346
5142.068215120584
1692.0600022692233
-1676.8933153618127
-5124.325512632728
5286.939282719046
1726.5068030394614
-1749.6418082360178
-5309.632591838017
5248.433074032888
1730.9249778091908
-1700.0271793138236
-5214.183092836291
5311.760833537206
1736.7966907918453
-1753.6974945440888
-5328.234479827806
5135.7416514493525
1685.668846419081
-1683.8150025382638
-5132.461762558669
4600.60141103901
1509.1864717844874
-1512.7933491244912
-4602.493743721396
3284.205143660307
1087.697575027123
-1059.8612213619053
-3253.6649136804044
1407.4517805371433
462.4242219924927
-461.4884026553482
-1405.0638608299196
-466.49324658326805
-143.89496300555766
172.65567617304623
498.44440395385027
-2351.445357646793
-787.8755189375952
742.1757421428338
2306.118795301765
-3642.126270176843
-1193.1814621444792
1200.312018217519
3651.1257044821978
-6175.777573157102
-2030.375779545866
2041.1712295655161
6187.610409214161
-4896.448352519423
-1606.4726990237832
1624.3705678321421
4915.459405902773
-2938.629512708634
-974.0031847059727
944.252520032227
2907.690795712173
-1950.550103429705
-641.9114636778831
638.3432729877532
1948.1608699038625
-643.9352688118815
-222.42466371878982
187.78852123394608
607.9603962376714
543.8180680908263
175.05934358388186
-186.99503522366285
-555.9005803540349
1384.3817397542298
447.71085127070546
-468.82474810257554
-1405.734723675996
1798.6695147529244
588.6036493815482
-592.7331676408648
-1801.5260961987078
1866.7363887764513
600.2364929709584
-635.560697665438
-1902.5704408027232
1806.5985822975636
583.9556625913829
-607.1407739650458
-1829.3543429486454
1820.0079378243536
601.962625015527
-583.6664816047996
-1799.2920408025384
1822.6683461833745
602.4560826849192
-585.9102861657739
-1805.054924549535
1911.6947367284447
618.7299199774861
-643.4122918192297
-1937.2666537892073
1768.9109245948493
562.7550018113106
-616.4246837608516
-1824.8193987067789
1406.4580160174519
469.69746501371264
-445.6570664476603
-1380.1342854443938
567.93059630692
194.54931421764195
-170.3488290067762
-540.4504619315267
-648.6026065992191
-227.52051573526114
183.00141240097582
604.3225383097306
-1941.378209721297
-634.1786217950284
644.5448938412592
1952.7573918150738
-2932.738495280966
-967.3951328285038
951.7032747864723
2916.170459973626
-4903.712468486279
-1600.4831421440467
1643.6365083707497
4948.413951608352
-3604.7508027665317
-1185.206323556602
1189.9814200885594
3610.3946247659624
-2195.0696656629443
-702.4451345056295
755.6804198846221
2250.9364347942173
-1666.5429051294923
-546.8282242231071
546.7090836316347
1666.0393630675972
-1004.6684707589447
-325.564740087837
336.798710051924
1016.3736451156437
-615.6480305194855
-204.7470360659063
195.55285653099418
606.4106196090579
-481.2534377798438
-152.59714643284678
168.83527314290404
498.52677781507373
-576.484431233257
-184.52863826788962
200.58268727734685
594.9637465011328
-815.7992016989738
-264.25030273012817
278.4576728120446
832.9657949004322
-981.8332135584205
-313.07933329977095
344.5533709656447
1015.8212401475757
-1112.4640700723976
-373.72306381724775
351.7194060627371
1090.6759828347713
-1023.3296432476491
-334.0567786488682
342.75849676318467
1032.2861405685544
-815.0531170815229
-270.2573805619031
264.613633768633
809.9769830554724
-565.8142760433257
-169.28999443724751
221.6073478255421
623.0000171083957
-513.0410286299884
-180.07724722474813
145.3197374381125
478.5375728867948
-649.1910926643759
-218.7512679696083
201.2041171528399
632.1092488216236
-993.3304522875696
-314.87886287178844
348.05881084501743
1029.6148717710748
-1678.502373058349
-553.2623685440049
546.1291166841984
1671.8255553543568
-2237.121642087586
-740.7437959630042
718.8787838630378
2213.374979267828
-3609.628275183961
-1192.9260927382857
1178.072784056887
3592.9785516932607
-2386.9921252280474
-794.0077106505632
767.5268170163035
2359.052271362394
-1699.0437362343073
-577.7849000804126
513.5157625190914
1629.7817470766604
-1619.3798642978072
-524.086065735668
544.9229601211846
1638.8574376888573
-1660.5778244286776
-540.2954853326082
554.2543235048652
1675.1556994207203
-1938.0607093051076
-627.9340600296855
654.8559987582266
1968.3939133994281
-2356.680825665593
-776.5736918672919
769.8123490996659
2350.5230522044003
-2816.6974534820765
-926.4784875009209
924.7847040146589
2817.0229021199048
-3257.536254003644
-1059.9056580662727
1094.6245296727866
3297.6108406335115
-3584.783996719867
-1189.3022943716496
1156.800346788019
3552.8447444848716
-3658.0745231434703
-1195.3544759768993
1217.4136455822736
3682.378805074841
-3588.2305642552674
-1188.7341973427683
1160.8153077885509
3559.7986816633493
-3266.286523187533
-1071.7544751968235
1078.7400006987154
3276.4547074530274
-2789.649319889024
-903.065390303731
946.0395568981767
2837.521991515532
-2358.6799171194434
-780.9965823367238
762.8514659786597
2340.8012195276096
-1941.9643720574677
-640.3424153923988
632.4988632043824
1934.3261658214033
-1664.9900138089433
-543.4351637996733
552.8948602946475
1676.0672427108511
-1647.5592082682997
-536.5970997205004
549.3881128067151
1662.0178862633184
-1686.852904504165
-564.5985354408622
529.5082432865165
1650.7808766169474
-2350.443469956517
-768.0291572227143
784.0220888550393
2367.2108728387393
-1300.0870982259512
-435.50874480232596
409.7372075356543
1273.6712620332837
-1260.69932949543
-421.4659431502223
395.2367756664753
1233.178747329861
-1651.3815857879817
-522.0604745671153
580.9500167705119
1713.0023441836238
-2263.3064854443073
-749.2573429644108
729.60489846766
2245.4429929330945
-2917.8346504829824
-961.5042369067669
950.736275523901
2910.4942081421614
-3669.4076654724777
-1204.2106083966792
1205.0662403032184
3671.5973632857203
-4374.078846251592
-1440.2268423382193
1426.888581233099
4360.449103722349
-4947.740992482752
-1628.1723252348602
1618.2108866758645
4941.116413388401
-5284.700343167409
-1735.8651358895004
1734.8577019125223
5287.486430251971
-5426.813576972112
-1773.079046273604
1799.7899633888155
5455.76723610051
-5282.40202348493
-1742.252949923277
1718.0198597181588
5258.333176886663
-4921.436297412962
-1604.8004412576556
1639.0545568726957
4959.757635993883
-4390.107880990952
-1455.3503981977701
1412.1054018381983
4345.39143005386
-3690.772892656736
-1213.6042902842164
1206.9601732520387
3684.3157827388495
-2889.4246212933213
-942.8492353139445
959.605759111233
2909.307614487596
-2213.9765357263386
-722.932220227085
733.4752365043387
2226.8349819285795
-1714.3956452016719
-575.3261380391195
535.1387756215408
1672.5943151623942
-1205.207364870701
-370.3801128389314
444.2229264136404
1282.6579191526398
-1354.209228570573
-457.4739525481127
418.72884216718376
1313.1075716125779
-685.4341712370515
-219.81810825690627
235.08484456688166
702.488156914711
-1296.4992243796587
-408.7380366064608
461.64594620093703
1353.1440034992993
-2377.070953872055
-795.3540412671864
755.5927023887634
2337.2422486282885
-3619.387027166784
-1189.1054205223918
1196.5553362220526
3627.5188885442913
-4905.645188022405
-1607.236178163439
1631.9160826280713
4931.428824581206
-6179.776686485857
-2044.0050003044307
2017.1574775092304
6152.232809256762
-7224.775084532797
-2379.18423817493
2379.5779879335314
7225.10782142356
-8005.286182995886
-2627.5372696276754
2655.1698332838714
8035.59315530397
-8566.2869768776
-2829.50544837676
2804.476917317137
8540.779770554975
-8722.13440554589
-2878.6706407144666
2860.0443470645696
8703.281915519387
-8547.144463950768
-2807.7573526650667
2830.7576580476016
8573.779042033479
-8042.545004473999
-2653.714845387265
2638.9285933766514
8028.444545738399
-7201.682435559109
-2375.7852501273155
2363.287488605827
7188.746420644224
-6145.511553582735
-2010.8110375059769
2051.275383866392
6189.210348182358
-4920.232348319143
-1627.5022262362763
1605.9256106559187
4899.481329089031
-3615.914251952432
-1193.056038214825
1185.7513335337862
3610.105412519537
-2374.018646804616
-779.2721377592534
784.7334868614562
2379.5915208701044
-1305.078653542325
-420.89797996589914
444.02906921925023
1328.204228207469
-742.6755282494705
-254.02827655291185
221.42942579486407
707.1867202320136
SCALARS stress23 float
LOOKUP_TABLE default
-39.36100487038493
-39.626891878433526
39.11615545854147
39.221886339597404
-38.39976926706731
-38.33669416606426
39.697654176765354
39.81577992066741
-53.23345873877406
-126.55804717727005
-227.39971961081028
-342.65703451260924
-460.0358354654163
-567.6455420237035
-658.453430200927
-725.5965843712911
-768.6367116384208
-781.7961814990267
-769.1617392059416
-726.8389839520678
-658.3369749067351
-567.6276497850195
-459.82936699315906
-343.3700546687469
-227.3227314837277
-126.66421309486032
-53.543147758580744
1.451614573597908
8.638138064183295
10.019737145863473
12.165607009083033
11.833127561956644
9.914763971231878
7.891723224893212
5.571002162527293
3.062496563885361
-0.43572045769542456
-2.093570965807885
-5.222271004226059
-7.8168689724989235
-10.195522639900446
-10.878347610356286
-10.036308835726231
-10.636664914432913
-8.337965189828537
-1.983219588699285
53.641703801287804
126.5781673709862
226.95229371171445
342.05400446942076
458.25673389737494
566.520166334929
657.7770516360179
725.8315057465807
767.8131245397963
781.0607107668184
767.289249131456
726.465951745864
657.2539535639808
566.4948152182624
460.1353809684515
342.6974467271939
226.46725951042026
125.79162780102342
52.73889922071248
-1.9476136527955532
-7.63925641681999
-10.483171191997826
-10.302870727144182
-11.194670235738158
-10.478778998367488
-7.898790121078491
-5.801870055496693
-1.472089103423059
1.622538086026907
3.4653929891064763
6.860555039718747
8.450466477312148
10.563549404963851
11.21887050382793
10.888190431520343
10.476324113085866
9.185901679098606
1.8880776856094599
-52.693679232150316
-126.33131038956344
-227.0165685210377
-343.910412652418
-460.1953417658806
-567.9742815736681
-658.8504385827109
-725.5514271976426
-767.5260029025376
-781.3139038383961
-769.0403301110491
-726.0814204411581
-658.557864244096
-568.3176018791273
-460.77045341860503
-343.2806412791833
-228.37067778035998
-127.80549752991647
-54.082503812387586
1.754418889991939
9.319756011478603
11.10950853023678
11.790687814354897
10.819163240492344
9.140951661393046
7.311430371366441
4.413421951700002
2.935906075872481
0.01922136778011918
-2.8197598988190293
-5.176931637339294
-8.107350936625153
-10.32156243477948
-10.648236536188051
-10.63361572357826
-11.106413995614275
-9.311782046570443
-1.9747191412607208
54.0513923864346
126.34407027368434
227.51596202352084
344.64221222372726
458.99320377013646
568.1877056516241
658.7488736105151
726.1638328814879
767.7978054513223
780.9644767977297
767.8953862609342
726.9789932351559
657.8027054220438
566.0612335428596
459.6595505438745
343.27468898240477
228.3541603339836
126.41570143401623
53.21777158975601
-2.5516233826056123
-8.931966846808791
-10.754878328181803
-11.745422646403313
-11.30094863474369
-9.76121830381453
-7.289716266095638
-5.1152774123474956
-1.152090753428638
0.6482142340391874
3.842520988546312
6.7858749851584435
8.26502918638289
11.177575984969735
11.204515298828483
11.357956301420927
11.937620371580124
9.369155878201127
2.8271781224757433
-39.14738084562123
-38.94699325785041
-38.755815925076604
-38.5736544970423
-39.34429198130965
-39.07536390051246
-38.81761924922466
-38.57138254027814
39.203699033139856
39.30589156773931
39.421298398418
39.550909107376356
39.3126929923892
39.41747138276696
39.53527561202645
39.66718677897006
16.196574145928025
48.10860145278275
53.41769592277706
60.71565088443458
56.75175019539893
50.2429807363078
41.07231609709561
28.27533188741654
14.285649775527418
-0.48083305452018976
-14.374271800741553
-27.698504080064595
-40.40462135244161
-50.93745287973434
-57.13510648999363
-59.83867294806987
-53.35649557970464
-48.34322098363191
-16.463065529242158
-22.7058963496238
25.13700589351356
11.499046655371785
22.6997824376449
22.310526876710355
21.818582240492105
17.449344697408378
12.89193306490779
6.334021471440792
0.4866496520116925
-6.70923382230103
-13.748898852616549
-18.00527839921415
-21.546826002188027
-22.53160285204649
-22.914525317959487
-11.555417506024241
-25.280034546740353
22.94703831989318
-53.19827973470092
35.28319805115461
3.4475767808035016
24.197077992372215
22.85344461724162
24.953538172878325
21.15740159433335
15.840586429461837
8.455754639580846
-0.031648457050323486
-8.466191807761788
-15.474792343564332
-22.008762065321207
-24.484885346144438
-23.272741943597794
-24.14856446441263
-3.6038261419162154
-35.30614828877151
52.84919661749154
-90.24716528691351
40.33789338544011
-15.121449735946953
13.30768882855773
12.603525283746421
20.25480680167675
19.54683425836265
15.824854594655335
7.871303596533835
-0.1733115715906024
-8.23537168186158
-15.417422491125762
-19.47071370203048
-20.349539873190224
-12.473059449344873
-12.700862932018936
14.865967656485736
-39.60567082464695
89.38239595293999
-123.68569921702147
48.10215000808239
-30.07878042384982
2.3366487193852663
-2.7009915011003613
14.772564252838492
20.434559352695942
17.417062713764608
10.54303147085011
0.24005303531885147
-10.053469629958272
-17.747771949507296
-19.928199869580567
-14.796520601026714
2.409428033977747
-2.2715755701065063
29.922137768939137
-48.51601503789425
123.41058648843318
-152.17585985176265
56.816251697950065
-43.5679332241416
-5.957247709855437
-20.32001442927867
-6.645965795964003
19.492194858379662
23.317972077056766
14.670218373648822
0.23300823289901018
-15.205251298844814
-23.498325088061392
-18.9530872926116
5.715716479346156
20.596127728000283
5.797060712240636
43.66632912866771
-56.17348661553115
152.68620359897614
-176.25538048893213
63.66098417993635
-53.071814958006144
-12.845718742348254
-31.54151468910277
-33.24701904319227
-20.197642479091883
45.11588337086141
19.351092096418142
0.3153426144272089
-19.58321324456483
-44.06078787241131
19.383767554536462
33.37790068052709
30.901217956095934
13.025065887719393
53.61954088322818
-63.28812974411994
175.6991880806163
-192.93747788481414
69.78634569514543
-59.97139190323651
-16.374367046169937
-40.200611748732626
-37.09655040781945
-72.72039905469865
-45.17875573877245
115.11577395629138
-0.6025150800123811
-115.96299384906888
45.13773220963776
73.42850194312632
36.66429106798023
40.93059013132006
15.755406433716416
59.49416167382151
-70.04674729937688
192.0804386031814
-202.9946394721046
73.4508926877752
-62.65789324231446
-18.527919608168304
-41.68320952542126
-57.05196470115334
-29.044932992197573
-190.09704351704568
-59.36609180830419
-0.06826885044574738
59.62212785612792
189.97064923495054
29.151877980679274
56.62971832416952
42.01245657866821
18.64973935112357
63.88918648799881
-73.7174500725232
202.51354648033157
-206.79123696126044
76.2713285535574
-65.58624371793121
-14.523641544394195
-58.30834184773266
-5.50975236762315
-206.78122957516462
317.6726623028517
-1169.0585485538468
0.21379204373806715
1168.703430680558
-318.0575629770756
206.439986562822
5.05508514912799
57.936003126204014
14.977085652761161
66.43641968071461
-75.09374120878056
205.98338254308328
-202.30820962507278
74.02258944977075
-63.445897752419114
-18.56934934295714
-41.89041858166456
-56.90794187411666
-29.122514431364834
-190.56027760356665
-59.3488564779982
0.03450454864650965
59.28026700671762
190.39408354228362
28.54573923861608
56.6843659193255
42.144583786372095
18.491133101284504
63.30046836286783
-73.88699563452974
202.48305471986532
-192.46272445097566
69.42736516706645
-59.30269816890359
-16.36771412193775
-40.620333306491375
-36.687221626751125
-73.24811227805912
-45.461366976611316
115.87835381831974
-0.13179562613368034
-114.78336723893881
45.19582926481962
73.08959863241762
36.85512338671833
41.24779411684722
15.5451270211488
60.18639557575807
-69.84918676875532
192.79246748052537
-176.22748410794884
63.78399054054171
-52.88147740624845
-12.22818650584668
-31.688537186942995
-33.62933726795018
-19.92397023178637
44.869386608712375
19.372533504851162
0.5725080436095595
-19.196480724960566
-44.37501765275374
19.652021765243262
33.50234298175201
31.146051875781268
12.335911543108523
53.039396840613335
-64.20827708439901
175.6005221521482
-152.47445795219392
57.245224706828594
-43.34763079602271
-6.299896415323019
-21.193363612517715
-6.069858347997069
19.312763737514615
23.63911442644894
14.552623904310167
0.2689675595611334
-14.490434526465833
-23.849504382815212
-19.682777280919254
6.068913565482944
20.296219238080084
6.6939855995588005
43.901658590417355
-56.18046918697655
152.35020759352483
-122.32648554537445
48.364858416840434
-30.45191873423755
3.0235866708680987
-1.5336698358878493
14.757757966406643
19.65678298007697
17.812538691796362
10.51046839915216
0.0969301974400878
-10.555130169261247
-17.53569627413526
-19.883974386379123
-14.859457761980593
1.6415095943957567
-3.631331907119602
30.69926783046685
-48.507424811134115
123.27175436913967
-89.55623704288155
40.17399927042425
-15.252643230371177
12.31334177032113
12.242413267493248
20.085982175543904
20.044555603526533
15.05599619820714
8.119312243070453
0.15247900178655982
-8.744767184834927
-16.042412707116455
-19.363335465081036
-20.49822150915861
-12.442256756592542
-12.858049379428849
16.012004502350464
-39.85975253977813
90.1778512019664
-52.95901691634208
35.33247488550842
3.349205983802676
23.466997721232474
22.36606342997402
24.994446706958115
21.807929946109653
15.326073322445154
8.65657809516415
-0.7573276958428323
-7.744630243163556
-16.01982013322413
-21.54624728905037
-25.546269478742033
-22.807515424210578
-23.88142990320921
-3.458797052036971
-35.38431444927119
53.007203352521174
-22.485428384505212
25.48684332612902
11.628168073482811
23.449656086042523
22.416683519259095
22.148525901138783
17.52060655876994
13.270459455437958
7.123199260327965
0.04463379178196192
-6.473636945709586
-13.124119863379747
-18.446638071909547
-22.068692525848746
-22.40037750545889
-23.209349476965144
-12.199194201733917
-25.212428380269557
23.017207369441167
16.56754967197776
48.20261120330542
53.66506783943623
59.66898721642792
57.88576521817595
50.53442900348455
40.22749778535217
28.48041950073093
14.177625304087996
-0.48618018813431263
-14.364776813425124
-27.72343609202653
-40.44298941921443
-50.47529390011914
-57.09064902900718
-60.16733287437819
-53.72272508358583
-47.449767955578864
-16.808879063813947
17.815520610660315
47.64400026202202
53.310455959290266
59.698396127671
57.43457635305822
50.568344976752996
40.41295433789492
27.902234896086156
14.017189776524901
-0.18290336150676012
-14.576825464144349
-28.0326347630471
-40.41039765626192
-50.318642523139715
-56.95737882796675
-60.28619776200503
-53.063945919275284
-48.07842076290399
-16.273720290511847
-22.30561258085072
24.816969592124224
11.650933526456356
22.814378535375
21.622434847056866
21.9366696793586
18.354786830954254
13.09423532243818
6.695585819892585
0.09368456155061722
-6.771605739369988
-12.780919719487429
-18.65954653825611
-21.548553614877164
-22.170431257225573
-22.6214221958071
-11.199130412191153
-25.116064105182886
22.33568092994392
-53.07508142106235
35.02025581151247
3.3112794179469347
23.311347937211394
22.451031340286136
25.365756245329976
21.631976421922445
15.76979601662606
8.84252277482301
-0.05430889409035444
-7.928854703903198
-16.28491885587573
-21.764876844361424
-25.304909786209464
-22.210005951114
-23.68974044919014
-3.0935801351442933
-35.22707934118807
54.331903523765504
-90.09896683320403
40.19657578505576
-15.468208853155375
12.548266097903252
11.681189789436758
20.122740268707275
19.686711344867945
15.173319772817194
8.630680521950126
0.6369864298030734
-8.294928885996342
-15.523897369392216
-18.768946626223624
-20.159856310114264
-12.009651748463511
-12.88937112968415
16.127045823261142
-40.133376602083445
89.22095832321793
-123.56172594055533
48.92229024786502
-30.360429137945175
2.6006872598081827
-1.7945515364408493
14.350841525942087
20.474588873796165
17.40727640222758
10.289458869956434
-0.10388633888214827
-10.587571793235838
-18.537865955382586
-20.56258716713637
-14.598618830554187
2.329113148152828
-2.3663978269323707
30.712495802901685
-48.38374648336321
123.71111652813852
-152.72461309097707
56.224926901981235
-43.68388773035258
-6.2971399780362844
-20.74489562306553
-5.542689104564488
19.34738291334361
23.629146987572312
15.116411032155156
-0.28467604611068964
-14.745473668910563
-23.580508464947343
-19.03732985816896
6.4240973852574825
19.87380618415773
6.397050286643207
43.191373468376696
-56.62573864776641
153.39644973631948
-176.94760590512305
64.31899743992835
-52.87787270639092
-12.21983116865158
-31.634864451363683
-33.39397670235485
-20.122873020358384
42.807065734639764
21.395987700670958
0.1433074725791812
-21.11271534394473
-43.49371385388076
19.864866935648024
34.312673507258296
31.181063226424158
12.468196576461196
52.33302636537701
-63.705853171646595
175.84995957557112
-192.56248013675213
70.33344993367791
-60.099900398403406
-15.574248293414712
-41.499839284457266
-37.02555010188371
-73.87821377348155
-41.62460144236684
107.98257688898593
0.3914943262934685
-108.57886423543096
42.048006859607995
74.03450247459114
36.6412453437224
41.10353243444115
16.440514176152647
59.3870793459937
-69.92697897460312
193.23948800610378
-202.46254213526845
73.65694727376103
-63.43675231281668
-18.448822657577693
-40.924791316501796
-58.420775507576764
-23.082004625350237
-207.5541532356292
-18.715867687948048
-0.27115990221500397
18.742207356728613
208.141071267426
23.45369113329798
58.68325164727867
41.076007378753275
18.249904060270637
63.03733588196337
-73.87369435513392
203.07772159203887
-206.6151472022757
75.18643881287426
-65.77407897915691
-13.844342632219195
-61.994122652336955
6.436434609815478
-245.9294306607917
437.72034360282123
-1470.2265690099448
-0.41213696263730526
1470.763263400644
-437.63215945940465
246.57245196029544
-7.096450502052903
62.01862103305757
13.812512793112546
66.00824003946036
-75.4263528380543
205.662694897037
-202.6947936983779
73.61945189163089
-62.844630125910044
-18.30965639371425
-41.832465949468315
-58.442207587882876
-23.22290808428079
-208.2979514785111
-18.872952189296484
0.21965419501066208
18.8308426104486
208.4095127992332
23.412570310756564
58.68602057825774
41.299107358790934
18.38197137741372
63.41600780142471
-74.13720322726294
203.41181678092107
-193.0445873690769
69.38328330870718
-59.52074502967298
-16.34482482727617
-41.26805537287146
-36.685540698468685
-73.38995424471796
-41.82864639535546
107.82219816651195
-0.10462749935686588
-108.4253772306256
41.72246651770547
73.43672397220507
36.97838855627924
40.450951266568154
16.426291476003826
59.643809518776834
-69.92224823171273
192.3834596639499
-176.04948267620057
63.94213858246803
-53.25461839605123
-12.517797134816647
-30.74760897271335
-34.201632029376924
-20.02607841230929
43.78690546005964
21.58049794472754
-0.4397314405068755
-21.56761457119137
-43.99116933392361
20.367028351407498
33.09352609468624
31.986905047670007
12.359055367764086
53.33264200389385
-64.25292089954019
176.24211642565206
-153.7356904791668
55.97652997542173
-43.567652949132025
-6.799772032536566
-20.61203409638256
-6.244999013841152
19.081729465164244
23.661591051146388
15.32585587259382
-0.23131762677803636
-14.985555224586278
-24.000711223110557
-18.62858035415411
6.234612298198044
19.998577047139406
6.297234756406397
43.37376630725339
-55.86902071768418
153.50685939705
-124.78254545852542
47.930391994304955
-30.331180446781218
2.2346581276506186
-1.6117551578208804
14.990209370851517
20.588110195472836
18.42559910286218
9.97337268665433
0.2504650657065213
-10.733981469646096
-17.72852845583111
-19.9374854369089
-14.932884803041816
2.517058081459254
-2.011601185426116
30.144675065064803
-47.67405529576354
123.3226045302581
-89.79314826242626
39.84562110248953
-15.417246988043189
12.477997671812773
12.0563794542104
20.43496796488762
19.12946235667914
16.153762825764716
8.694892999250442
-0.03914628643542528
-7.926952853333205
-15.425793897360563
-19.428576078265905
-19.918178526684642
-11.853113929741085
-12.675092520192266
15.161026085261256
-39.972026407253
90.43281787354499
-53.3939677933231
35.18067679088563
2.8656169595196843
24.214056577533484
22.38605257216841
25.024760738946497
21.00455772317946
16.25856163073331
8.554568491410464
-0.0807899902574718
-8.290438724681735
-16.229149231687188
-21.481062879320234
-24.690131065435708
-22.52583517297171
-23.003973852144554
-3.4500989264342934
-35.22176276217215
53.233590484713204
-22.778636038303375
25.08069886174053
11.305877567268908
22.903881509788334
21.671153360046446
21.7221471760422
17.670832314528525
13.429497633129358
6.497869377490133
0.5796451987698674
-7.005768706090748
-12.774377427529544
-18.64717232529074
-21.954456651117653
-20.927721401909366
-23.6562848824542
-10.698634941363707
-25.019976950949058
22.986226260312833
16.751269843429327
47.905002103187144
53.05628035683185
59.852573323994875
56.93034019134939
50.91192489862442
40.71297965757549
27.87704707123339
14.845983490813524
-0.574592350050807
-14.231928568333387
-27.715401239227504
-40.563621579669416
-50.84458433929831
-57.33032864239067
-60.1723752936814
-52.812744048424065
-47.7086926989723
-17.411702222947497
-53.31353432312608
-53.3063231613487
-53.20077757164836
-52.99508349969983
-125.20107332617044
-124.5000649318099
-124.45555069483817
-125.06689649820328
-224.1140685658902
-222.42796323634684
-222.35128544270992
-223.88389602303505
-337.68206476420164
-335.30832882784307
-335.55643505230546
-338.4282324463129
-452.9833448715508
-449.4600680153817
-449.49190278723836
-453.07732183486223
-559.0642951186746
-554.7904122862965
-554.854897076264
-559.2583942767233
-648.6501579210162
-643.7697621891275
-643.8480338640511
-648.8849996486679
-714.8784775165841
-709.4974991250783
-709.4890601243824
-714.8515855707228
-757.1816329034045
-751.3256705459207
-751.1060511600226
-756.519007589668
-770.3288807636127
-764.5294981608167
-764.4348418787122
-770.0423907479271
-757.8822755366564
-752.2111463006586
-752.1870259763673
-757.809296422638
-715.957362646237
-710.4238100172952
-710.2739232098684
-715.504901599139
-648.5059704799205
-643.5951596507803
-643.6384656978771
-648.6366337379441
-559.0969306826591
-554.8824670454487
-555.0178335811943
-559.5044359136373
-452.9216276137158
-449.5457339081913
-449.73060135822743
-453.47840557433665
-338.12939603440464
-335.4897101595998
-335.4712341474369
-338.072561702691
-224.29657658934593
-222.88037145603448
-223.08682864252478
-224.9189933585003
-125.56292841397226
-125.12239211052656
-125.34763669408858
-126.24146438483149
-53.80679776426405
-53.995104539208114
-54.102083874866366
-54.12861475534737
0.6027530636638403
0.20525644719600677
0.2645663386210799
0.7826840067282319
6.611557690426707
5.659851184114814
5.795415543019772
7.018838450312614
7.420798501931131
6.222684443928301
6.439018266275525
8.071386723779142
8.892108965665102
7.212519236840308
7.1385071175172925
8.6699264543131
8.42315137758851
6.612937828525901
6.412453800439835
7.820032715797424
6.866218550130725
5.261084635742009
5.107520608231425
6.405302350409329
5.409255784936249
4.108075021766126
3.9939147336408496
5.065111157484353
3.667581269983202
2.600164466071874
2.370946906041354
2.978300293907523
2.1637726346962154
1.7003983263857663
1.674729292280972
2.087962848134339
-0.3372898097150028
-0.24285290809348226
-0.15199575806036592
-0.06473245844244957
-1.3896747343242168
-1.1078953482210636
-1.2520255879499018
-1.8231851207092404
-3.5565557200461626
-2.71646218188107
-2.7076224661432207
-3.529725315514952
-5.5010809930972755
-4.367395076435059
-4.424823665525764
-5.674392052926123
-7.301794205792248
-5.861812813440338
-5.886474807281047
-7.376871230779216
-7.641628791112453
-5.994783863425255
-5.949129132786766
-7.504757135407999
-7.00657628220506
-5.544525898760185
-5.662394780665636
-7.362778837326914
-7.899186840513721
-6.569877017405815
-6.662746945628896
-8.17915699398145
-6.384331552544609
-5.497714922530577
-5.69109549280256
-6.965822064667009
-1.055273954931181
-0.5879242664086632
-0.5871840719482861
-1.0509987233090214
53.86760221759323
54.023920586158056
54.105553798843175
54.11246934707742
125.2148596290499
124.50852444570046
124.46133418858517
125.07353701884858
223.84786970715504
222.3454104368575
222.45698160491884
224.18194890930317
337.3185548284091
335.1956684633624
335.708211496938
338.86073283990845
451.37402314902283
447.9920740062371
448.1369077160489
451.80995646025985
558.2189692147076
554.2164046354592
554.5463246263098
559.2109168127645
648.0988168809563
643.3368311426602
643.528273712378
648.6747982655652
715.1893465258181
709.8815719182603
709.9467407725751
715.3848463739268
756.5936486274004
750.962883353699
750.9591756910086
756.5826077819802
769.7033703736961
763.9959981441498
763.9767166040838
769.6446584505029
756.2070746272802
750.7053470727988
750.8242088360712
756.5651745325886
715.8274729275145
710.5393155859783
710.6404689559713
716.1313831117004
647.5152333332226
642.682954672724
642.7918916773051
647.8416136819869
557.8035797672346
553.3998067528009
553.3126644529402
557.5416046017781
452.95764719042927
449.30942869000137
449.2153687151149
452.6723853908479
337.5843456592411
335.07521502580494
335.18941094353795
337.9271778902039
223.61262015346438
222.3634687801823
222.73603619635105
224.73372931499034
124.61277554463595
124.08298147004098
124.20659872889519
124.98387241363525
53.0154766170308
53.20416116993874
53.29856729507446
53.30070851184428
-1.1305671762675047
-0.779670599848032
-0.9002153901383281
-1.4925496522337198
-5.764991492964327
-4.950411758385599
-5.206712991930544
-6.536971662193537
-7.718433171510696
-6.356035088188946
-6.409242853522301
-7.879521446302533
-7.432085620239377
-6.131963588297367
-6.416668474674225
-8.29177700728178
-8.025056842714548
-6.445104985497892
-6.465541787445545
-8.088733526878059
-7.434088733047247
-5.836749408394098
-5.695292352698743
-7.007765035144985
-5.4174341885373
-4.113488665781915
-3.9933069348335266
-5.055601395666599
-3.9962303452193737
-3.0238457210361958
-2.8878595354035497
-3.5880541717633605
-0.5966031448915601
-0.12655709870159626
-0.06320042721927166
-0.40644782688468695
1.3949991604313254
1.1851381147280335
0.9916047500446439
0.8134785341098905
2.6636690367013216
2.2987259663641453
2.3736369032412767
2.8895923672243953
5.129498199559748
4.254357795231044
4.23983134701848
5.08592928852886
6.039573499001563
4.811977664008737
4.775661371648312
5.929827095940709
7.76084709726274
6.414737902581692
6.536702701821923
8.127682242542505
8.027485877275467
6.424562154337764
6.421022929251194
8.018510673195124
7.812627272680402
6.315661873668432
6.408953396603465
8.093765128403902
7.927389685064554
6.790660873055458
7.080287190154195
8.799528937786818
7.060195699334145
6.0091859474778175
6.045319085940719
7.169189967215061
1.1376783456653357
0.8507868349552155
1.0360583327710629
1.695249516516924
12.758308434858918
11.171259855851531
11.486555164679885
13.713423291221261
37.84998941980302
32.61844126135111
32.52549444884062
37.57243847101927
40.483824172988534
33.94069327041507
33.919444281607866
40.420951841399074
45.74184893630445
38.08220851048827
37.88216194137931
45.139151114970446
42.15863496251404
34.85607887990773
34.990420097485185
42.56498277001083
36.90810989495367
30.2059497628361
30.26864939648658
37.098782115615904
29.92459749057889
24.23340243473649
24.103011501021683
29.532273748889565
20.43818307109177
16.448108470067382
16.375751484185457
20.219134248793125
10.283098112791777
8.237366477958858
8.184601241722703
10.124320717528462
-0.401707049459219
-0.3317606830969453
-0.27213137596845627
-0.222960339859128
-10.430559640750289
-8.460251211188734
-8.50054578948766
-10.552091191522777
-20.047358946874738
-16.21901288162917
-16.286498019471765
-20.248711503110826
-29.42250993102789
-23.880596769042313
-23.882471777498722
-29.42797559965402
-37.40440100803971
-30.514377781189978
-30.39365471713245
-37.039981168694794
-42.38691345136613
-34.923005615361035
-34.88779992144555
-42.28167086746544
-45.209365733899176
-37.86288012750447
-37.949320488609374
-45.4733140328899
-40.43236197344959
-33.876003921963274
-33.81847321614623
-40.25937622599304
-38.10624154377729
-32.906056210398674
-32.8539282688871
-37.94972334895283
-12.736430106684566
-10.833235147409141
-10.796352424658835
-12.624499844387174
-18.79081423394382
-16.77507738210261
-16.698313200846314
-18.556937012821436
20.628808703273535
18.3182849958539
18.256113862618804
20.440889477729797
5.991674279794097
3.232980752363801
3.2636276856064796
6.084764366969466
14.437381505034864
10.283974785357714
10.30736548639834
14.507988180965185
12.808216436766088
7.953488603234291
7.818314484320581
12.4010853106156
12.37154442537576
7.620597712695599
7.64221503213048
12.439612136222422
9.345002884976566
5.346462348476052
5.522817833349109
9.879552573896945
6.810994000174105
3.7653498193249106
3.8040647888556123
6.929229261353612
3.199390050023794
1.6548664346337318
1.7261137403547764
3.4140487099066377
0.3929550237953663
0.308222115971148
0.23156615626066923
0.16076864581555128
-3.465163102373481
-1.837711151689291
-1.8509729681536555
-3.5043719513341784
-7.383223212324083
-4.083053381182253
-3.8932822830975056
-6.810133151710033
-9.793841389939189
-5.718893979676068
-5.848040969111025
-10.182880193926394
-12.086974783800542
-7.319703459739685
-7.3201583018526435
-12.088668487034738
-13.069060150533915
-8.266335274092853
-8.19669615663588
-12.858209748752415
-14.569759719073772
-10.336116683669388
-10.280198532156646
-14.399889572523534
-5.965036693960428
-3.1156555730849504
-3.046728362329304
-5.756964270025492
-20.78220395743847
-18.49157747067511
-18.45943615399301
-20.68591203633696
18.95572980772704
16.877266231924295
16.755474510602653
18.588806164450943
-40.494589783251286
-34.06834554485977
-34.04538712464273
-40.423438247293234
35.98821206949651
36.30143375881016
36.250374311581254
35.834139762446284
5.398138586431742
6.3693378726020455
6.344607838429511
5.322316760197282
22.400238749571145
21.40398818720132
21.23074396327138
21.877570220269263
19.072332465089858
17.124341764487326
17.045959193259478
18.83608496375382
19.604677903465927
16.943861428648233
17.02505497355014
19.850007567554712
15.565764947794378
12.78936854377389
12.881831609643996
15.845974232070148
11.148454853333533
8.773467108607292
8.757954709231853
11.103767042979598
5.876278604380786
4.610408970154822
4.684891676530242
6.102424037642777
-0.01755003910511732
-0.011744260787963867
-0.01564774662256241
-0.02953212521970272
-5.7170459777116776
-4.278399232774973
-4.171960647217929
-5.39684530813247
-10.915474329143763
-8.693947546184063
-8.854221478104591
-11.398179724812508
-16.20896882098168
-13.257961431518197
-13.208864654414356
-16.062370665371418
-19.238389098085463
-16.668761951848865
-16.83076681662351
-19.726919871754944
-19.34954262059182
-17.266671524383128
-17.058774618431926
-18.721665396355093
-22.39167787786573
-21.457270979881287
-21.36881445068866
-22.123824486508965
-5.476227700710297
-6.37127876188606
-6.272318070754409
-5.177084423601627
-36.03656272403896
-36.37965367268771
-36.36427271272987
-35.99109039735049
40.4268781747669
34.292226183228195
34.58159192465246
41.30094464123249
-68.23311446234584
-57.1020817104727
-57.07273972593248
-68.14339586906135
46.412356964312494
49.43248296622187
49.40338875167072
46.32679689023644
-4.627341854386032
0.6285887602716684
0.5615675756707788
-4.829876610077918
20.10807538498193
23.454606940038502
23.30727128405124
19.661811849102378
16.78167317993939
18.7916465876624
18.610755855217576
16.235830333083868
20.843598653562367
21.11773340590298
21.090462585911155
20.76319515798241
17.76836189068854
16.87800353113562
16.905135290697217
17.851064749993384
13.166642347350717
11.76013317052275
11.63252621050924
12.781246985308826
6.3039254723116755
5.5846002753824
5.73410215601325
6.7549776723608375
-0.02188444323837757
0.13210998009890318
0.29161189775913954
0.4590726103633642
-6.526628798805177
-5.669201013632119
-5.681156477890909
-6.5625147596001625
-12.911053615622222
-11.652130152098835
-11.671844068914652
-12.971987600438297
-17.59316443745047
-16.57204881310463
-16.433356086723506
-17.175679703243077
-20.957886753603816
-21.23822080064565
-21.201839135028422
-20.847596139647067
-16.75324142165482
-18.858713957481086
-18.768025066703558
-16.47956712823361
-19.70475701149553
-23.24363751988858
-23.28181311301887
-19.819185555912554
4.542128608562052
-0.5411933390423656
-0.29480340145528316
5.286148272454739
-45.85726202931255
-49.03327344637364
-49.138271761126816
-46.173537973314524
67.42234177235514
56.317058759741485
56.28493920061737
67.32425452861935
-93.2229420915246
-77.83000467903912
-77.80569589324296
-93.14881836995482
58.790022232569754
64.218531367369
64.38010793738067
59.27801848389208
-11.67441223282367
-2.4284670054912567
-2.484034910798073
-11.840740292333066
18.44237225688994
26.57112384121865
26.623436340130866
18.600691001862288
12.226340394467115
19.82690618559718
20.00546918064356
12.765711488202214
24.126746110618114
28.785175928846
28.70075045991689
23.87425034865737
24.301170806400478
26.24011536128819
26.247988121584058
24.325750675052404
17.892824697308242
18.122645940631628
18.12162073981017
17.88924422301352
9.88655034545809
9.526060990989208
9.475787734612823
9.735597405582666
0.15500899031758308
0.07909636665135622
0.01121857762336731
-0.04935905523598194
-9.561645715497434
-9.359384628944099
-9.464018540456891
-9.877879399806261
-18.31094190105796
-18.65919435955584
-18.813056443817914
-18.77737973537296
-23.94432456791401
-26.01603309903294
-26.141267058439553
-24.322341048158705
-24.203520972281694
-28.912353742867708
-28.874430893920362
-24.088421194814146
-12.348064820282161
-19.782774486579
-19.798036967404187
-12.39521221164614
-18.345041376538575
-26.441549006849527
-26.460870219394565
-18.403331074863672
11.625124376267195
2.4804743425920606
2.6343403067439795
12.090447839349508
-59.03550608083606
-64.28854562249035
-64.26350505556911
-58.95966475084424
93.05075324233621
77.75015876535326
77.80948021542281
93.22802982106805
-114.86863644234836
-96.08431181591004
-96.1915779998526
-115.19190910831094
70.48064122814685
77.26435527391732
77.14813452214003
70.13091790303588
-18.711435914039612
-6.200010179542005
-6.222678912803531
-18.779585100710392
17.90285302232951
29.875021227635443
29.80784433055669
17.700676376000047
5.594613582827151
18.60130625963211
18.517118436284363
5.341717734001577
16.428113400004804
28.14853891916573
28.36597991362214
17.08431493677199
33.32851656060666
40.26560347341001
40.23661909159273
33.24207201786339
28.53620487358421
31.177194523625076
31.239441810175776
28.723153847269714
15.93738467991352
16.6057298630476
16.69106264319271
16.197173830121756
0.12874175235629082
0.026252581737935543
-0.07552163768559694
-0.17883076146245003
-16.280414239503443
-16.764424529857934
-16.67092226445675
-16.00167791452259
-28.673224677331746
-31.269712077453732
-31.28607870452106
-28.72276140190661
-32.87752217520028
-39.882942117750645
-39.90063914656639
-32.930559319444
-16.98975174780935
-28.352066915482283
-28.214954575523734
-16.57384673692286
-5.489588218741119
-18.693547001108527
-18.836042501963675
-5.9196691662073135
-17.986408843658864
-29.894746116362512
-29.77631222549826
-17.629653861746192
18.688754376024008
6.060341188684106
5.967690050601959
18.407852170988917
-70.05732514336705
-77.0511485375464
-77.13943675067276
-70.3257891703397
115.38676260318607
96.62200475856662
96.7616320643574
115.80680833104998
-133.57839602138847
-112.09819927997887
-112.23438710160553
-133.98863399401307
79.6491785608232
87.71477325912565
87.84372516069561
80.03930650185794
-23.64536112267524
-8.804269404150546
-8.76683828420937
-23.530600272119045
16.822751615196466
31.809155154041946
31.932141551747918
17.19462868757546
3.0699188970029354
20.48622665926814
20.468426081351936
3.016416721045971
4.59287635050714
23.634024904109538
23.604871672578156
4.505982160568237
13.858775334432721
31.016055970452726
31.032540066167712
13.907459010370076
60.67926089093089
68.26198014803231
67.80658923368901
59.30676916614175
23.95702892821282
26.45961620658636
26.868840764276683
25.18445447832346
0.2683657603338361
0.22731909435242414
0.19273146707564592
0.1646475587040186
-24.075292979367077
-26.470921316184103
-26.7786528384313
-24.99653240107
-60.000151502899826
-67.93825673405081
-67.82420228142291
-59.65858112368733
-14.514801097102463
-31.53908162470907
-31.446668261662126
-14.23381996434182
-4.332515147514641
-23.23631871677935
-23.055677787400782
-3.7846886832267046
-3.611453461460769
-20.959880563430488
-20.90538339689374
-3.447113396599889
-16.644380803219974
-31.62437431514263
-31.73303833603859
-16.974222853779793
23.953271257691085
8.887174028903246
8.635637641884387
23.19183743931353
-79.26400896534324
-87.30078601278365
-87.38210244849324
-79.51103092264384
132.97634578030556
111.42067655269057
111.44966843724251
133.0640125023201
-146.38776177819818
-122.85073143150657
-122.77771855238825
-146.16531264130026
86.88054555375129
95.48671955335885
95.593006785959
87.20363460760564
-27.767851730808616
-11.559326249174774
-11.58451549243182
-27.843558175489306
16.709151085466146
33.42746409215033
33.58389210142195
17.18250452633947
-0.638323338702321
19.149764926172793
18.893741384148598
-1.410048103891313
9.647647500038147
33.18666501622647
33.20306401606649
9.695012780837715
-15.582540490664542
13.092119933106005
12.862712102942169
-16.273094126954675
8.102236792445183
35.29733863659203
36.0090541029349
10.236831231974065
126.55909200944006
131.5377228083089
130.1036878488958
122.26397473271936
-0.36521552223712206
-0.15013055317103863
0.045238873921334743
0.22459955140948296
-127.24863326083869
-132.1263660909608
-130.6457058917731
-122.80998918507248
-8.038416584953666
-35.136534163728356
-35.75733371078968
-9.898318642750382
16.158576074056327
-12.635812232270837
-12.515046720393002
16.521273744292557
-10.037440695799887
-33.55103829409927
-33.55878958012909
-10.057717001996934
1.1521965526044369
-18.855215480551124
-18.822938916273415
1.2510061534121633
-17.028059414587915
-33.45307390764356
-33.3175133606419
-16.620473959483206
27.263451740145683
11.020726687274873
11.001476324163377
27.20266987103969
-87.04326908197254
-95.53675676789135
-95.51279459754005
-86.97261186083779
145.84909273078665
122.61833224399015
122.8451129635796
146.53400922566652
-154.25406745634973
-129.5971511863172
-129.49376291874796
-153.94048997666687
91.06527096685022
99.89763955958188
99.93769159540534
91.18738447036594
-29.14214562717825
-12.335424568504095
-12.487462406046689
-29.602017815224826
16.04529062937945
33.44182931818068
33.456009186804295
16.090110190212727
0.5735551314428449
21.913233849219978
22.063665019348264
1.0270223012194037
-5.973152779042721
19.60301914997399
19.331482144072652
-6.789867619052529
35.56200765632093
68.66028960049152
69.8462234036997
39.12696964479983
-96.30209776200354
-50.70464758388698
-54.1669193636626
-106.71972640324384
45.595188019797206
102.56193893123418
110.71422907337546
70.03317657206208
-0.08912139851599932
-0.11992870178073645
-0.160638396628201
-0.2112262425944209
-45.391463874839246
-102.40835724119097
-110.60765426512808
-69.96923126652837
96.30546979792416
50.84084203839302
54.442173772491515
107.14431413542479
-35.42609497252852
-68.48604408185929
-69.62138542439789
-38.83693794347346
5.699611911550164
-19.73589145205915
-19.32954989001155
6.922826829366386
-0.3050815458409488
-21.691709727980196
-21.876705505419523
-0.8626241623423994
-15.997290686238557
-33.46186234848574
-33.539498187135905
-16.232832523528486
29.970010025892407
12.804873693734407
12.637923843692988
29.465211459435523
-91.32989875413477
-100.1557640992105
-100.18595059635118
-91.42169769946486
154.0292529403232
129.6035797134973
129.71323826210573
154.36071985261515
-157.3982003107667
-132.44560788478702
-132.41224129498005
-157.2954148473218
93.72028883639723
102.34505940321833
102.13268103916198
93.07874107826501
-31.420315949246287
-14.228745304979384
-14.264303425326943
-31.52852044068277
20.432215655222535
38.08030774910003
38.21662098355591
20.841151198372245
-15.387735261581838
5.855571476742625
5.123505820520222
-17.58922754134983
46.092998672276735
73.21115111466497
75.58329696394503
53.2277576206252
-137.3369228122756
-106.13387294951826
-113.8888167059049
-160.6806788612157
405.86449584923685
461.72586792800575
485.4483767868951
477.3326357062906
-959.0352117596194
-881.3201798591763
-940.3489873530343
-1137.3649848895147
0.10035473015159369
-0.017962110228836536
-0.14241065829992294
-0.2736857421696186
958.8494266141206
881.3033627457917
940.5060055889189
1137.7049622535706
-406.1693621315062
-461.9462974341586
-485.57710158266127
-477.3593758828938
137.16921175690368
106.1471485211514
114.09501226618886
161.09551107138395
-46.512402929831296
-73.63325398834422
-76.04652592679486
-53.77069427026436
15.130357357207686
-6.016521776095033
-5.205857110209763
17.568333049770445
-20.091778242960572
-37.84274753089994
-38.07383006578311
-20.787308105267584
32.05385861778632
14.697066515684128
14.614582129288465
31.802797321230173
-92.88479123916477
-101.81593103474006
-101.88023063866422
-93.08028170652688
156.6699838754721
131.74252899736166
131.67885318538174
156.478097085841
-153.78057018388063
-129.31743594817817
-129.3934193784371
-154.0090748919174
91.49680607672781
100.20047262869775
100.12104824837297
91.25811590626836
-29.639448237605393
-12.554646518081427
-12.436465029604733
-29.282105271704495
16.068340379744768
33.51557439286262
33.56629296205938
16.22219050768763
0.2968994826078415
21.53473662957549
21.547772441990674
0.3349954606965184
-5.858431656844914
19.686852019280195
19.38265787437558
-6.773618055507541
35.476376943290234
68.56523591373116
69.73935881163925
39.00529348477721
-96.77546883095056
-51.209757424890995
-54.72708512656391
-107.35952540580183
45.588259072974324
102.5260479869321
110.64392788521945
69.92265698313713
0.05148110073059797
0.07804391998797655
0.1148788072168827
0.1620449386537075
-45.656909400597215
-102.59286224655807
-110.70639211777598
-69.97712257225066
96.6689953263849
51.15870324475691
54.72945790644735
107.41537680104375
-35.86601656442508
-68.7883604299277
-69.81313508981839
-38.94267172412947
5.76441214280203
-19.670122026931494
-19.273492833133787
6.9581215446814895
-0.1613423596136272
-21.532809192780405
-21.69921891624108
-0.663448195438832
-16.110852185171098
-33.52593131642789
-33.54736322443932
-16.17596999788657
29.597068888600916
12.633053673431277
12.655982148833573
29.66553887631744
-91.47548201587051
-100.2981828073971
-100.34723266912624
-91.62337281228974
154.05402213241905
129.69301957683638
129.8764189388603
154.6055726306513
-146.10962058976293
-122.76324351876974
-122.87734132353216
-146.4540246836841
86.47844548057765
95.00737845990807
94.99938023742288
86.45381794311106
-27.14916238375008
-10.975309282541275
-11.018450177274644
-27.278711727820337
16.59414512105286
33.178674788214266
33.18423040769994
16.610350692644715
-0.9086533533409238
19.01870441250503
18.892355215735734
-1.290717365220189
10.040111212991178
33.56321322079748
33.56572358030826
10.045312596485019
-15.904074596241117
12.971825528889894
12.941859712824225
-15.992074985988438
7.836718515492976
35.0472859852016
35.773522421717644
10.016241538338363
127.09531023539603
131.87193564791232
130.25667817052454
122.25335361808538
-0.12148365005850792
-0.11101463064551353
-0.1030930345878005
-0.10030544921755791
-126.37725467793643
-131.5050748870708
-130.22231290163472
-122.53978179814294
-8.036189099308103
-35.19879786297679
-35.89473529951647
-10.122995370067656
15.827673080842942
-12.988659376744181
-12.920290787238628
16.033831879496574
-9.82423736806959
-33.3107469859533
-33.28755647595972
-9.753847691230476
1.2672816193662584
-18.932128927204758
-19.087761315517128
0.796044934540987
-17.199821376241744
-33.58684690669179
-33.41300989873707
-16.676569413859397
27.82250453159213
11.469046561513096
11.362152961548418
27.499732641503215
-86.88582851458341
-95.41779063874856
-95.43161463364959
-86.92864917824045
146.2676752032712
122.7385361562483
122.65654472308233
146.02150488784537
-133.4068988263607
-111.76843489613384
-111.73129121772945
-133.29621759429574
79.67900240328163
87.65303004346788
87.68637274671346
79.77827752940357
-23.560419898480177
-8.825243869796395
-8.897374059073627
-23.778719530440867
17.265107286162674
32.07637123577297
32.02034454792738
17.095267581753433
3.122005268931389
20.73697917535901
20.921957059763372
3.6808291599154472
4.164131371304393
23.14136480074376
23.02865362353623
3.824852372519672
14.088075338862836
31.205077555961907
31.18623931054026
14.030133101157844
60.65768765844405
68.46978807635605
68.25430900044739
60.01002919301391
23.99455682374537
26.520154918543994
26.960712848231196
25.317540870048106
0.34674833295866847
0.1372367199510336
-0.06026477226987481
-0.2510505737736821
-23.883409852627665
-26.455855731852353
-26.92665340518579
-25.299586089793593
-60.29042275715619
-68.23415351752192
-68.15654777828604
-60.058142772875726
-14.20974384015426
-31.191991270519793
-31.052464058622718
-13.787503543309867
-4.42188192717731
-23.559494813904166
-23.64081958308816
-4.666558009572327
-3.2909006695263088
-20.546642819885164
-20.380956291221082
-2.792059861123562
-17.168032521847636
-32.0106056346558
-32.00716610485688
-17.15688708378002
23.682144303340465
8.923190998379141
8.982299447059631
23.85813172161579
-80.04157776059583
-87.97041294025257
-87.97860872326419
-80.06774660851806
132.97917762538418
111.51957572856918
111.64309660485014
133.35371781839058
-115.26287778653204
-96.59060792252421
-96.83393117040396
-116.00063622929156
70.76650780253112
77.41620631888509
77.16942680068314
70.02057982049882
-18.519771924242377
-6.031147406436503
-6.072646398097277
-18.645998646505177
17.562490311451256
29.52197910938412
29.42476500850171
17.268372372724116
4.944456435739994
18.160670418292284
18.274763653054833
5.289354450069368
16.745840098708868
28.212486960925162
28.177663206122816
16.641553324647248
33.147003944031894
40.07503333874047
40.029319177381694
33.00986929703504
28.770511721260846
31.339114035479724
31.343495359644294
28.784079702571034
15.867847515270114
16.59283913113177
16.743584250099957
16.32392969261855
0.15661236038431525
0.05259205540642142
-0.04480559704825282
-0.13882632227614522
-15.788418658077717
-16.47567445319146
-16.56919699953869
-16.074542911257595
-29.015639894641936
-31.61421406082809
-31.644314576406032
-29.106346587650478
-33.36064613983035
-40.132114752195776
-39.92567219445482
-32.73724760953337
-16.752513240091503
-28.223520618397743
-28.190760291647166
-16.654788316227496
-5.702377633657306
-18.82273761695251
-18.882676722016186
-5.882456132676452
-17.329639673233032
-29.456267150118947
-29.535117538180202
-17.567200183402747
18.884784649591893
6.231117662042379
6.127507912460715
18.571425474248827
-69.96065580751747
-76.83099465211853
-76.77111420873553
-69.77935471851379
115.14377654413693
96.46635437058285
96.6909075495787
115.82342865993269
-92.40338229294866
-77.52482310123742
-78.00280491448939
-93.84998553339392
58.842833468690515
64.04860327392817
63.96655152924359
58.59251983650029
-11.944023708812892
-2.606369418092072
-2.581599754281342
-11.869636953808367
18.89139654673636
26.799375656060874
26.644763509742916
18.425071362406015
13.123245331458747
20.49222205299884
20.476828298531473
13.077354243956506
24.243879890069366
29.031599996611476
29.075947663746774
24.37980299256742
23.73923220857978
25.872046970762312
26.054713608697057
24.291660947725177
18.339268599636853
18.651555735617876
18.770020832307637
18.69949530530721
9.808523064479232
9.3976607080549
9.291533119045198
9.488953350111842
0.09402256924659014
0.10799427144229412
0.1387282214127481
0.18629211420193315
-9.997012411244214
-9.727587459608912
-9.762948190327734
-10.103288148995489
-18.038399638608098
-18.30045715905726
-18.338371775113046
-18.153203603811562
-23.804031517822295
-25.77246217476204
-25.783940931782126
-23.838547252118587
-24.303685603663325
-29.058096141554415
-29.074195792432874
-24.35147537617013
-12.907654978334904
-20.148677222896367
-19.978826452046633
-12.393512170296162
-19.332947524730116
-27.077049842569977
-26.758578475099057
-18.372634212952107
12.075010122032836
2.63683298882097
2.5272272063884884
11.743546878453344
-58.929497429868206
-64.06822787830606
-63.906571698375046
-58.44053926342167
92.89493961306289
77.55848746793345
77.56550174602307
92.91770159592852
-67.630340651609
-56.57880820892751
-56.62353581748903
-67.7657505357638
46.26236074883491
49.274453684687614
49.211631847545505
46.07150496728718
-4.711840435862541
0.5851410301402211
0.553854395635426
-4.806243298575282
19.362168001011014
22.92065149731934
22.953091154806316
19.46036657691002
16.592165069654584
18.758667937479913
18.721803008578718
16.4818547219038
20.791318274103105
21.171058669686317
21.239397485740483
20.998232446610928
18.078481720760465
16.991578735411167
16.810201534070075
17.533296815119684
12.731498072855175
11.658370027318597
11.87218604888767
13.378995196893811
6.505669621750712
5.744584278203547
5.857113219797611
6.84594242554158
0.0868641771376133
0.035226112231612206
-0.002646829467266798
-0.027146312408149242
-6.853240633383393
-5.820433646440506
-5.660596415866166
-6.370126800611615
-13.325959278270602
-11.893143445253372
-11.772275340743363
-12.960881099570543
-17.57966625271365
-16.681330041959882
-16.69544830545783
-17.62120571034029
-20.997518399264663
-21.186619201675057
-21.074072839226574
-20.65748725179583
-16.69526277948171
-18.77668586326763
-18.662981131579727
-16.350441882386804
-19.79307756223716
-23.262621647212654
-23.22831750381738
-19.6886486064177
5.217860928038135
-0.30271674250252545
-0.46952765760943294
4.713146147551015
-46.052825397579
-49.15924768941477
-49.18261450319551
-46.12235401943326
68.19515962572768
57.116487592924386
57.16450386075303
68.3408443199005
-40.35676180012524
-34.03190892748535
-34.116042346693575
-40.61078420653939
36.049927689135075
36.38184975180775
36.353689540177584
35.964861958287656
5.2573847053572536
6.173073201440275
6.079238670878112
4.97387118358165
21.981612965464592
21.298865595832467
21.446951505728066
22.427836451679468
18.686693891882896
16.829890171065927
16.833612530492246
18.699175745248795
19.570149316452444
16.83489958010614
16.841075618751347
19.589131829328835
15.943518773652613
12.908264502882957
12.750839862041175
15.468528652563691
10.803577778860927
8.611554310657084
8.794345874339342
11.356439321301877
5.966145284939557
4.5987027725204825
4.577676351647824
5.9038093239068985
-0.5832233470864594
-0.43003671104088426
-0.2970858118496835
-0.1816030303016305
-5.232956768013537
-4.0200222921557724
-4.128852260299027
-5.55966604501009
-11.317952540237457
-8.967862339690328
-9.010342601686716
-11.44533379143104
-15.803719509392977
-12.901229255832732
-12.88922534044832
-15.767628909088671
-19.91556473542005
-16.992645787075162
-16.825851841364056
-19.41151373460889
-19.04906777665019
-17.12614622944966
-17.074152789777145
-18.88920623064041
-22.100553618045524
-21.113863588077947
-20.94310611858964
-21.584058098960668
-5.420919272350147
-6.4092351156286895
-6.409296193625778
-5.4197121693287045
-36.09137092647143
-36.4149416310247
-36.383437524782494
-35.99667536071502
40.37611408671364
34.01761811168399
34.061207285383716
40.507697105407715
-18.692179329693317
-16.799589689821005
-16.85496690776199
-18.86129026580602
20.944959313608706
18.60989577230066
18.531295271590352
20.707442674785852
6.03539109043777
3.18857239279896
3.1267893789336085
5.848583465442061
14.991100741550326
10.675367815420032
10.56875227484852
14.670382781885564
12.893548991531134
8.024017435498536
7.879041369073093
12.455007761716843
12.605027097277343
7.754871499724686
7.671561636030674
12.353809613734484
9.316749929450452
5.197467917576432
5.227035274729133
9.406513886526227
7.1452742968685925
4.074018769431859
4.105131579563022
7.239657476078719
3.7117089312523603
1.9320698166266084
1.8077977923676372
3.3386451029218733
0.11608114652335644
0.202322487719357
0.30669495509937406
0.4317174218595028
-3.3414652259089053
-1.8146748817525804
-1.9196854112669826
-3.657926092389971
-6.922094835434109
-3.7642663824371994
-3.6962117054499686
-6.71630082745105
-10.15252552786842
-5.992002223152667
-6.031406680587679
-10.271845602430403
-12.574136642739177
-7.778778584674001
-7.756753033027053
-12.508127377834171
-12.77684976067394
-7.787073079496622
-7.499178016092628
-11.90695234714076
-14.93568378710188
-10.810068174730986
-10.901124393567443
-15.207998350728303
-6.364163197577
-3.2822211435995996
-2.9888416710309684
-5.477805642876774
-20.731519598979503
-18.44715926144272
-18.410101407556795
-20.619536361540668
19.126083641545847
17.155508240452036
17.149383371230215
19.106959695345722
12.898940060287714
11.061421784572303
11.098225169815123
13.00947392359376
37.96870454214513
32.76684725098312
32.70796483382583
37.792698494158685
40.6471487544477
34.01339001581073
33.894035500474274
40.28716457821429
44.981768349185586
37.58273160737008
37.62054105754942
45.09414935763925
42.92127729859203
35.27612162567675
35.089498015120625
42.358145295642316
37.17376391496509
30.465872034430504
30.541526028886437
37.40083173010498
29.33911047130823
23.890957025811076
23.988194902427495
29.63081768155098
20.585314121562988
16.54375580046326
16.425989113748074
20.229588373098522
10.283846120815724
8.382179866544902
8.512887530494481
10.679245900828391
-0.46772468741983175
-0.4676887742243707
-0.4866837337613106
-0.5227939267642796
-10.336947965435684
-8.289970650337636
-8.26235671248287
-10.255465688183904
-20.00360936811194
-16.106094584800303
-16.104106582701206
-19.99817127501592
-29.477523864246905
-23.95320290327072
-23.9756747642532
-29.54745342442766
-37.13102829665877
-30.42982609756291
-30.502263169037178
-37.350445753196254
-42.39002365921624
-34.9916770637501
-35.04030123539269
-42.53557721013203
-45.40418899478391
-37.94887171708979
-37.950494199059904
-45.408883380005136
-40.65656432742253
-33.96954521036241
-33.79062169010285
-40.11726164002903
-37.368560466798954
-32.29668583360035
-32.34747812396381
-37.52190207049716
-13.193202349590138
-11.421394219389185
-11.540116360585671
-13.550766469968949
SCALARS stress13 float
LOOKUP_TABLE default
-39.59558070264757
39.57362126279622
39.85838200640865
-41.34562878962606
-39.556528590619564
39.64874210488051
40.5093606087612
-40.68196452502161
2.416509620845318
8.502489693462849
10.213631846010685
11.11271014623344
10.980354771018028
10.224929166957736
9.528200708329678
6.873040015809238
2.044259523972869
0.8930988227948546
-3.2238623779267073
-6.068548194132745
-8.14932638593018
-9.210117308422923
-11.003714031539857
-11.338641182519495
-9.606206693686545
-8.552908344194293
-2.104022340849042
54.4500866625458
125.96245693881065
226.60096979141235
341.9687142474577
458.9759548306465
567.0176551099867
657.4727943362668
726.0999066578224
767.0938353305683
781.7443308522925
768.1414092979394
725.3861059197225
657.393249659799
567.5729166828096
459.59461226081476
341.9560409053229
227.06796135404147
125.67715225217398
52.945375823415816
-2.936617579194717
-7.276748124277219
-9.713189508765936
-10.419519584160298
-10.225812777644023
-9.215476188110188
-8.792016074992716
-5.361817605327815
-3.4929847824387252
0.053339676931500435
2.416590259410441
5.04051951225847
8.134137305431068
9.250430165790021
11.459452305920422
10.965624829754233
9.407860796898603
8.87362761888653
1.1966668358072639
-53.613717867061496
-126.91787380725145
-227.7204031944275
-342.81622821558267
-459.47322395350784
-566.8635725155473
-657.6096808789298
-725.9238442145288
-768.0390336448327
-781.6101069524884
-767.5359455663711
-724.9551930204034
-658.0708770528436
-567.8952173050493
-459.14104347862303
-342.5753917694092
-225.999687936157
-126.81746611185372
-53.80753172188997
1.822643257677555
8.610714508220553
10.104554329067469
11.417859435081482
10.258640792220831
9.688626233488321
8.528187985531986
6.8588754422962666
2.8824926717206836
0.499463003128767
-3.934731276705861
-5.111215806566179
-8.212699675932527
-9.145504995249212
-10.883545295335352
-12.019233332946897
-9.751367251388729
-9.062894139438868
-2.407390024513006
54.074797058478
127.09911855589598
226.37985781393945
342.21424364484847
458.7002676576376
567.7400872679427
657.6032260591164
725.6732591409236
767.8510938775726
782.3195877498947
768.9244605251588
726.4173829616047
657.6936056986451
567.3414207680617
460.1244090178516
342.89062396390364
227.31564808718394
126.66178241360467
53.5196776650846
-1.7862467430531979
-9.177360236877576
-10.611572452122346
-10.80926256091334
-10.70571991475299
-10.111246156739071
-7.687905980274081
-5.385038462933153
-2.693351172376424
-0.44885660614818335
3.1444836952723563
6.460290327202529
8.389965383335948
9.345128146000206
10.054749418981373
10.686312449164689
9.228686019778252
8.243432977236807
1.766995320096612
-53.67805396579206
-126.27508528809994
-227.40983161050826
-343.1558223729953
-459.4913364229724
-567.2998948842287
-657.9596404386684
-726.3077389057726
-767.3061550883576
-782.7491754544899
-767.737745853141
-725.689121148549
-658.3651360161602
-567.8100880291313
-459.3879787288606
-342.6151698101312
-226.76248764246702
-127.04924017749727
-54.21210744231939
-39.5555133074522
-39.532060626894236
-39.523598439991474
-39.53126167692244
39.55733839049935
39.55746388994157
39.572225315496325
39.60201484989375
39.952416212065145
40.06487444334198
40.19444101175759
40.341878776671365
-41.163491763174534
-41.00735710375011
-40.874569898471236
-40.766214028932154
16.861780311912298
-22.318389661610126
-53.26712393388152
-89.48049130104482
-123.62812648061663
-153.28348471038043
-175.6322505204007
-192.55542808305472
-202.56461349409074
-206.0678961025551
-202.99560654815286
-192.48040897678584
-175.60828281287104
-152.8468512520194
-123.07253955863416
-89.61909400764853
-53.723348771221936
-22.327957136556506
17.279513168148696
47.93149193003774
25.634860618039966
35.414106510579586
40.33125085569918
48.63403293583542
56.091201750561595
63.631249848753214
69.9153696950525
73.80558035895228
75.18318738881499
73.80356720089912
69.93636105861515
63.91530279442668
56.93368504662067
48.298712864518166
39.885971828363836
35.79464430641383
25.266860333271325
47.5754835838452
53.85471445694566
11.581066314131021
2.974802726879716
-14.550707935355604
-30.804097457788885
-43.61934558209032
-52.72460191976279
-59.9915619045496
-63.55059621203691
-65.71098273433745
-63.046195461414754
-59.611841027624905
-53.577233565971255
-43.292088475078344
-30.01302040554583
-14.885985639877617
4.186251059174538
11.039432913064957
53.738859984092414
60.37524148635566
23.004209256730974
23.50652419310063
12.896040320396423
2.395924652926624
-5.823974307626486
-11.90760059747845
-16.069486777298152
-18.193944009020925
-14.60198656283319
-18.251295674592257
-15.201184622012079
-12.99253261089325
-6.225205531343818
2.93715466465801
12.659476248547435
24.08940462768078
22.630306251347065
60.15693150740117
57.39620125666261
22.442340809851885
22.79252632241696
12.521721635945141
-1.679300555959344
-20.27984523586929
-31.887442213483155
-40.83076963480562
-42.285839630290866
-58.16076693497598
-42.15735774952918
-40.63572884630412
-31.560395234264433
-20.338574369437993
-1.8191103991121054
12.104657661169767
22.992575858719647
22.01389612071216
57.32574217021465
50.723064630292356
21.868109231814742
24.674932566471398
20.33116331603378
14.734035418368876
-5.76715012639761
-33.84684710204601
-36.659852642565966
-56.634800932370126
-4.663354731164873
-56.42998158931732
-37.23005623649806
-33.223669494502246
-6.4969029650092125
14.236923249438405
20.399660454131663
25.216145639307797
22.08430613949895
51.06320471595973
40.56383099127561
18.50979216210544
21.6339191775769
19.683246445842087
19.8032364314422
19.144483626820147
-19.83960927464068
-72.64068622887135
-29.948941454291344
-207.43818400148302
-29.273343190550804
-73.17082777060568
-20.22989772539586
18.542040770873427
20.488271739333868
18.938882503658533
21.801382350735366
18.416531711816788
40.068778755143285
27.80063314642757
13.187829427421093
16.280765699222684
15.514869081787765
18.06137657817453
23.384372876025736
44.514759498648345
-45.15763897821307
-190.29038830380887
318.45353311672807
-189.88970914669335
-44.217200993560255
44.25276028178632
23.59984757192433
17.77696462534368
15.997656427323818
15.696535016410053
12.68266497598961
27.673667406197637
14.104567103087902
6.353892114944756
8.897887310013175
8.384140878915787
10.617038278840482
15.227156577631831
18.94411463662982
115.05736247822642
-59.785337016917765
-1168.9392200773582
-58.85705585218966
115.81518796645105
19.366797728464007
15.482006451115012
9.824246768373996
8.676177433691919
7.896200412884355
6.424322839360684
14.805051198694855
-0.3420405937358737
0.15811417531222105
0.0032071880996227264
-0.1337772998958826
-0.0755918500944972
0.023881464265286922
0.00882140826433897
-0.05209004692733288
0.10052130650728941
0.3039750223979354
0.02043288853019476
-0.4130609994754195
-0.2478409823961556
-0.1883088550530374
0.070666101295501
-0.07091544661670923
0.019548552110791206
0.13469661818817258
-0.19972323486581445
-14.763054762035608
-7.201819992624223
-8.1971795251593
-8.815580516122282
-10.178922636434436
-14.305946649983525
-18.98930279817432
-115.55408471543342
58.75734428409487
1169.9806322921067
59.358171234838665
-115.28911921894178
-18.557061842177063
-15.142515246756375
-10.174024872481823
-8.458544998429716
-8.061159149743617
-6.6968734143301845
-13.501511620357633
-27.623924010433257
-13.626880359835923
-15.858252591453493
-15.598547611385584
-17.823933721520007
-23.066925284452736
-44.564338548108935
44.8225910263136
189.68314850423485
-317.85348644759506
189.7655288116075
45.324149139691144
-45.053495600353926
-23.43942306563258
-16.95554852532223
-15.868979396298528
-16.219293192960322
-13.090910473838449
-27.94950288021937
-40.46336686331779
-18.289545627310872
-21.675348662771285
-19.251312028616667
-19.8884210055694
-19.296371096745133
19.794464685954154
72.72568655665964
28.78490828163922
206.61547568719834
29.76654011802748
72.63273054175079
20.13452382851392
-19.212674185167998
-20.517774106003344
-19.152367036789656
-21.561471581924707
-17.990265399683267
-40.76502136141062
-50.698408535681665
-21.97850416228175
-25.507958434522152
-20.44401852041483
-14.96558059193194
6.202243637293577
33.46126093249768
36.34689955320209
56.86888558138162
5.258631454780698
57.14890219364315
37.460591326933354
33.47765075508505
6.509675422683358
-14.914283781312406
-19.153607507236302
-25.452223411295563
-21.43199159670621
-50.94515089620836
-57.739780282601714
-22.38112614862621
-22.496469157747924
-11.466133275069296
2.4941823929548264
20.054542080499232
30.9810973405838
41.465916621498764
42.181264985352755
58.60623095370829
41.85377756645903
40.824246981181204
31.154928690753877
20.6466049044393
1.8167475704103708
-12.03487495193258
-22.858848702628165
-21.738114981912076
-57.09401383041404
-59.79268566053361
-23.04534504469484
-24.426264359615743
-12.91560117341578
-2.394989007152617
5.972954557277262
12.435338373295963
16.141466280445457
18.07219700096175
14.341583488509059
18.377242324873805
15.944300703238696
12.305603286251426
6.228908691555262
-2.536553708370775
-12.975802231347188
-23.589976926567033
-23.365423001581803
-59.96769126667641
-53.506332602351904
-11.408029993996024
-2.8360068323090672
15.170076349750161
29.938310987316072
43.314110374078155
53.54254651349038
60.568507766351104
63.20949053019285
65.46802244987339
63.81098367134109
60.32228601258248
52.98226636974141
43.32484784023836
30.23825958953239
15.451800068141893
-3.396445735823363
-11.575437794672325
-53.44197209866252
-47.690527754835784
-25.03544813208282
-35.667340353131294
-39.39564884081483
-48.742202879861
-55.93357083108276
-63.780053415335715
-69.727105692029
-72.76432739757001
-75.64621041808277
-74.01733882864937
-70.37128835823387
-64.2706945235841
-56.3663389692083
-48.06695427489467
-40.43603857117705
-34.82965942309238
-25.168092095293105
-48.2927607872989
-17.157343136146665
22.507787032052875
53.8840883243829
89.22189461067319
123.3207284361124
152.5982773238793
175.7203475991264
191.97247368702665
202.866564264521
206.72176758619025
202.36444086767733
192.93979499023408
175.22006949735805
152.62896770006046
123.77280759788118
89.80451089190319
53.55646332225297
22.576191107393242
-16.597175826318562
16.877799151465297
-22.77795553766191
-53.48738641105592
-90.07656313478947
-123.65358674712479
-152.50565740279853
-176.08596729300916
-193.2475748481229
-202.65275297127664
-206.42571515776217
-202.65547408349812
-193.34802068024874
-176.35558977164328
-153.3278372734785
-123.5825425973162
-90.19458218477666
-53.53555954620242
-23.081091708503664
16.956805074587464
47.42934006266296
24.58353815972805
35.240607669577
39.55288387648761
47.95295659545809
56.66410211659968
63.68437126465142
69.64231564477086
73.93673782981932
75.57710687536746
74.0499217286706
70.07379145547748
63.63193029630929
56.47575196903199
47.9575449405238
39.758812881074846
35.00279239937663
24.921800416894257
48.34862260706723
53.56775743700564
10.941100927069783
3.627278517000377
-15.460828019306064
-30.193510779179633
-43.53183095995337
-53.559092675335705
-59.310168415308
-63.01665831822902
-66.32528053876013
-63.20200114045292
-59.78353190422058
-53.12335040140897
-43.20288207195699
-30.662947403267026
-15.028194351121783
2.639913679100573
11.379148309119046
53.32619726192206
59.529295820742846
23.622135625220835
23.721110845915973
12.318614665418863
2.536369552835822
-7.2349619111046195
-12.702960960566998
-16.100281084887683
-18.457153343595564
-13.393494627438486
-18.684282198548317
-16.298065437935293
-12.460461173206568
-6.28986313380301
2.41825692076236
12.587198936380446
23.643124765716493
22.71510303672403
60.10163566656411
57.56884693633765
20.808278243988752
23.045973310247064
11.849569372832775
-2.2562609296292067
-20.382065074518323
-30.748266207054257
-40.93604183755815
-41.50368708744645
-62.45940072555095
-41.491046662442386
-40.901256676763296
-31.612474905326962
-20.462065368890762
-2.5154662737622857
12.055456986650825
22.56575245037675
22.398851157166064
57.250302447006106
50.48094295710325
21.208815055899322
25.056838603690267
20.22996037825942
13.933016538619995
-6.187690244056284
-33.66184805892408
-35.92949446570128
-58.67534760572016
7.098296056501567
-58.80368106253445
-36.552191976457834
-33.81246611569077
-6.247766237705946
14.956636775285006
20.15026693791151
24.72291998937726
21.96981888450682
50.167500832118094
39.87187074497342
18.43781324196607
21.802649278193712
19.346722186543047
20.40291317179799
19.527714832685888
-20.032701401039958
-73.24287280067801
-23.460055072791874
-245.79282237309963
-22.942984675988555
-74.39210391230881
-19.978279097937047
19.735603013075888
20.021194838918746
19.291508285328746
21.760425221174955
17.36629846226424
40.13923504482955
27.627078178338706
13.274008927866817
15.94966992083937
15.149274702183902
17.813233844935894
23.583793082274497
43.6901073101908
-42.0887590656057
-208.24378364905715
437.20660513918847
-208.47482153773308
-42.33271838724613
44.19362838380039
23.626976194791496
17.707565687596798
15.871580376289785
15.657628178596497
12.83122876426205
27.932038514874876
15.049894130788743
7.08537907525897
8.353607192635536
8.594105213880539
10.622587352991104
14.249660921283066
21.273886024951935
108.3838439527899
-18.697322425432503
-1470.6958675449714
-19.83091833628714
108.02044462226331
20.37162459269166
15.158966759219766
10.456978290807456
8.283761416561902
8.495635436382145
6.387097162660211
14.194038127083331
0.19832890294492245
-0.45663168653845787
-0.5135089475661516
-0.2951696524396539
-0.091528395190835
0.6422057766467333
-0.1681972872465849
0.12343077454715967
0.3504671407863498
0.5438721338286996
0.05466134753078222
-0.08330062218010426
0.5527563947252929
-0.2695477791130543
-0.05768791912123561
0.2263266509398818
0.5386342299170792
-0.0893036387860775
0.5368495746515691
-13.849606468342245
-6.633656203746796
-8.486164812929928
-7.631304171867669
-10.693727917037904
-14.778649267740548
-21.099727478809655
-108.31943816132843
18.578103785403073
1469.9008008157834
18.992061655968428
-108.22828968800604
-21.573577005416155
-14.843480401672423
-10.436665837652981
-8.652290998026729
-8.344237704761326
-6.987774977460504
-14.422292443923652
-27.87279875855893
-12.537684820592403
-15.511467393487692
-16.153528704307973
-18.02386121917516
-24.067346001043916
-44.74219456128776
42.529556394554675
208.6919093662873
-438.0637651095167
208.70729624293745
42.39729593228549
-43.2886578864418
-23.758910446427763
-17.97767737880349
-16.014131042174995
-15.57622509682551
-13.495847999118268
-27.864611314609647
-40.64200852252543
-18.24410088825971
-20.99544227309525
-19.388148495927453
-20.209613834507763
-19.53536759596318
19.763135875575244
74.51617241278291
23.15775013808161
246.30440825922415
23.02426566183567
73.65103403758258
19.759099557064474
-19.669656935613602
-20.321063588373363
-19.675587905570865
-21.236522472463548
-17.856360096950084
-40.716099040582776
-50.62186668626964
-21.62526884675026
-25.03975958749652
-20.43039472773671
-14.460669660940766
6.452179536223412
34.112401817925274
36.52334368228912
58.62496289331466
-7.645890534389764
58.511480514891446
35.81188842700794
33.75729560991749
6.068456389941275
-14.926904529333115
-20.51216529402882
-25.122388887684792
-22.066952367313206
-50.93569602142088
-57.02006584499031
-21.799663092009723
-23.045422011055052
-12.068540264852345
1.4493813030421734
20.482444297522306
31.599390764720738
40.87234289012849
41.50005292892456
61.836499047931284
41.04418183164671
41.2778263669461
31.441331554204226
20.019838300533593
1.9171749711968005
-12.422709500417113
-22.48456437024288
-21.852907463442534
-57.517120339674875
-59.973782069049776
-23.064813097007573
-23.404005186632276
-12.724958159029484
-1.9784309668466449
6.540748184546828
12.5898332670331
15.655134875327349
18.506149966735393
13.812416017055511
18.652734326198697
15.903910010121763
12.767004292923957
6.104194822255522
-2.6093799457885325
-12.40841926750727
-23.712024139706045
-22.798235159832984
-59.54816953535192
-54.29078752361238
-11.777536361478269
-3.358903346583247
15.910232813097537
30.258400595746934
43.0074864262715
53.03144273906946
59.42479948978871
63.73122036783025
66.46958497259766
63.51626220345497
59.13758404320106
52.869367675855756
44.123196978121996
30.459305292228237
15.338097531115636
-2.928523414535448
-11.345778064103797
-53.30219347320963
-47.915652302093804
-24.280154837295413
-35.07832094002515
-40.20718246512115
-47.197526573203504
-55.88314539659768
-63.76655245013535
-69.66789052495733
-74.43040471570566
-75.74774157488719
-73.31663102889434
-69.68546438962221
-63.744619216769934
-56.029644487891346
-48.64951577875763
-39.26696101343259
-34.68172181211412
-24.594060816220008
-48.52030779328197
-16.837020774371922
22.362325683236122
53.26151399966329
90.6026966990903
123.00232726056129
152.4978491300717
175.99962246138602
193.10085354046896
202.59188563283533
205.77639702195302
202.99374465225264
192.47380323708057
176.30915802903473
152.34250447526574
123.73460837034509
89.72701305174269
53.005288998247124
22.65331644017715
-17.08586113085039
1.3602361213415861
0.7712879460304976
0.653950247913599
1.00667554885149
6.3846698962152
5.331730652600527
5.354270335286856
6.451396640390158
7.383698558434844
5.952252639457583
5.930775124579668
7.319288296625018
7.993265187367797
6.4574286341667175
6.5179148353636265
8.176162486895919
7.664532447233796
5.930273415520787
5.787490665912628
7.235096286982298
7.2185464184731245
5.658298786729574
5.552384728565812
6.900415487587452
6.917503642849624
5.510510101914406
5.312932008877397
6.3226409666240215
5.15043530985713
4.284311428666115
4.281171751208603
5.141507046297193
1.3671103427186608
1.1092599220573902
1.2747006202116609
1.8660510070621967
0.786750003695488
0.6949052643030882
0.6175112463533878
0.5527483290061355
-2.473981373012066
-2.167335013858974
-2.3082373160868883
-2.8980140443891287
-4.209387978538871
-3.1829183511435986
-2.99351560510695
-3.6386965475976467
-5.777305277995765
-4.593953610397875
-4.606757666915655
-5.8162605203688145
-6.319932312704623
-4.864183988422155
-4.851873327977955
-6.282757255248725
-7.781209642067552
-6.152830275706947
-6.129484516568482
-7.710851875133812
-8.275787387043238
-6.804476381279528
-6.938821547664702
-8.681324534118176
-6.841368884779513
-5.466458750888705
-5.494485422037542
-6.926838853396475
-6.505248226225376
-5.525826307944953
-5.627073992975056
-6.809376982972026
-1.2185680381953716
-0.8029929241165519
-0.8636927912011743
-1.4001600947231054
54.51570493262261
54.514738210476935
54.439715538173914
54.29100389406085
124.87978332769126
124.4488023519516
124.67399562615901
125.5573910009116
223.3568168124184
221.70730518270284
221.66312691383064
223.22354500740767
336.8143926933408
334.25207703653723
334.3004553662613
336.9590889830142
451.87000145670027
448.276895952411
448.22226296085864
451.7034805063158
558.5259981648996
554.3360509118065
554.4788409359753
558.9553254498169
647.6556360954419
642.7435222277418
642.7698792601004
647.7337933322415
715.296032262966
709.8341768207029
709.7495345808566
715.0406728424132
756.0499822376296
750.583307094872
750.7337843491696
756.5009572058916
770.4756858875044
764.8787352177314
764.993411373347
770.8188915885985
757.0618377337232
751.5787149881944
751.7330215098336
757.5265442184173
714.8912199768238
709.7267877114937
709.9315136154182
715.5058232387528
647.6229679668322
642.7504185657017
642.8095225156285
647.8005722970702
558.8854414303787
554.5034849345684
554.457845550729
558.7459616546985
452.6204436873086
449.1733729245607
449.27909710025415
452.93627468449995
336.93779212329537
334.5113975193817
334.69675170630217
337.4941608714871
223.8875214663567
222.31595108949114
222.36466376006138
224.03415276517626
124.56257083662786
124.10046049323864
124.2953745102277
125.14874932263047
53.2435623514466
53.452094866661355
53.56598648102954
53.58586008264683
-1.7513883985811844
-1.0425297177862376
-0.8136297566816211
-1.0635786418570206
-5.519699360942468
-4.822391672525555
-5.1980708269402385
-6.652413986856118
-7.085195213672705
-5.852270478382707
-6.029478385695256
-7.619265891727991
-7.351256771245971
-5.850027821259573
-5.927308183861896
-7.584955451777205
-7.159563997294754
-5.667191944550723
-5.761388073908165
-7.4448154885321856
-6.498003675835207
-5.222315614344552
-5.399814971489832
-7.032624136423692
-6.181356775574386
-4.762433331925422
-4.542796293273568
-5.521647072862834
-3.699911811389029
-2.8685975088737905
-2.8727380516938865
-3.713769461028278
-2.4662511269561946
-1.8724957848899066
-1.7140289628878236
-1.9893440823070705
-0.04617503425106406
-0.1463309391401708
-0.24703930038958788
-0.3477203482761979
1.701466256286949
1.4137120340019464
1.557807574979961
2.1356388051062822
3.6536471117287874
3.096775389742106
3.3774483473971486
4.499869016930461
5.814912682399154
4.675402618013322
4.725541215389967
5.966286350041628
6.390710407868028
4.965754449367523
4.985150020569563
6.448799233883619
7.996073719114065
6.120751460082829
5.841825087554753
7.158463883213699
7.746212798170745
6.104285244829953
6.049746231175959
7.58197077549994
6.586255953647196
5.153203799389303
5.118288930505514
6.481272602453828
6.593067065812647
5.3847624054178596
5.260152138769627
6.2172138430178165
0.38929521944373846
0.03970989864319563
0.15336725488305092
0.7300810785964131
-53.79285197146237
-53.89260486140847
-53.905549513176084
-53.83223086409271
-125.46867327578366
-124.67941410560161
-124.55138726066798
-125.08389804512262
-224.42806703411043
-222.74610892683268
-222.68427529931068
-224.24153259024024
-337.650485932827
-335.0922274151817
-335.159211195074
-337.85181035567075
-452.40607116091996
-448.86065794620663
-448.8632424771786
-452.41329018305987
-558.3104569539428
-554.0605888264254
-554.1462174700573
-558.5673158690333
-647.8263242654502
-642.9516192851588
-643.021072586067
-648.0332663627341
-715.2755678566173
-709.9708413137123
-710.0470051923767
-715.5037412913516
-756.6813961965963
-750.9113575993106
-750.7659316621721
-756.243002422154
-770.4556153258309
-764.9709724122658
-765.1966621996835
-771.1342824976891
-756.3721048124135
-750.7908468497917
-750.8306989734992
-756.4917137045413
-714.4063796559349
-709.1854008389637
-709.3309073355049
-714.842815734446
-648.2634678333998
-643.3713679760695
-643.4295715512708
-648.4375923899934
-559.2229788359255
-554.8637015167624
-554.8472809959203
-559.1717997677624
-452.1230031903833
-448.6268289294094
-448.6770043913275
-452.2711911536753
-337.36655000038445
-334.7560026254505
-334.76282630488276
-337.3874970600009
-222.97094095498323
-221.52598936855793
-221.67662345059216
-223.42400403134525
-125.53527484834194
-124.91543489135802
-124.96103283017874
-125.67246577143669
-54.03500245511532
-54.192158337682486
-54.2723522502929
-54.276885537430644
13.138124307617545
11.256873957812786
11.260883953422308
13.149364907294512
-18.562056643888354
-16.705621028319
-16.79481696151197
-18.832051813602448
-40.63116691634059
-34.267793983221054
-34.308527410030365
-40.755530988797545
-67.63022512942553
-56.65169861167669
-56.76740312576294
-67.97990425489843
-93.19273900147527
-77.82786076329648
-77.83251828420907
-93.20673686731607
-115.68621642421931
-96.62916581798345
-96.4760054340586
-115.2237780066207
-132.96556656621397
-111.46672494057566
-111.55512715969235
-133.23214643541723
-146.21478948928416
-122.88346623443067
-123.01838863641024
-146.62170573417097
-153.99277812987566
-129.4778846874833
-129.49452894553542
-154.04266276583076
-156.83971542678773
-132.01946150232106
-132.0889279777184
-157.04968802072108
-154.31382794305682
-129.70252319797873
-129.63472611550242
-154.10986519791186
-146.16931417305022
-122.87064717151225
-123.0403330149129
-146.6819551559165
-132.99597794748843
-111.55221476312727
-111.69770330842584
-133.43573512602597
-115.49381405860186
-96.67796533741057
-96.77053839992732
-115.77374051418155
-92.77888212352991
-77.52969276998192
-77.62857078202069
-93.0768443737179
-67.7514778226614
-56.76350908447057
-56.87628621049225
-68.09087522886693
-40.975776142440736
-34.51820980105549
-34.4808526718989
-40.86157366540283
-18.611858199350536
-16.80445421114564
-16.95232499949634
-19.05756251886487
13.460422115400434
11.497694229707122
11.43335051368922
13.26815328747034
37.692161936312914
32.47026488184929
32.37330981902778
37.39854992367327
20.94864102639258
18.479801448062062
18.275101639330387
20.329551612958312
36.11818574368954
36.440668819472194
36.40841001458466
36.01987498998642
46.31243191845715
49.22785937599838
49.07630395144224
45.85495530534536
59.036634544841945
64.17907266598195
64.04675444494933
58.63661334477365
70.01084012258798
77.03535903897136
77.14824729878455
70.35222744010389
79.5329371728003
87.49892722070217
87.51042268052697
79.5672647766769
86.89636839367449
95.3688462106511
95.3161733681336
86.73713392857462
91.39283024985343
100.20466226059943
100.23041080310941
91.4711101129651
92.97027305606753
101.9074957119301
101.9857260659337
93.20611290168017
91.39317546132952
100.21711763180792
100.26550922263414
91.53982670605183
86.98598115611821
95.53119948878884
95.55805434286594
87.06831051409245
79.73350566718727
87.6258505731821
87.5721007604152
79.56979515124112
70.57197618670762
77.3562126122415
77.26743183657527
70.30367130599916
58.77956768870354
63.99343858379871
63.9274283638224
58.58006272278726
46.013907245360315
49.065672165714204
49.04203296266496
45.94246692303568
36.37442826665938
36.57495925668627
36.42125229537487
35.90934034623206
20.74379019252956
18.424648049287498
18.358695026487112
20.543856486678123
37.55379905086011
32.56309075374156
32.716856315732
38.015956023707986
40.859842324629426
34.270150020718575
34.21491143107414
40.693426402285695
5.929527763277292
3.021610924974084
2.8968734610825777
5.552567731589079
5.082011386752129
6.2060331692919135
6.33439108543098
5.4706440987065434
-4.203558378852904
0.9238906120881438
0.7461567651480436
-4.741255363449454
-12.187538608908653
-2.7475622026249766
-2.6260201251134276
-11.821606127545238
-18.69581009913236
-6.130589433014393
-6.112198180519044
-18.6415986539796
-23.477384660393
-8.82343648467213
-8.986553645692766
-23.969818932004273
-27.63497077859938
-11.271700577810407
-11.137668551877141
-27.22992541640997
-29.73750871885568
-12.656412762589753
-12.55178833566606
-29.4210908357054
-31.580602049827576
-14.449862565845251
-14.57140513882041
-31.94619228877127
-29.38189227413386
-12.441562474705279
-12.472144189290702
-29.473874824121594
-27.40824811346829
-11.203832470811903
-11.237325095571578
-27.5092214923352
-24.048441416583955
-9.129772236570716
-9.039840661920607
-23.777431742288172
-18.425836893729866
-5.888783500529826
-5.8695286475121975
-18.369351009838283
-11.667755712755024
-2.48573209438473
-2.612172804772854
-12.050263269804418
-4.380499827675521
0.9010969679802656
0.8744524903595448
-4.461313419044018
5.852266555652022
6.545316651463509
6.243827633559704
4.940827554091811
5.6007727682590485
2.8956481171771884
2.964728166349232
5.807928652502596
40.7389612859115
34.13433301448822
34.054270698688924
40.49757615663111
45.45876941457391
37.84526516310871
37.67928421869874
44.958729702979326
14.807320014573634
10.735527830198407
10.859129117801785
15.178553366102278
21.92489453498274
21.141876181587577
21.184215222485363
22.053747120313346
19.747719310224056
23.137898362241685
23.026236883364618
19.409993012435734
18.481564339250326
26.588834984228015
26.617698300629854
18.567793007940054
17.853894934989512
29.632986425422132
29.356273356825113
17.01863768696785
17.466326067224145
32.169784078374505
32.01529471203685
16.998403914272785
16.846243345178664
33.40095341205597
33.394752820022404
16.827950779348612
16.308481502346694
33.63619432691485
33.583049467764795
16.149985919706523
20.439088249579072
38.180179957300425
38.41970455925912
21.160724963992834
16.229236643761396
33.53194066043943
33.44769851490855
15.974281843751669
17.474557229317725
33.807511107064784
33.59277679678053
16.826174641028047
16.686631723307073
31.669225706718862
31.77332446631044
17.00178834889084
17.704381990246475
29.739451420493424
29.727595284581184
17.668081048876047
18.866099258884788
26.83207611180842
26.731647006236017
18.562383679673076
19.602193074300885
23.08619629126042
23.073412843979895
19.563117707148194
22.340926942415535
21.41166890785098
21.32585989870131
22.08058264479041
14.3651587581262
10.20553567353636
10.221214316785336
14.414888250641525
45.39173946622759
37.93041854072362
37.92031152267009
45.36168118659407
42.6679763616994
35.250488420017064
35.286472148261964
42.77562842518091
12.775322279892862
7.747737948782742
7.4275011559948325
11.80839777737856
19.124931844882667
17.29757481906563
17.34883852582425
19.279197852127254
16.744524895213544
18.803027943708003
18.672896922565997
16.35073950793594
12.890436568297446
20.170500670559704
20.05936179868877
12.553514107130468
5.651958318427205
18.700083531439304
18.68096635863185
5.594061044044793
2.948147078976035
20.595558874309063
20.82026483397931
3.6259804042056203
-1.0256865452975035
18.99895424209535
18.977330096065998
-1.0895562041550875
0.05351485311985016
21.437305143103004
21.593112400732934
0.5215772576630116
-15.356570762582123
5.770622039213777
4.918869786895812
-17.919617984443903
0.13282198552042246
21.481653057038784
21.6153945652768
0.5340608069673181
-0.8790724808350205
19.10755666065961
19.056118187494576
-1.0343931093811989
3.072913379408419
20.5037042805925
20.49365220218897
3.0428531616926193
5.614864039234817
18.672269091010094
18.649258190765977
5.544940107502043
12.777024704962969
20.057629411108792
19.92187782097608
12.366586816497147
16.46839497797191
18.65710549429059
18.648944373242557
16.44293992035091
19.185072544030845
17.22100359853357
17.13748509529978
18.933637427166104
12.700862978585064
8.043721730820835
8.11924631986767
12.929793865419924
42.55620423797518
35.091887414455414
35.07734484039247
42.5125796161592
37.247022475115955
30.421785161830485
30.37576448172331
37.10651067644358
12.297478726133704
7.412810364738107
7.285187242552638
11.910486234351993
19.342903492040932
16.68905500881374
16.765415291301906
19.572909210808575
20.942893285304308
21.234038468450308
21.215556889772415
20.886268260888755
24.036061512306333
28.634010405279696
28.47716788109392
23.562638658098876
16.965433670207858
28.367845620028675
28.286093418486416
16.71816171053797
4.073640977032483
23.18720836751163
23.223312539048493
4.1834987523034215
10.13381169643253
33.75939424242824
33.904214372858405
10.569728938862681
-5.713551974855363
19.717294389382005
19.312536999583244
-6.931383908726275
46.82016599737108
73.86167129594833
76.19910074584186
53.84837482217699
-5.575685645453632
19.790240043774247
19.320287980139256
-6.990153218619525
9.627709169872105
33.281378344632685
33.4164462313056
10.033786944113672
4.535920136608183
23.493816611357033
23.377355665899813
4.1858767606318
16.42464463133365
27.985294533893466
28.033823217265308
16.572064249776304
23.847553278319538
28.746148413047194
28.888053231872618
24.27572403755039
20.995384090580046
21.262508498504758
21.21325442288071
20.847135461866856
19.690961661748588
16.85507484059781
16.75926909595728
19.400806326419115
12.573603174649179
7.771309987641871
7.751003127545118
12.51039759349078
37.478417959064245
30.53508009016514
30.35981490369886
36.948927639983594
29.448193235322833
23.77331606950611
23.639851046726108
29.0428796261549
10.151100088842213
5.933708564378321
5.921188986860216
10.112222819589078
15.934600833803415
13.076253505423665
13.110434034839272
16.037355531938374
17.8410922922194
16.873591084964573
16.807465438731015
17.641904423944652
23.81522470805794
25.88040169328451
25.997300883755088
24.170122697018087
33.08113551046699
40.11947013158351
40.19435808155686
33.30821137316525
14.13540300913155
31.224629778414965
31.18756528198719
14.022915741428733
-15.434483790770173
13.327277055941522
13.20660315360874
-15.796074853278697
34.823461829684675
68.05599257815629
69.34558902401477
38.70076397806406
-137.81300922390074
-106.4432366155088
-114.04287756700069
-160.68733143340796
35.41553228255361
68.59086542855948
69.84977576136589
39.19977079797536
-16.016511243768036
12.661328635178506
12.420212818309665
-16.74298593774438
13.863905409350991
31.05609503481537
31.106546211987734
14.015576580539346
32.67954969406128
39.89567295834422
40.12875810172409
33.38498891051859
24.280631958507
26.131725342012942
26.03801289945841
24.000605712644756
17.269826342351735
16.455564823932946
16.52478425577283
17.479329741559923
16.051323420368135
13.147385763004422
13.140149341896176
16.029691676609218
9.924230486154556
5.54527653940022
5.339936220087111
9.303721842356026
29.13384400587529
23.621947521343827
23.635747907683253
29.177060982212424
20.037204480729997
16.102071825414896
16.068076544441283
19.934432424604893
7.046139559708536
3.9586957339197397
3.9747100565582514
7.095622370950878
11.488833628594875
9.040860712528229
8.97613622713834
11.293945704586804
12.928113907575607
11.585714915767312
11.514639930799603
12.713406444527209
18.45075130276382
18.612155981361866
18.56225222442299
18.30179165210575
28.56201688107103
31.171281522139907
31.210412559099495
28.68097797781229
60.375783912837505
68.25005117524415
68.08585493452847
59.88239546492696
8.052024869248271
35.16395696345717
35.779618280008435
9.897329662926495
-96.53921234421432
-51.010648214258254
-54.569945845752954
-107.25007220450789
406.3737373976037
461.97478224150836
485.443737084046
477.07540586590767
-96.30193577613682
-50.91340255737305
-54.59412139840424
-107.38205793686211
8.688432975672185
35.53739675972611
35.924214305356145
9.83896903693676
60.26231514103711
68.28717928845435
68.27594818733633
60.22797888983041
28.756746085360646
31.33699770644307
31.341048941016197
28.770479941740632
18.208799391053617
18.408163361251354
18.392680781893432
18.16457979939878
13.395006145350635
12.06718535721302
12.043402628973126
13.322280616499484
10.98024708032608
8.598203596659005
8.590981490910053
10.958509315736592
6.604937776457518
3.5565762664191425
3.586009962949902
6.693026859778911
20.00590810040012
16.158832425717264
16.20796923711896
20.15602516103536
10.28425979334861
8.44445954542607
8.627923614345491
10.840690260753036
3.2581212893128395
1.7680167481303215
1.910943079739809
3.6908653173595667
6.125519407913089
4.675299522466958
4.5685399901121855
5.803119425661862
6.696128495968878
5.86387986689806
5.905888268724084
6.822119417600334
9.986621837131679
9.664656679145992
9.666343874298036
9.991217565722764
16.17989776097238
16.55358700081706
16.35931032523513
15.595722237601876
23.623075394891202
26.189986748620868
26.655315364710987
25.019813458435237
126.58703444711864
131.65346318949014
130.30984966363758
122.56481144204736
45.30386481061578
102.37721293605864
110.61563757993281
70.00192711595446
-959.0201574750245
-881.4113250588998
-940.5534537490457
-1137.6938922200352
45.83365959022194
102.51268179062754
110.3499211082235
69.31636838335544
127.10601204726845
131.94852376077324
130.3887477759272
122.4267388926819
23.792522680945694
26.105514694936574
26.310949278995395
24.404302831739187
16.542271304875612
17.033678303472698
16.969229011796415
16.348486403003335
9.3718954436481
9.199386826250702
9.323798497673124
9.747327845077962
6.862959067337215
5.90876119537279
5.83147432282567
6.629695638548583
5.400774878915399
4.200096674263477
4.317864144220948
5.756768344435841
3.2023091330192983
1.5752129186876118
1.567172056529671
3.1794411414302886
10.672872866038233
8.52844344265759
8.407188191544265
10.308779306709766
-0.23609018605202436
-0.13164122868329287
-0.026239282451570034
0.08310718182474375
0.05206041596829891
-0.060787505470216274
-0.1823082873597741
-0.3138799285516143
-0.06602013669908047
-0.1501854583621025
-0.2517629712820053
-0.372404926456511
-0.11748599540442228
-0.12533275596797466
-0.1578895030543208
-0.2151111476123333
-0.07304068561643362
-0.07180005684494972
-0.07348104659467936
-0.07964605744928122
0.09090366307646036
0.18497087806463242
0.3078559907153249
0.4601235017180443
-0.03400670364499092
-0.07347643841058016
-0.10913107730448246
-0.1408711113035679
-0.00932942796498537
0.02821288537234068
0.06174892280250788
0.09292992949485779
0.13573614787310362
0.17640453483909369
0.22456957213580608
0.2820468619465828
0.30155442375689745
0.3236801791936159
0.37139353062957525
0.4449092773720622
0.04252305720001459
0.05771743506193161
0.06542226206511259
0.06459398195147514
-0.2897014142945409
-0.1943461475893855
-0.12809358723461628
-0.09118606429547071
-0.10997521271929145
0.038396616000682116
0.1979491077363491
0.36935542011633515
-0.19527719309553504
-0.207007743883878
-0.22352904407307506
-0.244355873670429
0.0406314586289227
0.013406655751168728
-0.011447284370660782
-0.0349939139559865
-0.022711874917149544
0.030160912312567234
0.08868242427706718
0.15402465406805277
0.11377633921802044
0.21090645575895905
0.3129961811937392
0.42174884025007486
0.10708258021622896
0.07184957433491945
0.027948570903390646
-0.02553943218663335
-0.06409158231690526
0.07491543050855398
0.21985924756154418
0.37311472557485104
-10.595249840058386
-8.404656791128218
-8.22512065526098
-10.053694010712206
-3.8195037161931396
-2.063542333431542
-1.9545581247657537
-3.4879677947610617
-5.60822119563818
-4.3327085468918085
-4.391859215684235
-5.784608220681548
-6.845639907754958
-5.736787037923932
-5.5035413559526205
-6.142326815985143
-9.676148182712495
-9.466566551476717
-9.56783100683242
-9.981412240304053
-15.617483206093311
-16.31043695565313
-16.400490266270936
-15.892117757350206
-23.64554302021861
-26.179037615656853
-26.60013599973172
-24.910051999613643
-126.9320614784956
-131.87012552656233
-130.4182312944904
-122.58096141833812
-46.09040030185133
-102.95634579379112
-111.0174614097923
-70.25208336766809
959.6572487493977
881.6699912371114
940.4526114193723
1137.2444907203317
-45.57587373815477
-102.50307408068329
-110.60065879952163
-69.84780608583242
-126.7218265091069
-131.70263933064416
-130.2835546163842
-122.47098822658882
-23.37953708693385
-26.083451957907528
-26.682505999226123
-25.181366097647697
-16.22936745081097
-16.73545515863225
-16.674072680529207
-16.046989163849503
-9.64212596276775
-9.393243913538754
-9.443686304613948
-9.796313441358507
-6.74880705634132
-5.902065270580351
-5.938742583617568
-6.86132623674348
-5.49273330764845
-4.223912985529751
-4.278835380449891
-5.659432980231941
-3.4830856043845415
-1.8902293709106743
-1.9457284356467426
-3.6529367682524025
-9.722945124842227
-7.904785856604576
-8.086566447746009
-10.270409842487425
-19.974432019516826
-16.13931685499847
-16.1900887330994
-20.125747066922486
-7.276871860027313
-3.974036240018904
-3.761121771298349
-6.633684464730322
-11.089167980477214
-8.651830109767616
-8.58455672673881
-10.885938416235149
-13.123171989805996
-11.92445850558579
-12.033753560855985
-13.453533709049225
-18.29974251333624
-18.545988952741027
-18.582544542849064
-18.41330132447183
-28.41286427807063
-31.181239713914692
-31.37605654541403
-29.00269061792642
-60.56219125632197
-68.60040332749486
-68.63259632792324
-60.66197083517909
-8.220366405323148
-35.176245843060315
-35.64159441459924
-9.609991172328591
96.17473840434104
50.86881134100258
54.63454157393426
107.50979674048722
-406.07446345407516
-461.9665739191696
-485.7215909427032
-477.64015760924667
96.23405216541141
50.91094510210678
54.66428828518838
107.53114286949858
-7.857380512636155
-34.94377998448908
-35.53367283567786
-9.622814112342894
-60.70541170425713
-68.38371405471116
-68.03401032509282
-59.65315437177196
-28.650110671296716
-31.285699238535017
-31.347192976623774
-28.83722863672301
-17.623648261185735
-18.04738621460274
-18.247075118590146
-18.22797856107354
-13.289961182512343
-11.997951213270426
-12.02521309396252
-13.374027830548584
-11.364629873074591
-8.854267571587116
-8.727774647064507
-10.983241096138954
-7.017899119760841
-3.997434137389064
-4.077956607565284
-7.260192804038525
-20.198945336509496
-16.27825409313664
-16.260692002717406
-20.14749355847016
-29.493725849315524
-23.97401233110577
-24.009001289494336
-29.6002434855327
-9.9668203946203
-5.769250177778304
-5.7610557628795505
-9.941736270673573
-15.839842380024493
-12.830391495488584
-12.697056745178998
-15.437041213735938
-17.511174933984876
-16.639859115704894
-16.666237835772336
-17.59141823090613
-23.857152338139713
-25.872625084593892
-25.93401613086462
-24.04476783052087
-33.22320973314345
-40.24274214543402
-40.28922209050506
-33.36429420951754
-14.19095272012055
-31.308206295594573
-31.316410303115845
-14.214091810397804
15.711340193636715
-12.842194506898522
-12.490002638660371
16.773986090905964
-35.73903036117554
-68.76525176782161
-69.88724720943719
-39.10892482008785
137.26363784866408
106.159786503762
114.02200024621561
160.93002958688885
-35.02172039588913
-68.28751915227622
-69.62771557085216
-39.05137536814436
15.505512340925634
-13.175589964259416
-12.972219991963357
16.116046445444226
-13.954324403312057
-31.154813413042575
-31.22856123559177
-14.177506679669023
-33.17192142596468
-40.228193623013794
-40.316654154099524
-33.44126777909696
-24.320062024053186
-26.201422773767263
-26.16045241849497
-24.199203527532518
-17.468506740406156
-16.661573588382453
-16.762793394736946
-17.7761708246544
-15.78139706980437
-12.833767556585371
-12.769091993570328
-15.588180610444397
-9.683411261998117
-5.484937448054552
-5.458664893172681
-9.604564229026437
-29.737556410953403
-24.16727666091174
-24.15825452003628
-29.710173036903143
-37.24415159597993
-30.44591813441366
-30.432381122373044
-37.20190712623298
-12.423400371335447
-7.5761842941865325
-7.5086815329268575
-12.218465371988714
-19.959339891560376
-17.114566332660615
-17.023629195056856
-19.68458844255656
-21.065808039158583
-21.369004234671593
-21.366452941671014
-21.058469273149967
-24.30108088068664
-28.942401422187686
-28.841960216872394
-23.999787935987115
-16.611807506531477
-28.07199545018375
-28.02366830408573
-16.46575118880719
-4.308787222951651
-23.2683546282351
-23.14198208693415
-3.9263100810348988
-10.317104131914675
-33.791243019513786
-33.75869467109442
-10.216781581752002
5.864147615619004
-19.63711234740913
-19.288726993836462
6.911954827606678
-46.459921319037676
-73.72752254689112
-76.2876643948257
-54.16212256113067
6.072156845126301
-19.499798943288624
-19.225927126593888
6.89263526070863
-9.544594964012504
-33.3641025070101
-33.68864475749433
-10.523863607551903
-4.341124263126403
-23.358249886892736
-23.302494226489216
-4.173975097946823
-16.441120304632932
-28.03444978920743
-28.120169347152114
-16.701411658432335
-24.33723537204787
-29.070353847928345
-29.07009876705706
-24.339757701847702
-20.108176833484322
-20.708633916452527
-20.973748855292797
-20.910448126494884
-19.933135419152677
-17.114737313240767
-17.049114489927888
-19.73664636630565
-12.098592156078666
-7.454893716145307
-7.579200531821698
-12.4746591062285
-37.494658621028066
-30.70124475308694
-30.697585468180478
-37.48581250361167
-42.818390312604606
-35.21647765580565
-35.076183531433344
-42.39424334745854
-12.871386600658298
-8.023095488548279
-7.909083796665072
-12.528217758052051
-18.883666642941535
-17.11244937032461
-17.221596283838153
-19.213138858787715
-16.006873110309243
-18.34524421300739
-18.463549059815705
-16.364303490146995
-12.443612514063716
-20.061958492733538
-20.267568292096257
-13.064339054748416
-5.821347447112203
-18.809791115112603
-18.72647230606526
-5.569737556390464
-3.52801098395139
-20.84353912808001
-20.723866725340486
-3.1655979454517365
1.4763176599517465
-18.709712226875126
-18.82713641319424
1.1224546609446406
-0.1332344450056553
-21.493388487026095
-21.627840301487595
-0.5385596905834973
15.59609581483528
-5.735151352826506
-5.091609782539308
17.529094931203872
-0.4463799698278308
-21.810457297135144
-21.968866777140647
-0.9255509497597814
1.0978276222012937
-18.85386175941676
-18.763986106961966
1.3680081483907998
-3.362261273432523
-20.713343509007245
-20.65842542052269
-3.195988418534398
-5.4242461319081485
-18.610622498672456
-18.73315594298765
-5.795613128691912
-12.855228147935122
-20.228372080717236
-20.206804670393467
-12.793039892334491
-16.490134058520198
-18.76459320122376
-18.840135839302093
-16.719600968062878
-19.07940245862119
-17.13406076654792
-17.060606005368754
-18.858299581101164
-12.407078999094665
-7.714809140423313
-7.736613688990474
-12.474703948246315
-42.43831790029071
-35.078301404137164
-35.16099960869178
-42.68880821065977
-45.070346461609006
-37.651099329814315
-37.68549343571067
-45.17596647050232
-14.715520299039781
-10.516769438050687
-10.519976957701147
-14.726575714536011
-22.57238514907658
-21.533875982277095
-21.33308606222272
-21.96727645304054
-19.848475043661892
-23.31654353812337
-23.28098957799375
-19.740010497160256
-18.38344118371606
-26.388967802748084
-26.30854950286448
-18.13979686331004
-17.8446791395545
-29.77536375913769
-29.66446029767394
-17.510337603278458
-17.08229070622474
-31.918114381842315
-31.887796166352928
-16.991349698975682
-16.887419402599335
-33.54774886183441
-33.642183476127684
-17.17385494336486
-16.405485540628433
-33.7060219720006
-33.62105361325666
-16.148983042687178
-20.56303805951029
-38.171422795858234
-38.27885574614629
-20.884161517955363
-16.14894781494513
-33.48927689855918
-33.43542316975072
-15.986436777282506
-16.973489218391478
-33.536809424869716
-33.5449864147231
-16.99855838296935
-17.139587440527976
-31.90992003120482
-31.819423808250576
-16.867066089529544
-17.730012766085565
-29.796829615719616
-29.82075953343883
-17.80369458021596
-18.588251857087016
-26.670743410475552
-26.684727509971708
-18.63153895922005
-19.828981013037264
-23.219334891065955
-23.108447605744004
-19.494033789262176
-21.984131556469947
-21.179441873915493
-21.203388173831627
-22.05705511337146
-14.934504526900128
-10.628854786977172
-10.517609394388273
-14.598449264187366
-45.18316136789508
-37.67612692946568
-37.59380209376104
-44.934906685724854
-40.71145250182599
-34.32167287822813
-34.47388855647296
-41.17396923620254
-5.921982887201011
-3.1927295261994004
-3.265227851457894
-6.141191271133721
-4.933079341426492
-6.04133365675807
-6.146227994002402
-5.2485336875543
4.713581028394401
-0.4858752340078354
-0.34205102920532227
5.148909996263683
11.5582610135898
2.3265887312591076
2.3874732879921794
11.743765210732818
18.414731844328344
5.841637657023966
5.7815368585288525
18.232651189900935
24.012491680681705
9.090129439719021
8.991577818058431
23.712532242760062
28.052381510846317
11.566303376108408
11.343257487751544
27.376643914729357
29.580141889397055
12.693584538530558
12.797163356095552
29.89156791055575
31.427000533323735
14.377662515733391
14.574192415457219
32.02040672535077
29.99393729167059
12.932223764248192
12.873717137612402
29.81704987073317
27.86552689783275
11.404201159253716
11.171617561019957
27.163086846470833
23.571107402909547
8.745139421895146
8.722926896996796
23.503638145979494
18.574949157889932
6.181942924391478
6.3383573815226555
19.04691584315151
11.822851696051657
2.5648510274477303
2.6077478455845267
11.952338440110907
4.836902030510828
-0.5235138244461268
-0.5465209730900824
4.767245068680495
-5.325143850175664
-6.253062405390665
-6.162568519823253
-5.051512165227905
-6.0081406098324805
-3.183484510052949
-3.1405808525159955
-5.877108578104526
-40.52972420316655
-33.99331368540879
-33.96489377610851
-40.44595363608096
-37.5813698861748
-32.4922981262207
-32.53653677832335
-37.714846417307854
-20.458144618198276
-18.07045873440802
-17.921467167325318
-20.010167080909014
-36.279209131374955
-36.51475881319493
-36.399105499498546
-35.931963078677654
-45.72099919524044
-48.96300391945988
-49.12463686987758
-46.207871213555336
-58.99881232623011
-63.98288549762219
-63.678718267939985
-58.08237909618765
-69.76262319460511
-76.68271574750543
-76.67416009120643
-69.73646646458656
-79.68060105107725
-87.63862374052405
-87.63594414107502
-79.67334744241089
-86.78940075309947
-95.32087200926617
-95.30745910154656
-86.75200732238591
-90.70537109300494
-99.8408192587085
-100.1669498551637
-91.69132655812427
-93.36455047968775
-102.23654162185267
-102.25581566942856
-93.42363644530997
-91.44397303881124
-100.09522442054003
-99.95826952159405
-91.0298714148812
-87.22842820873484
-95.59780687419698
-95.4636365477927
-86.82297964626923
-79.99937249394134
-87.82209202228114
-87.7197679746896
-79.69002983998507
-70.10581047507003
-76.95224540121853
-76.88646651059389
-69.90757570788264
-58.716907845111564
-64.10496464418247
-64.22127942857333
-59.066539369756356
-46.33759897411801
-49.17428991314955
-48.9449661122635
-45.64618527283892
-35.60970249748789
-35.97407409758307
-35.94762868899852
-35.52804075949825
-20.636015541502275
-18.29025946208276
-18.17883950623218
-20.299443474970758
-38.13801186811179
-33.02537685597781
-33.06921543960925
-38.271697201184
-13.344528730027378
-11.385189632885158
-11.322146708145738
-13.15446584764868
18.64244531840086
16.67405838239938
16.644839581102133
18.55517247505486
41.05803659837693
34.520402962341905
34.397767080925405
40.687784073874354
67.51929038949311
56.692308282479644
56.964442680589855
68.3380653327331
92.87538928538561
77.47217975184321
77.40926053654402
92.6851155217737
115.17535080574453
96.2703376179561
96.24954735673964
115.11299059167504
133.02051858324558
111.48773220833391
111.54180460423231
133.18306292500347
145.75120782246813
122.52433270262554
122.74678264837712
146.42128585232422
154.20663986029103
129.61384246032685
129.56052615633234
154.04390111239627
157.21072502341121
132.1240186081268
131.93812920013443
156.64936548424885
153.89522043708712
129.48401146754622
129.6064818794839
154.2657630178146
146.3902006535791
122.84179736394435
122.74780607549474
146.10816624667495
132.70279738027602
111.34117268025875
111.55526494793594
133.34782239003107
115.17473970376886
96.23657645401545
96.18027829984203
115.00318683031946
93.33847872866318
77.96739753405564
77.95962341269478
93.3139828122221
67.84138173866086
56.74198763794266
56.72562390239909
67.79200325184502
40.74339402955957
34.218150929547846
34.10967923270073
40.414307890459895
18.727877044468187
16.788381421472877
16.802596371038817
18.771464688819833
-12.94241343298927
-11.141564699006267
-11.238371959188953
-13.234142649918795
SCALARS stress12 float
LOOKUP_TABLE default
-3.2359243887476623
3.2334279883652925
-3.2394068931334914
3.238221197389066
3.234922711737454
-3.23422605113592
3.2302964321224863
-3.233496399305295
-4.162914263899438
-6.364969247195404
-7.767881907930132
-8.303522756439634
-8.043265492538922
-7.127128277439624
-5.723501738451887
-3.9845049650757574
-2.0401849249610677
-0.0006892380770295858
2.039023829915095
3.9833475322811864
5.722764963749796
7.1289133911486715
8.04316016472876
8.302422798296902
7.769590779731516
6.366303784016054
4.1627410319051705
4.161486337136012
6.3656695529061835
7.769729362422368
8.30022321123397
8.040393667877652
7.128167634655256
5.72285719201318
3.984644205222139
2.03870473097777
-0.0006586394156329334
-2.0389065890485654
-3.983283213819959
-5.72172886741464
-7.128058068454266
-8.042165672508418
-8.303375987285108
-7.769086345171672
-6.367094335506408
-4.1627553506077675
-4.162834393987396
-6.367616903404269
-7.768915211148851
-8.303075132593221
-8.041233783878852
-7.129926531415549
-5.723465584058431
-3.984783515203162
-2.0415973687631777
0.0009470341319683939
2.038245983014349
3.984699304710375
5.723897889634827
7.128473680408206
8.043060356925707
8.304458730737679
7.770933437393978
6.368205940671032
4.161597510625143
4.163934859039728
6.367757440893911
7.768601450021379
8.301479412708431
8.041640624403954
7.130063769640401
5.725492015713826
3.983277370163705
2.0381855773739517
-0.00010747788473963737
-2.037769128277432
-3.9835699182585813
-5.721607597311959
-7.126680500630755
-8.043709838879295
-8.303075459494721
-7.7688070148578845
-6.366776195121929
-4.1626109488424845
4.149995768908411
6.350146097945981
7.747186183405574
8.27470283274306
8.012155635922682
7.099212552420795
5.697161670774221
3.9634626581100747
2.0271201620344073
-0.00011200550943613052
-2.028265893633943
-3.9623727265861817
-5.697768170910422
-7.097535386972595
-8.009927160979714
-8.274132960883435
-7.74459231965011
-6.350015345495194
-4.150568899116479
-4.151540486607701
-6.348752275953302
-7.747141815634677
-8.277716565382434
-8.01503009191947
-7.098241199622862
-5.697324321779888
-3.9664514464966487
-2.0296001770184375
-0.0005427876312751323
2.0294895473925862
3.9655354804708622
5.698188871960156
7.098945357836783
8.011507945979247
8.274351146515983
7.743796679525985
6.3470374837379495
4.151166971954808
4.150735740012351
6.350648620104039
7.745836480858998
8.273803109084838
8.011819034407381
7.097055761070806
5.69752271634934
3.9634354637528304
2.0279612218000693
0.0006543792842421681
-2.0281425838475116
-3.9648038821760565
-5.698040672868956
-7.099711438873783
-8.01051982541685
-8.27481773274485
-7.745566515135579
-6.348218275845284
-4.150913139106706
-4.15093123994302
-6.349693892698269
-7.746705801342614
-8.275614605285227
-8.011498266947456
-7.097339914646
-5.697236065461766
-3.964409521606285
-2.029846975754481
-0.0016166261048056185
2.029352825076785
3.964498752495274
5.698143484885804
7.10039988218341
8.01107873453293
8.273401772312354
7.744510727876332
6.347840929578524
4.1504155024304055
-1.9325868363957852
-0.6429997790255584
0.6419733691145666
1.9315692656091414
1.9307496807305142
0.6418089825310744
-0.6425285614095628
-1.9314967223908752
-1.936235611776283
-0.6468448312916735
0.6378993455218733
1.9272355760567734
1.9346879714285024
0.6449166862294078
-0.640229978132993
-1.9299894177820534
-9.053180297778454
-15.850815230340231
-20.051756430591922
-21.722662750515155
-21.14944863994606
-18.76428038981976
-15.048898724548053
-10.45346397679532
-5.344603751087561
0.00039445265429094434
5.344016464659944
10.45390224334551
15.049133300257381
18.763153047242668
21.149075195833575
21.72229934373172
20.052011223859154
15.849269569618627
9.05353759758873
-15.851291677216068
-28.10592496418394
-36.18961817031959
-39.96004859590903
-39.59641754475888
-35.64589972113026
-28.906412957934663
-20.23249729978852
-10.3871690792148
-0.00028742384165525436
10.386444875388406
20.23113832407398
28.90795087942388
35.647040421143174
39.59550149246934
39.96170058392454
36.18900755606592
28.10575770327705
15.850182710360968
-20.052317782130558
-36.18962715152884
-47.71923976461403
-54.12331144459313
-55.01857448532246
-50.58440171106486
-41.668468346470036
-29.466925364045892
-15.214659982419107
0.0003638410125859082
15.214993174187839
29.468916803831235
41.669345157512
50.58568851000746
55.01828638729057
54.12422910617897
47.71761239488842
36.18962802438182
20.050954728969373
-21.722294382343534
-39.95997592166532
-54.1228352697799
-63.51468576514162
-66.97438059269916
-63.57341479387833
-53.61267656413838
-38.50162303872639
-20.04135059454711
-0.0011656989227049053
20.04076339903986
38.50220481789438
53.6104789749661
63.572537543746876
66.97513215377694
63.51446747779846
54.12358277657768
39.96043070036103
21.72336975604412
-21.150243367999792
-39.59576290327823
-55.019575210055336
-66.97411936230492
-74.13821921206545
-74.08689153735759
-65.03434326202841
-47.9098375144531
-25.296045947732637
0.0006874170794617385
25.294955437624594
47.910622345865704
65.03307153395144
74.08768317248905
74.13759319181554
66.97535925844568
55.017729390528984
39.59643282991601
21.150053904624656
-18.76449837128166
-35.646078677789774
-50.58459572866559
-63.57492033718154
-74.08669291459955
-79.73656530911103
-75.58958764292765
-58.55223253581789
-31.718152956513222
-0.00047198942047543824
31.71769633112126
58.551492170081474
75.58969151668134
79.73792469291948
74.08632486854913
63.57281697524013
50.58421916468069
35.6456925192324
18.763601187150925
-15.049935644550715
-28.905691360589117
-41.66963962849695
-53.6110315072583
-65.03326627594652
-75.59096677583875
-81.18432127588312
-71.16554607180296
-40.80971813914948
-0.0002484857977833599
40.809716446121456
71.16538983467035
81.18490244419081
75.59032615140313
65.03450465505011
53.61023730735178
41.669427693326725
28.90752338641323
15.049563275038963
-10.453261877060868
-20.23224469058914
-29.466660461155698
-38.501760091399774
-47.91134400299052
-58.55155527056195
-71.16484772055992
-78.96876889141276
-56.219877989118686
0.0008310997509397566
56.220257390494226
78.96925188097521
71.1660942430899
58.551412029366475
47.91025572270155
38.5014701312175
29.46642347346642
20.231190484657418
10.453886110364692
-5.3431086805067025
-10.387066656723619
-15.215008853643667
-20.04178212530678
-25.295941147836857
-31.717086175864097
-40.8103123830806
-56.22025535971625
-67.17906223397586
-0.00039136080886237323
67.1796256446687
56.22054593471694
40.8102566646121
31.71759263338754
25.296731666196138
20.041899575619027
15.215304256184027
10.385472381982254
5.344001520454185
0.0003725653514266014
8.364778477698565e-05
-0.0003784468281082809
0.0001292303204536438
-0.0003491161041893065
-0.0004916562756989151
5.793260061182082e-05
-0.00029273625114001334
-0.0006524971104227006
-6.08104164712131e-06
0.0009142072813119739
-0.00022411125246435404
0.0008210054656956345
-0.0004939470672979951
-0.0007372460386250168
-0.0014365199604071677
-0.0005902402917854488
0.0002653312112670392
-0.0003546446969266981
5.342769358307123
10.385613171791192
15.2150525074685
20.04164275797666
25.296159821387846
31.717344040662283
40.80877332642558
56.21897082030773
67.1800995671656
0.0006550560938194394
-67.17920885863714
-56.2200660505041
-40.810786185145844
-31.717852468340425
-25.297134759282926
-20.0411205800483
-15.216100481615285
-10.386079293981311
-5.3429058178007836
10.45439463033108
20.231802698981483
29.467375661013648
38.50129291808116
47.91068308681133
58.55099772682297
71.16560282814316
78.968508907652
56.21911613829434
0.0003714600170496851
-56.21907984794234
-78.96877301900531
-71.16690286801895
-58.55030707331025
-47.91000283807807
-38.50010451542039
-29.467248095184914
-20.23169827176025
-10.454167879681336
15.049057303753216
28.907960740092676
41.6697494967666
53.6113933736342
65.03496040959726
75.58994796595653
81.18446416035295
71.16573346135556
40.81066489982186
-0.0005193822435103357
-40.810645887831924
-71.16640663472936
-81.18345544330077
-75.5892721463606
-65.03376948049117
-53.61292398670048
-41.6691015518154
-28.907698793555028
-15.049758238368668
18.764468203124125
35.646419955126476
50.58515471377177
63.57314916225732
74.08721199820866
79.73797068416025
75.5891539301665
58.55058341217227
31.718494213419035
7.511553121730685e-05
-31.717833008733578
-58.55108213642961
-75.58937421004521
-79.73694815942144
-74.08609193773009
-63.57238918398798
-50.58468159810582
-35.64581173421175
-18.764274074274
21.15022422320908
39.59497206885135
55.01918785911403
66.97434238743153
74.13841238198802
74.08629468022264
65.0336361322843
47.90954510361189
25.295412161241984
0.00040515224100090563
-25.29516926879296
-47.91062096176029
-65.03458486574527
-74.08592614953523
-74.13928283072892
-66.97291364108969
-55.01896464894526
-39.5966496905894
-21.14941282730433
21.721879512653686
39.95905853243312
54.1240417175286
63.51335623709019
66.97396698858938
63.57209957612213
53.61258249016828
38.50067953922553
20.04129737720359
-0.0004302647430449724
-20.04231830764911
-38.50125201213814
-53.612055894947844
-63.573823365804856
-66.97350748852477
-63.513563576721936
-54.12436493753921
-39.960964727077226
-21.72406955864426
20.051895181590226
36.190022776223486
47.718484488344984
54.12421758676646
55.017975727823796
50.58480474940734
41.66887909005163
29.46828272737912
15.214723028737353
0.0001158496888820082
-15.2141343250114
-29.46742890481255
-41.668759385254816
-50.58468771832122
-55.018089501099894
-54.123360670535476
-47.71850754965999
-36.189376299669675
-20.05298178452358
15.84993093193043
28.10658266651444
36.188734544673935
39.96076522846124
39.59603939758381
35.647507330111694
28.90555843830225
20.231085049570538
10.387550539337099
4.12137305829674e-05
-10.386120191586087
-20.231668592809
-28.90730360186717
-35.64649427542463
-39.59588023922697
-39.961020997980086
-36.18952472184901
-28.106295985322504
-15.85107062618772
9.053036338533275
15.851052259356948
20.052601943782065
21.722915176738752
21.150426730309846
18.764555150904926
15.048439296719152
10.452184469177155
5.343640536884777
0.00010384031338617206
-5.343791574749048
-10.454490105083096
-15.050265521509573
-18.764573306325474
-21.14895713767328
-21.722151552632567
-20.052191504270013
-15.849736761341774
-9.054010312902392
9.037385865405668
15.827437742205802
20.024376090674195
21.69197494542459
21.116817870235536
18.730439457285684
15.01905867800815
10.431818331242539
5.331098030670546
0.0003626758698374033
-5.33116055210121
-10.430411744921003
-15.020004884107038
-18.73035166831687
-21.115908908250276
-21.691343678859994
-20.024415471532848
-15.826494584558532
-9.036574169294909
15.82783943094546
28.0822992096073
36.16084716870682
39.92628923966549
39.55840702960268
35.60672362026526
28.86929074220825
20.202386714110617
10.369782927562483
0.0005596868577413261
-10.369785330898594
-20.202175161452033
-28.870807482220698
-35.60782951966394
-39.5582505686034
-39.92642188977334
-36.15968513887492
-28.081548463989748
-15.827539486112073
20.024855828552973
36.15977275627665
47.682367849280126
54.082054969039746
54.97029522439698
50.53184922231594
41.61763214576058
29.42437536455691
15.190454694151413
-0.0008337344625033438
-15.190512260771357
-29.42469639610499
-41.617979314381955
-50.53256476164097
-54.97013071234687
-54.08179878050578
-47.683139799773926
-36.16028315896983
-20.02424071257701
21.691319706325885
39.926642574428115
54.08144704066217
63.462511083402205
66.91238121315837
63.501058193447534
53.53428537491709
38.433647713507526
20.00216996506788
-0.000177727488335222
-20.001676693267655
-38.43268948732293
-53.534525452705566
-63.50066355874878
-66.9119310521055
-63.4633380487212
-54.08244984608609
-39.926595402444946
-21.692900177877164
21.116991509334184
39.55783047998557
54.970428949047346
66.91211496118922
74.05672450555721
73.98652905639028
64.91912022745237
47.80172931414563
25.21938558059628
-0.00034064450301229954
-25.218681004742393
-47.80352258848143
-64.91866348739131
-73.98599008336896
-74.05761852982687
-66.91278369553038
-54.96953201072756
-39.55726277708891
-21.11616329412209
18.730648591474164
35.606168704805896
50.531714007782284
63.502310821961146
73.98519008368021
79.60362937446916
75.41963400924578
58.35218397853896
31.60110149823595
0.0003235032199881971
-31.59987840228132
-58.351167311077006
-75.42073266822263
-79.6043972389889
-73.98454292371753
-63.5006699829828
-50.53059060155647
-35.606815863604425
-18.730832677450962
15.019434772722889
28.870241055439692
41.61832973459968
53.53477600426413
64.91816905105952
75.4202376594767
80.93172648112522
70.86944681883324
40.39826801503659
-0.0001187699381262064
-40.398443397454685
-70.86881873648963
-80.93052230303874
-75.42098347938736
-64.91840301486081
-53.53394909176859
-41.61728550787666
-28.869853512209374
-15.019439114199486
10.430218181863893
20.201862123270985
29.42452905292157
38.434790299099404
47.80215950834099
58.35056460634223
70.86942273497698
78.32229363289662
55.82481705027749
-0.0006973502167966217
-55.8240027425054
-78.32328957589925
-70.86948282693629
-58.351814013149124
-47.80256372477743
-38.43375506537268
-29.42400407086825
-20.20170884722029
-10.431500371196307
5.330364404071588
10.370482898550108
15.189393034321256
20.002510553225875
25.219060793169774
31.600758305867203
40.399015928589506
55.8245012423431
63.18011162633775
-0.0014816136099398136
-63.18018156290054
-55.824658844881924
-40.3985173056426
-31.600735450105276
-25.22034471691586
-20.002142203069525
-15.190526790043805
-10.369916133000515
-5.330496853450313
0.00028336443938314915
0.001122525951359421
-0.0007238514954224229
-2.333021257072687e-06
0.0015032594674266875
-6.196153117343783e-05
0.00040848954813554883
-0.0001864764781203121
0.00039395751082338393
-0.0003609837731346488
-0.0003182769869454205
-0.00034113682340830564
-0.001315637055085972
0.0009250145521946251
0.0008762351935729384
-7.882690988481045e-05
-0.00036644318606704473
9.172072168439627e-07
-0.0008964272274170071
-5.330054916907102
-10.369513321842533
-15.189914397487883
-20.002833507431205
-25.219898105424363
-31.59948501078179
-40.398460281663574
-55.82400439036428
-63.1805230496102
-0.00048412298201583326
63.180834348051576
55.82503913727123
40.39906346134376
31.601345944858622
25.221222907392075
20.002274009981193
15.18979142086755
10.369254959747195
5.3316482437512605
-10.431244907027576
-20.202126572665293
-29.42382943216944
-38.43351695049205
-47.80218624457484
-58.35100962794968
-70.86949038176681
-78.32271058359765
-55.82407310878625
-0.0002691226254682988
55.82367747891112
78.32259032785078
70.8693410353444
58.34988824662287
47.80211504950421
38.43211577668262
29.424615090858424
20.202719778564642
10.430525360265165
-15.018402632849757
-28.87086101085879
-41.61859746801201
-53.535880744981114
-64.91874958743574
-75.42087551747682
-80.93151788276737
-70.86898594733793
-40.3986270010937
0.0005657637084368616
40.39936133273295
70.868500189099
80.93231049869792
75.41960365965497
64.91857194079785
53.53549882514926
41.61783405287133
28.86990634354879
15.019724733196199
-18.73134286736604
-35.60787090531085
-50.530754907638766
-63.501627312536584
-73.98595985962311
-79.60412714173435
-75.42098171642283
-58.351415354642086
-31.600560950755607
0.00031392520759254694
31.600507865776308
58.35210809818818
75.42010954018042
79.60362806667399
73.98455102504522
63.49969077834976
50.53279368963558
35.60579802196298
18.73136230566888
-21.116921882436145
-39.558361120696645
-54.97061306700925
-66.91176501684822
-74.05755425716052
-73.9835862450127
-64.91916099385708
-47.800801424979
-25.220178831601515
-0.00024719745852053165
25.220210186525946
47.80167876681662
64.91876745951595
73.98497870360734
74.05722744182276
66.91237019561231
54.96925155457575
39.55863546844921
21.116594851097034
-21.6905398638919
-39.92429980059387
-54.08152949323994
-63.4623480164737
-66.91206047323067
-63.50065032491693
-53.534615544078406
-38.43316463843803
-20.001938100816915
0.0006423527374863625
20.00213167257607
38.432742549848626
53.53575086858473
63.50012645625975
66.91180113282462
63.46173520307639
54.08333171039703
39.92690297091758
21.691799033949792
-20.024233147210907
-36.16053133024252
-47.68448835419258
-54.08326072135242
-54.96992471930571
-50.53093994871597
-41.617291386413854
-29.425262425938854
-15.190179707977222
-0.0004304645990487188
15.190128541988088
29.424687172708218
41.6172493743361
50.53194048606383
54.96972877762164
54.08244141952309
47.68367281505198
36.16047776056803
20.025156760879327
-15.827452397497837
-28.081051844288595
-36.16052437861799
-39.92586056323489
-39.55774263484636
-35.60642113452195
-28.86882603634149
-20.20322127477266
-10.369552757707424
-0.0003223852254450321
10.370967143258895
20.201582075766055
28.86862859701796
35.60857281611243
39.55767373467097
39.92514150028728
36.16147511825693
28.080846188586293
15.828278397941176
-9.036390341585502
-15.829414365318371
-20.02527959359577
-21.69189305504551
-21.11624271076289
-18.73150549904676
-15.019242532172939
-10.429566488368437
-5.331309687986504
0.0005344504315871745
5.331246650064713
10.431752931152005
15.02094618070987
18.73005728069984
21.116205434693256
21.691423164549633
20.025370597191795
15.828181115401094
9.035494058014592
-2.489621676679235
-0.8323588945786469
0.8195166049408726
2.476754196221009
-3.8108601527055725
-1.2734431177959777
1.2583942953497171
3.7958868666319177
-4.652389366878197
-1.5556737852166407
1.534761767135933
4.631550669320859
-4.974349042866379
-1.6654435595264658
1.6366526652127504
4.945549110765569
-4.8185719542670995
-1.6142474743537605
1.5832262196345255
4.787521146412473
-4.269334372598678
-1.4303508337470703
1.4023278633248992
4.241346991155297
-3.4288679396850057
-1.1499624627758749
1.123658279713709
3.4025516860419884
-2.3873597907368094
-0.8015092164860107
0.7805403796955943
2.3663660152815282
-1.2227664982201532
-0.4112495867884718
0.39827553706709296
1.2097614612430334
-0.0005570279899984598
-0.00043413584353402257
-0.00031997874611988664
-0.00021314056357368827
1.2216416315059178
0.4101433756877668
-0.39938040054403245
-1.2108809915953316
2.3866442915750667
0.8012363841407932
-0.7803680954966694
-2.365739964589011
3.428182906820439
1.1493139048106968
-1.124282680102624
-3.403163339069579
4.271033184952103
1.4319930378114805
-1.4007091444800608
-4.239717825839762
4.818921938422136
1.615053447370883
-1.5819584722048603
-4.78578055818798
4.973584119579755
1.6650079230894335
-1.6367590192239732
-4.9453212259104475
4.654180482961237
1.5575907723978162
-1.5326691510272212
-4.629233058716636
3.811931341595482
1.2742635624017566
-1.2578137415111996
-3.795536258374341
2.489398059551604
0.8320693632704206
-0.8198875453090295
-2.4772196724661626
2.488236131495796
0.830981667037122
-0.8209192001377232
-2.478212693706155
3.811674003780354
1.2743828885431867
-1.25731574834208
-3.794656136800768
4.653829180722823
1.5567327156895772
-1.5340591587882955
-4.631184911413584
4.971204038913129
1.6624046541692223
-1.6396346791589167
-4.948523247498088
4.8157915896736085
1.6115138334571384
-1.585959403688321
-4.790301157947397
4.270316025329521
1.4312954789202195
-1.4013980465824716
-4.240407894307282
3.428353268536739
1.149559120531194
-1.1239672426017933
-3.4027810226834845
2.3869271704461426
0.8004832120495848
-0.782187102275202
-2.3686650925083086
1.2211458442616276
0.4094611305336002
-0.40026118807145394
-1.211977361497702
-0.0006352330674417317
-0.0006123063212726265
-0.0005892358312848955
-0.0005661998002324253
-1.221330577362096
-0.40962864260654896
0.4001123060443206
1.2118479522323469
-2.386012607763405
-0.800017855479382
0.7821989903750364
2.3682175396825187
-3.4272995970386546
-1.1485710750275757
1.1248998548981035
3.4036724904290168
-4.270113528080401
-1.4309875777980778
1.4018241842859425
4.240966870813281
-4.817856269466574
-1.613895036309259
1.5832330838311464
4.787195988013991
-4.974310917554249
-1.6655053617214435
1.636494016915094
4.94529414648423
-4.653948365375982
-1.5576242669048952
1.5323773245108896
4.628686845135235
-3.8131009540811647
-1.2758376840865822
1.2558052970161953
3.793060449650511
-2.4892774381987692
-0.8318212353442505
0.8202570014982484
2.4777047645839048
-2.489408241772253
-0.8320131026739546
0.8199928225749318
2.477360560525085
-3.812825482647895
-1.274758540064795
1.2577018277006573
3.7957992686715443
-4.653434741143428
-1.5567562195428764
1.5336137182603125
4.630313217890944
-4.9741564173818915
-1.66550949831435
1.6363208139446215
4.944939668363077
-4.817069557066134
-1.6132437154883519
1.5837600295926677
4.787609239378071
-4.271912780663115
-1.4327558632212458
1.4000508133030962
4.239151545363711
-3.428788113698829
-1.1498288909060648
1.1238558127224678
3.402825702622067
-2.387579954782268
-0.8016770158574218
0.7804214763455093
2.3662931770231808
-1.2236933431704529
-0.4117119051225018
0.39826018110034056
1.2101796012284467
0.0008639405714347959
0.0007927444530650973
0.000734323140932247
0.000688196363626048
1.221040066157002
0.4097207502927631
-0.3996215854131151
-1.2109392503043637
2.3872587300720625
0.8011118087160867
-0.7812405711156316
-2.3673792706395034
3.4290297715051565
1.1498818701657
-1.1239903792447876
-3.4031494311930146
4.270290746062528
1.4309304407797754
-1.4021145291044377
-4.241492900298908
4.818727272155229
1.614764462428866
-1.5823435138445348
-4.786266260576667
4.9750773386331275
1.6659639987919945
-1.6363401981943753
-4.9454472138604615
4.655073544301558
1.5580333336256444
-1.532685030135326
-4.6297189891920425
3.8137369482719805
1.2760105715715326
-1.2560866160783917
-3.7937912087363657
2.488435488776304
0.8312780180131085
-0.8205182746751234
-2.477700895338785
2.490260138583835
0.8326131505309604
-0.8196500658523291
-2.477282779174857
3.813130522146821
1.2752233106293716
-1.2570785086136311
-3.795012920512818
4.653031084453687
1.5562505669076927
-1.5342340605566278
-4.631055344478227
4.972589519165922
1.6639341916888952
-1.6379400154110044
-4.9466389893204905
4.817437914083712
1.6135822421638295
-1.5834409143426456
-4.787296259542927
4.271975524316076
1.432737609720789
-1.4001549354870804
-4.23934523697244
3.430438125040382
1.1511190558085218
-1.1229104676749557
-3.4022135391132906
2.3862250291276723
0.800449809874408
-0.7815440162084997
-2.3673322690301575
1.22068105841754
0.4090494008269161
-0.4006208201753907
-1.2122825486003421
-0.00038481864612549543
-0.0006719906232319772
-0.0009718700894154608
-0.0012859388370998204
-1.220446817285847
-0.4089966203318909
0.4004912559175864
1.2119713398860767
-2.3864247428136878
-0.800565003650263
0.7815045366878621
2.3673603768693283
-3.4272146711009555
-1.1485176435671747
1.1249227108201012
3.403663386532571
-4.268774285970721
-1.4296591324964538
1.4031692502903752
4.2423544662306085
-4.8191338226315565
-1.6149297227384523
1.5824186975951307
4.78658238099888
-4.9742452058708295
-1.6656827580882236
1.636066614300944
4.944609333819244
-4.653603175946046
-1.5572020360268652
1.5328873560065404
4.629294254642446
-3.8126947649288923
-1.2753385857213289
1.256402290891856
3.793759060499724
-2.4893122483044863
-0.8320336595643312
0.8198659085319377
2.477134257031139
-5.432631067698821
-1.815817320777569
1.799780874105636
5.416676279797684
-9.519856159982737
-3.1818455696338788
3.1585266762413085
9.496517849271186
-12.04344619368203
-4.024786339257844
3.99735216650879
12.016030249826144
-13.046443856088445
-4.360224069736432
4.329368747945409
13.015644533676095
-12.701435341499746
-4.245630739838816
4.212808658310678
12.668678151327185
-11.26872880285373
-3.768133237201255
3.734167852147948
11.234804652107414
-9.037153049372137
-3.0227091654087417
2.9926621025661007
9.007174985832535
-6.277199697622564
-2.099816001544241
2.0779667280148715
6.255418675893452
-3.2096288496395573
-1.0743704656488262
1.0609703616355546
3.1961925284704193
0.0003513613482937217
0.00032762065529823303
0.0003229572903364897
0.00033534516114741564
3.2091653093812056
1.0740181228029542
-1.0612207470694557
-3.196347775578033
6.277736787451431
2.100494460319169
-2.077098041190766
-6.254308342176955
9.037163387460168
3.0224994284217246
-2.9930995341273956
-9.007855056785047
11.267850020725746
3.76749839092372
-3.734562598518096
-11.234959791472647
12.70129348890623
4.245725265704095
-4.2124638862442225
-12.668063633609563
13.046241612173617
4.360198998067062
-4.329198470513802
-13.015256667276844
12.043627359729726
4.02489934588084
-3.9972995728603564
-12.016028592537623
9.518863812612835
3.181370548729319
-3.1585125106503256
-9.496033434581477
5.433065466815606
1.8163322184700519
-1.7991776324342936
-5.415975148323923
-9.52015312248841
-3.1819718103506602
3.158570285013411
9.496733929903712
-16.887838713359088
-5.640550395241007
5.616562488838099
16.863972523482516
-21.745620224857703
-7.262575406813994
7.233573475619778
21.716695906885434
-24.010548440157436
-8.019481860566884
7.985526134551037
23.97665863239672
-23.79127697297372
-7.947475137363654
7.9092910521430895
23.753150853328407
-21.41699214093387
-7.15576089581009
7.1163212229148485
21.37764071172569
-17.36751723237103
-5.80432520568138
5.767021187464707
17.330274182895664
-12.156125855573919
-4.063852942141239
4.033742542262189
12.126015208486933
-6.240942215896212
-2.0869321275968105
2.0696693348581903
6.223637405841146
-0.00010601163376122713
6.760755786672235e-05
0.00023500522365793586
0.0003983885981142521
6.240385060547851
2.086527718580328
-2.0699332923977636
-6.223768535244744
12.155098724353593
4.063144391635433
-4.03414112678729
-12.126108481548727
17.368409144633915
5.804601990093943
-5.767341810569633
-17.33118820656091
21.417635875113774
7.1559413257054985
-7.116580249508843
-21.378324655874167
23.790604708978208
7.947032148193102
-7.9095203220203985
-23.75318067407352
24.01174610949238
8.02028154200525
-7.985074402531609
-23.976514364389004
21.74531996974838
7.262601385416929
-7.233198963222094
-21.71594478597399
16.887830140884034
5.640705405181507
-5.616230492305476
-16.863444726594025
9.519338784448337
3.1814391272782814
-3.158826607017545
-9.496716308116447
-12.043767832918093
-4.02488896867726
3.997452455747407
12.016322750365362
-21.745749863854144
-7.262869655445684
7.2330676260753535
21.715930438658688
-28.674987469275948
-9.57659596245503
9.53990323189646
28.638234070676845
-32.5227946677478
-10.861497774603777
10.820158849586733
32.48148374230368
-33.06045618717326
-11.042887841234915
10.994585852487944
33.0121620168793
-30.395697561616544
-10.155213049030863
10.102610745234415
30.343111737340223
-25.03809221071424
-8.367511588789057
8.31654020852875
24.987166050937958
-17.70661572559038
-5.919395354343578
5.876832849520724
17.6640573941404
-9.142603733751457
-3.057143591402564
3.0328161058132537
9.118317168904468
0.00017097638919949532
-4.2421102989465e-05
-0.000279076281003654
-0.0005424855626188219
9.142837434250396
3.0572903549764305
-3.032745909760706
-9.118314224644564
17.708045024366584
5.9203194655128755
-5.87636355421273
-17.66400036565028
25.038663751882268
8.36781662251451
-8.316471451107645
-24.987311595352367
30.396517656743526
10.15560788611765
-10.102606218570145
-30.343474630557466
33.060279439989245
11.042812065017642
-10.994571396557149
-33.012067172763636
32.5235538102861
10.862116022559348
-10.819669426535256
-32.4811127690773
28.67363848525565
9.575471984659089
-9.54085688496707
-28.639070868870476
21.74570163700264
7.262743866594974
-7.2332976530015
-21.716289133008104
12.042832550883759
4.0243605360155925
-3.9975914286915213
-12.016082316171378
-13.046235630230512
-4.360196451074444
4.3291937133762985
13.015242060355376
-24.010403128282633
-8.019273293029983
7.985790865495801
23.97697075008182
-32.52251807739958
-10.861424366070423
10.820019648352172
32.481118800409604
-38.167817337671295
-12.748110732180066
12.69597709912341
38.115669436811004
-40.248007949383464
-13.445247263938654
13.383104252745397
40.1859133518883
-38.20525580027606
-12.767078128410503
12.694557030976284
38.13278945896309
-32.220524670905434
-10.772430445067585
10.694353040365968
32.14234142418718
-23.13997012481559
-7.740217255428433
7.672282140585594
23.072021597763523
-12.04532046004897
-4.030268915055785
3.9911418520496227
12.006175282935146
-0.0008520137052983046
-0.0006002463633194566
-0.00040696054929867387
-0.000268049247097224
12.04502510643215
4.030220954620745
-3.990980356145883
-12.005836073658429
23.140568667004118
7.740859784273198
-7.6715661770431325
-23.071200121601578
32.21886418788927
10.77122876048088
-10.695170024846448
-32.14284084862447
38.20465029854677
12.766731193027226
-12.69465489522554
-38.132642213779036
40.24865526659414
13.44581210866454
-13.382599524862599
-40.18544680450577
38.16753039843752
12.74773625592934
-12.696467733709142
-38.11630873536342
32.52296541130636
10.86155515172868
-10.82023132633185
-32.481705914542545
24.01078502391465
8.01958155533066
-7.9855594291875605
-23.97682512688334
13.046816511341603
4.360274623613805
-4.329636653215857
-13.016235355578829
-12.701961848884821
-4.245929526514374
4.212700451083947
12.668725534225814
-23.790833855047822
-7.947258468600921
7.909263895591721
23.75286001805216
-33.06115873105591
-11.043331440829206
10.994364491314627
33.01213151222328
-40.24785507755587
-13.44520093005849
13.383045869588386
40.18575155548751
-44.55809133243747
-14.889728234906215
14.808183251763694
44.47656369890319
-44.53156235138886
-14.887244764657225
14.786867942311801
44.43119041470345
-39.0938439629972
-13.078142655082047
12.962751410843339
38.97850962035591
-28.802458212187048
-9.64271928567905
9.534551144926809
28.69431026908569
-15.210576735727955
-5.098710755701177
5.021996425988618
15.133881241839845
0.0005034858186263591
0.0003105402865912765
0.00010714327800087631
-0.00010918269981630147
15.209945880167652
5.098481531866128
-5.021874743513763
-15.133451487054117
28.802808101841947
9.642600953869987
-9.535178114281734
-28.69549402454868
39.093024138972396
13.07771825036616
-12.962834496400319
-38.97830055930535
44.532312546041794
14.8879488085513
-14.786214315681718
-44.43059146494488
44.557497116649756
14.889125135872746
-14.80883819432347
-44.47731529583689
40.24868277882342
13.4456353893911
-13.382988215074874
-40.186059170169756
33.059945124725346
11.04269869599375
-10.994459756155265
-33.01172035498894
23.791437693376793
7.947820926958229
-7.908719695638865
-23.75231325716595
12.701978213124676
4.246146939927712
-4.212280690466287
-12.668103104748297
-11.268813238537405
-3.7681113734142855
3.7342725579510443
11.234970602672547
-21.417160376207903
-7.1559589055832475
7.116050556185655
21.377251556958072
-30.39585697138682
-10.155352634668816
10.102479127526749
30.342980120622087
-38.20618069166085
-12.767448519123718
12.69472646212671
38.13349654566264
-44.531624055758584
-14.887583989126142
14.786226598371286
44.43021736724768
-47.938367623020895
-16.035553930560127
15.902324685594067
47.805237651162315
-45.455570326477755
-15.219805356406141
15.050010216364171
45.285721317632124
-35.22117927749059
-11.815552907908568
11.615083397948183
35.02085198322311
-19.079522656975314
-6.402853734354721
6.286467281373916
18.96291048626881
-0.00028697727248072624
-0.00011813300079666078
3.7968362448737025e-05
0.00018404104048386216
19.07937165084877
6.403014601877658
-6.285979330539703
-18.962071141024353
35.22076663249754
11.815473230963107
-11.614818149799248
-35.02022297799704
45.45548686335678
15.219512519310229
-15.050539208255941
-45.2865179007058
47.93933577236021
16.03612149626133
-15.90217494868557
-47.805530540965265
44.53146620615735
14.887629538599867
-14.785981803375762
-44.42977327306289
38.20487436270923
12.76689836930018
-12.694545799546177
-38.13259123961325
30.395785662403796
10.155573471740354
-10.101968670496717
-30.34217287946376
21.41676094837021
7.155527554772561
-7.11653441391536
-21.377807417797158
11.268101449648384
3.7675604234682396
-3.734683836402837
-11.235261555208126
-9.037841241341084
-3.0230885332566686
2.992558999801986
9.007321211218368
-17.366818523441907
-5.8036158256581984
5.767775310669094
17.331108920217957
-25.03888891247334
-8.367943656456191
8.316473601968028
24.987472305831034
-32.219243632338475
-10.771448373619933
10.695103566511534
32.14292891975492
-39.09321410080884
-13.077932387241162
12.962563197768759
38.97793640726013
-45.456518949591555
-15.220343828666955
15.049864443775732
45.28595517895883
-48.84691384763573
-16.381016514176736
16.12797078920994
48.59402022903669
-42.83641208038898
-14.390277014259482
14.094951087870868
42.54082430762355
-24.60973855946213
-8.348200397507753
7.934234193264274
24.19662494637305
-0.00019844569033011794
-0.00015974207781255245
-0.00013368375948630273
-0.00012014931417070329
24.609664526593406
8.348070679436205
-7.934400306257885
-24.19680692339898
42.83634914303548
14.390333421935793
-14.094742860470433
-42.5404271207517
48.84754538626294
16.38173347344855
-16.127130387787474
-48.59301754133776
45.45590160327265
15.219732499943348
-15.050492443726398
-45.286627162015066
39.09408487213659
13.078475738497218
-12.962309865572024
-38.977940734883305
32.218746916303644
10.771250660676742
-10.694988557632314
-32.14247608280857
25.03886111767497
8.368124683911446
-8.316049609449692
-24.986763793887803
17.368227580183884
5.804670698416885
-5.767007251823088
-17.33056247237255
9.037555404240265
3.0228833141736686
-2.992690708342707
-9.007386399724055
-6.277310922450852
-2.100256378238555
2.077172651188448
6.254240399925038
-12.156025425414555
-4.063902076042723
4.033541792479809
12.125656937190797
-17.706377027963754
-5.919184211001266
5.877018956642132
17.664223073632456
-23.13989507459337
-7.7399158530752175
7.672832450421993
23.072849918098655
-28.803502834460232
-9.643344346026424
9.534307843714487
28.694416444923263
-35.22094918024959
-11.815765587700298
11.614421447884524
35.01972442303668
-42.83589628653135
-14.389919533656212
14.09516971866833
42.540917786885984
-47.62684946961235
-16.112013033853145
15.461268895451212
46.97754560073372
-33.89295588378445
-11.439784485526616
11.054537378571695
33.50438862264855
0.0004971975868102163
0.00018396563245914876
-0.00011508452007547021
-0.0004065421235281974
33.89332082247711
11.440186294988962
-11.054047122015618
-33.50375984114362
47.627034042205196
16.111906898062443
-15.461664645146811
-46.97823622322176
42.83679211552953
14.390517096384428
-14.094824708008673
-42.54078901113826
35.220644264773
11.815276170091238
-11.615125740965595
-35.02068014390534
28.802687528397655
9.642732186213834
-9.534785458090482
-28.69482621087809
23.139852651918773
7.740121861657826
-7.6723687571357
-23.072112488735
17.706278282013955
5.919224126962945
-5.876833304064348
-17.663877835293533
12.155245351052145
4.063373981975019
-4.033834022789961
-12.125724992365576
6.2775651484844275
2.1001427921873983
-2.0776606882282067
-6.255115863488754
-3.2086147143272683
-1.073812831484247
1.0610899408347905
3.1958847098285332
-6.240735956816934
-2.0866170205408707
2.0701009015901946
6.2241970641189255
-9.143008678802289
-3.0576468413928524
3.032170871156268
9.117485679802485
-12.045585585874505
-4.030379041854758
3.9911807880853303
12.006362855026964
-15.210531219432596
-5.098738093511201
5.0218825692427345
15.133668003953062
-19.0787456407852
-6.402357963263057
6.2866858469787985
18.96285120677203
-24.61005477741128
-8.348249703209149
7.934446641418617
24.197101034777006
-33.8932739632146
-11.440068100433564
11.054264195408905
33.50410395156359
-41.28936794519541
-15.137342117057415
11.106462552648736
37.26927552651614
-0.0005184636393096298
-0.0006827172182966024
-0.0008928842435125262
-0.0011571641953196377
41.28976808828884
15.137604750372702
-11.106318837410072
-37.269240043795435
33.89344358316157
11.440136098855874
-11.054282150056679
-33.50419566981145
24.61007608557702
8.348364762001438
-7.934220864728559
-24.196747261972632
19.079181514127413
6.402712833223632
-6.286425193218747
-18.962700253876392
15.211001519695856
5.098844208492665
-5.022187916125404
-15.134436206630198
12.04579113580985
4.03064630649169
-3.9908709915471263
-12.006021383858752
9.143050966085866
3.057423053745879
-3.0326774122950155
-9.118294756743126
6.239628779207123
2.085961010394385
-2.070333122712327
-6.224025163275655
3.2092610379040707
1.07423469069181
-1.0608723973855376
-3.1958510508702602
0.00033744488609954715
0.0003093116101808846
0.00029078172519803047
0.00028215727070346475
0.00024066917831078172
0.00041842262726277113
0.0006222572410479188
0.0008557828259654343
-0.00040242745308205485
-0.0004493036540225148
-0.0005191650707274675
-0.0006110126269049942
0.00012006680481135845
0.00010058272164314985
7.232138887047768e-05
3.747333539649844e-05
1.9946455722674727e-05
0.00038371229311451316
0.0007485092210117728
0.001119999069487676
-0.00034132221480831504
-0.00022613094188272953
-0.00014375007594935596
-9.031107765622437e-05
0.00011745106894522905
0.00017928396118804812
0.0002464108692947775
0.00032220667344518006
-0.00027164549101144075
-0.0002516418171580881
-0.00023159448755905032
-0.0002103412989526987
-0.00045292882714420557
-0.0002514344814699143
-4.504813114181161e-05
0.00016921694623306394
-3.8239231798797846e-05
-8.6126325186342e-05
-0.00015378367970697582
-0.00024442505673505366
0.0006778673850931227
0.0004428026732057333
0.00020272363326512277
-4.8915884690359235e-05
-0.00019789041834883392
-0.00019272678764536977
-0.00021253697923384607
-0.00026122044073417783
0.0003938459267374128
-2.6019493816420436e-05
-0.0004458479816094041
-0.0008733826398383826
-0.0002143234887626022
6.016436964273453e-05
0.00033691059798002243
0.0006230167055036873
-0.00042491231579333544
-0.000117162533570081
0.0001953184837475419
0.0005231912073213607
-0.0010682648280635476
-0.0007569166482426226
-0.0004946284170728177
-0.0002720446209423244
-0.0004769802326336503
-0.0003985990188084543
-0.0003547942324075848
-0.0003447070484980941
0.00020056439097970724
0.00014305795775726438
9.225253597833216e-05
4.529318539425731e-05
-0.0004005201335530728
-0.000477124034659937
-0.0005854165938217193
-0.0007254799420479685
3.208432497747708
1.0737691035610624
-1.0610084598883986
-3.1956866918480955
6.239821230818052
2.0862058928469196
-2.0700361118651927
-6.223675122309942
9.142978829622734
3.0575245558284223
-3.0324056942481548
-9.117853278061375
12.045457001659088
4.030235109530622
-3.9913638267607894
-12.00660609456827
15.210596936376533
5.098623065161519
-5.0222075894416776
-15.134233801305527
19.079194305930287
6.40299767369288
-6.285849344014423
-18.961805016879225
24.608977953525027
8.347602928668493
-7.934685892309062
-24.196943160844967
33.89239698834717
11.439564546075417
-11.054420436150394
-33.503929594764486
41.290082289633574
15.137754281167872
-11.106335707183462
-37.26942142430926
0.0004115501942578703
0.00018126241047866642
-4.0773331420496106e-05
-0.0002607532951515168
-41.28938500158256
-15.137209245818667
11.106767955352552
37.26977734229877
-33.8930510993232
-11.439795938757015
11.054604192439001
33.50453180851764
-24.61041152125108
-8.348497662314912
7.934301012399374
24.19705307573895
-19.079270191927208
-6.4026341438584495
6.28667306288844
18.963123869674746
-15.211105104273884
-5.098678805457894
5.02260076571838
15.13508381813881
-12.04514423024375
-4.0301321799634025
3.991254208929604
12.00627692695707
-9.14378509123344
-3.058119771114434
3.0319922874041367
9.11759603479004
-6.240218124585226
-2.0865478604246164
2.0697347060922766
6.223401464885683
-3.208211063116323
-1.073204567815992
1.0619107514503412
3.196929424928385
6.27795941621298
2.100453262857627
-2.0774014473427087
-6.254874524020124
12.155614273448009
4.063525244768243
-4.033882375282701
-12.125959774944931
17.707028252945747
5.919799999333918
-5.876407267234754
-17.66358352312818
23.139759528508876
7.740113969310187
-7.672292172035668
-23.07195342113846
28.803045199194457
9.643049903650535
-9.53447742460412
-28.69449833984254
35.22044087128597
11.815292735496769
-11.61487293196842
-35.02016677794745
42.836467287357664
14.3903169062105
-14.09493569631013
-42.5408383840404
47.62663490392151
16.111802820232697
-15.461513586749788
-46.97786065368564
33.89251624868484
11.439653436013032
-11.054370464902604
-33.50393088342389
0.0002356776676606387
0.00010663620196282864
-1.8376449588686228e-05
-0.00014258705778047442
-33.89253378464491
-11.43973914362141
11.054200413054787
33.50365812785458
-47.6268126834475
-16.111928299244028
15.461411466065329
46.97775833349442
-42.83746431741747
-14.391052404913353
14.094424576411257
42.54052065059659
-35.22009029460605
-11.815286420984194
11.614523529191501
35.019443742057774
-28.80251394691004
-9.64266180965933
9.534721775227808
28.69459150680632
-23.13907129621657
-7.739921440355829
7.67197963509534
23.071113961850642
-17.706812125063152
-5.919472739711637
5.876867782964837
17.664198150276206
-12.15546289170743
-4.063301135262009
4.034204909301479
12.126406259354553
-6.27790717271273
-2.100581982958829
2.0770852509886026
6.254361466388218
9.037321228417568
3.0229335309704766
-2.9923374574864283
-9.006705689011142
17.368390371848363
5.80456294020405
-5.767391848785337
-17.331243023450952
25.03890242544003
8.36787409320823
-8.31661526291282
-24.987679728947114
32.219352794549195
10.771287641226081
-10.695554580626776
-32.14369391876971
39.09440606215503
13.07865554606542
-12.962284119217657
-38.97808835381875
45.455682790110586
15.219638597394805
-15.050492675509304
-45.286561312765116
48.84712909386144
16.381272834609263
-16.12770268827444
-48.593768828955945
42.83662642497802
14.390527856448898
-14.09464943408966
-42.54045407762169
24.610385664534988
8.348571692535188
-7.934118804812897
-24.196751258627046
-0.0003013206587638706
-8.757566683925688e-05
0.00012573093408718705
0.0003422674781177193
-24.61024210083997
-8.348297649587039
7.934532754792599
24.19731773203239
-42.837200643494725
-14.391036608227296
14.09417533132364
42.53998594623408
-48.846171862620395
-16.380362580151996
16.128570722299628
48.594598025345476
-45.4553097182652
-15.219599022588227
15.050154791140812
45.28579002818151
-39.093513126528705
-13.078039463915047
12.962636792377452
38.97817979598767
-32.22051935593481
-10.772156370279845
10.694915486717946
32.143216185926576
-25.038519253372215
-8.367759410873987
8.316453317544074
24.987225974880857
-17.368311969243223
-5.804688088144758
5.767032574614859
17.33061000648013
-9.03762887895573
-3.022848158259876
2.9928216154075926
9.007599706033943
11.268689991440624
3.7678762387949973
-3.734639176283963
-11.235490312508773
21.417178378382232
7.155623192607891
-7.11678206291981
-21.37843478709692
30.396449074993143
10.15599962908891
-10.101753816794371
-30.342151258606464
38.2049893476069
12.766782676277217
-12.694912465376547
-38.13323668873636
44.53188809446874
14.887598033092218
-14.786463994823862
-44.43071426759707
47.939377220202005
16.036180927534588
-15.90207226446364
-47.805357940960675
45.45505479542771
15.21916009162669
-15.050836289359722
-45.286781891656574
35.22006311127916
11.814936880778987
-11.615224279870745
-35.020534588140436
19.079892833979102
6.403256061137654
-6.286026784102432
-18.962424554658355
0.00010321661829948425
0.00014136781101115048
0.00018917708075605333
0.0002470244071446359
-19.079392031388124
-6.402904098184081
6.286239004810341
18.962502688984387
-35.220344961533556
-11.814993889449397
11.615402771858498
35.0209621899412
-45.45535687220399
-15.2195655892574
15.050302778749028
45.28609324012359
-47.93866150104441
-16.03576327294286
15.902193187823286
47.80517555544793
-44.53127359642531
-14.887477369426051
14.786091442321776
44.42983576240658
-38.2047406554193
-12.767048925932613
12.694117279112106
38.131887645839015
-30.395753703007358
-10.155039692865103
10.103024053751142
30.343781440984458
-21.416996044121333
-7.155907513166312
7.1159761467715725
21.377036637772107
-11.268486727989512
-3.76768501951301
3.734796329517849
11.23559019275126
12.701969311747234
4.245957440405618
-4.212656568503007
-12.668667717895005
23.790208353253547
7.946740436484106
-7.909732028376311
-23.75333343015518
33.06089232722297
11.04314274774515
-10.994517027778784
-33.01228369717137
40.24813106880174
13.4455133038864
-13.382710159174167
-40.18540334905265
44.55810879913042
14.88955648051342
-14.80855918081943
-44.47715865881764
44.531542285811156
14.887850935134338
-14.785568433842855
-44.42911625749548
39.09332558859023
13.07778201266774
-12.962982675730018
-38.97863585941377
28.802413197729038
9.642911808739882
-9.534122413024306
-28.69363873571274
15.210017400590004
5.098170098877745
-5.022572227549972
-15.134542826592224
0.0002508877369109541
0.00010881249909289181
-2.060251426883042e-05
-0.00013900522026233375
-15.209847541118506
-5.09805864180089
5.022640395938652
15.134584431856638
-28.803067395609105
-9.643167854679632
9.534248520620167
28.6941404757672
-39.094102581366315
-13.078420932099107
12.962450547565822
38.97818347300927
-44.531076697065146
-14.887240041716723
14.786380055578775
44.43018715616199
-44.5588442938606
-14.890169510807027
14.808054900509887
44.47674915881362
-40.2469786315487
-13.444578859649482
13.38348370679887
40.18606898881262
-33.060936480775126
-11.043476852835738
10.993867255514488
33.011291801944026
-23.79135842715914
-7.947439482493792
7.909414685098454
23.753337185044074
-12.701408562272263
-4.245634951359534
4.212751573424612
12.668547182409384
13.046038168424275
4.36021790135419
-4.328942575899418
-13.014741285471246
24.01013230026001
8.01963546598563
-7.984791063820012
-23.975316268159077
32.52342455385951
10.862056433601538
-10.819641460198909
-32.48097703763051
38.16686303541064
12.747490396723151
-12.696303418430034
-38.11573577517993
40.24777762443409
13.445175325294258
-13.38303580644424
-40.185716296429746
38.204305875930004
12.766475075128255
-12.694824541395064
-38.132723188988166
32.22042315930594
10.772300002543489
-10.694532174704364
-32.14258808756131
23.139379659463884
7.739938109007198
-7.672284251253586
-23.071772416704334
12.04535317866248
4.030368411360541
-3.99099051169469
-12.005981417227304
-0.00021316367201507092
-2.472370397299528e-06
0.00020753868739120662
0.0004206527373753488
-12.046094894176349
-4.030856066179695
3.990738844848238
12.005954110907624
-23.139836923990515
-7.740326380255283
7.671921999834012
23.07139700721018
-32.21983145628474
-10.771620589774102
10.695328509216779
32.14353495980322
-38.205729239663924
-12.767631213282584
12.693904262501746
38.13201206170197
-40.24744372203713
-13.444975001271814
13.383093968746834
40.185621666532825
-38.16708044169354
-12.747753775052843
12.695958199314191
38.11527357928571
-32.52338842731115
-10.861639526461659
10.82047330999194
32.48226701200474
-24.011118773836643
-8.019737773349334
7.98556553171511
23.97698417484935
-13.047500661123195
-4.3609898643771885
4.328843171868357
13.015312638359319
12.043540870654397
4.0248564733192325
-3.9972832163912244
-12.015937787422445
21.74596761286375
7.262881864036899
-7.233287587907398
-21.71640744895558
28.674098823335953
9.575512796960538
-9.541252430004533
-28.639927070122212
32.523287723743124
10.861581202974776
-10.820489506266313
-32.48224096430931
33.060060533403885
11.042686907429015
-10.994596950302366
-33.011983530333964
30.39615153914201
10.15573719816166
-10.101990864379331
-30.342365367279854
25.038466316938866
8.367861383303534
-8.316204393573571
-24.986832929891534
17.707510203006677
5.919843105511973
-5.876824047008995
-17.664490309893154
9.14263821739587
3.0571879961935338
-3.032725988421589
-9.118149047688348
3.532334812916815e-05
-5.850131856277585e-05
-0.0001668933837208897
-0.00029083696426823735
-9.142267002724111
-3.056984712718986
3.0328067610098515
9.118147215573117
-17.706951771615422
-5.919566874435986
5.876824156424846
17.664209344162373
-25.03838394752529
-8.367814249490038
8.31621905049542
24.9868175129086
-30.395948050150764
-10.155410172592383
10.102486554926145
30.343083181098336
-33.06018123101967
-11.042817241890589
10.994451848906465
33.01181699268636
-32.52275167904736
-10.861364981377847
10.82037984058843
32.48178914144228
-28.674247595045017
-9.575800051519764
9.540809999758494
28.639309203703306
-21.74550784926396
-7.262588586570928
7.233438161383674
21.716442170487426
-12.044239558301342
-4.0251730603849865
3.9973560785510927
12.016419623607362
9.519188114849385
3.181371833954472
-3.1588281729491428
-9.496666724444367
16.88853213188122
5.64131738524884
-5.615680606715614
-16.86293071761611
21.745025547308614
7.262242522410816
-7.2336684348993
-21.716573810961563
24.01115604970255
8.020010824227938
-7.985049864277244
-23.97621394417365
23.79107205706532
7.9474618994572666
-7.9090961269976106
-23.752729482599534
21.41818985698046
7.156624892522814
-7.115715951949824
-21.37722103286069
17.366906817507697
5.803961702971719
-5.767127421364421
-17.33010667806957
12.154876480461098
4.062738393578911
-4.034746275487123
-12.126927410485223
6.241206651204266
2.087125285383081
-2.0695039764686953
-6.223459032160463
-1.9995030015707016e-05
-8.416979108005762e-05
-0.0001543292310088873
-0.00023337724269367754
-6.239952790725511
-2.085960384341888
2.0706664352619555
6.2247063833492575
-12.15564095233276
-4.06369910039939
4.0335733892716235
12.125527909694938
-17.368269349157345
-5.804986626972095
5.766403037618147
17.329654354063678
-21.417098856632947
-7.155388636645512
7.11717251369555
21.378982125024777
-23.790959075136925
-7.947392033340293
7.909122533077607
23.752711086373893
-24.011444829513493
-8.02035601931857
7.9846176446953905
23.975658714101883
-21.745417525460653
-7.262268139355001
7.233984879952914
21.717213398187596
-16.888328772674868
-5.6412044593380415
5.615694975775114
16.862839313900622
-9.519915293141821
-3.181706494415266
3.158875967736094
9.497097626877803
5.432737899420317
1.816160721005872
-1.7992133484804071
-5.415892473421991
9.519721773511264
3.1813159717130475
-3.159487351978896
-9.497957280371338
12.043949782440905
4.024954109918326
-3.9975240530329756
-12.016556418908294
13.046662329143146
4.360411559144268
-4.329212263546651
-13.015522999223322
12.7022649012506
4.24634938739473
-4.212167279329151
-12.668082118441816
11.268700694810832
3.7678257832012605
-3.7347372544463724
-11.235625095112482
9.036725582118379
3.0223258207843173
-2.992990920494776
-9.007437041902449
6.276603158767102
2.0999012115062214
-2.077188031427795
-6.253921115450794
3.208870481379563
1.0737847096461337
-1.0614111098111607
-3.196510751498863
0.00015358554082922637
0.00022117278422228992
0.0003060135350096971
0.00041046380647458136
-3.2090044038632186
-1.0739071006682934
1.0613013741240138
3.196418941312004
-6.277996284406981
-2.1004075991077116
2.0775608651310904
6.255186372800381
-9.037825434279512
-3.0227246923022904
2.993282559866202
9.008424699422903
-11.268958222673973
-3.7683436148799956
3.7339361492195167
11.234514529278385
-12.701147226194735
-4.245550352032296
4.212673251793603
12.668312166744727
-13.046121431674692
-4.36009672126238
4.329288505890872
13.015340633675805
-12.043589982517005
-4.02464747812337
3.9977704717603046
12.016732264746679
-9.518894369852205
-3.180977190444537
3.159326386761677
9.497275810266729
-5.4335583377942385
-1.8168967974797852
1.7984916653276741
5.4151167418303885
SCALARS strain11 float
LOOKUP_TABLE default
-2.17741421861678e-07
-2.176376525317436e-07
-2.1762439107112907e-07
-2.1753213396563664e-07
2.1734590381974894e-07
2.1750831503616896e-07
2.1754928151355817e-07
2.1751672227982022e-07
-9.827036922746557e-08
-7.236886815503718e-08
-4.930615260523297e-08
-2.8174577695189162e-08
-9.252066928561176e-09
6.342983086687903e-09
1.844680345280958e-08
2.70180205638737e-08
3.1904939037930014e-08
3.35189125968971e-08
3.1919981612754667e-08
2.682734092165906e-08
1.8542017362482843e-08
6.381612203953946e-09
-9.272383451330857e-09
-2.8189315718490926e-08
-4.9370398561010553e-08
-7.234540667228062e-08
-9.820434160659475e-08
-3.500504812958827e-07
-8.394923878274341e-07
-1.5362702441221177e-06
-2.3422011944281007e-06
-3.166130005387291e-06
-3.931323840390688e-06
-4.578455098668693e-06
-5.0658425331546325e-06
-5.367829075651059e-06
-5.4699083411602345e-06
-5.368088980352986e-06
-5.065968727693826e-06
-4.578127287850273e-06
-3.931246403616681e-06
-3.1660836286090052e-06
-2.3421366423343956e-06
-1.5362914769323326e-06
-8.394184936879288e-07
-3.499707014388998e-07
-9.807174926714304e-08
-7.228891042926691e-08
-4.943459633354255e-08
-2.810054029484671e-08
-9.264087229982065e-09
6.483464116274762e-09
1.8534099222380918e-08
2.687786742130993e-08
3.199689952576579e-08
3.354063007714181e-08
3.201648744906305e-08
2.713159209452587e-08
1.8451818241740914e-08
6.315170001519599e-09
-9.207208929301602e-09
-2.8051092913761178e-08
-4.920756644516411e-08
-7.228590469601781e-08
-9.814172056629711e-08
-3.500730651924411e-07
-8.395077227378589e-07
-1.536181109117185e-06
-2.3421362328225614e-06
-3.1661277384714692e-06
-3.93126345572814e-06
-4.578331353990994e-06
-5.066080004445528e-06
-5.3680459180180384e-06
-5.469885795267998e-06
-5.3679452900745606e-06
-5.065838531288086e-06
-4.578345778924464e-06
-3.931235265715316e-06
-3.1661523065898423e-06
-2.3422060472129413e-06
-1.5363605453608264e-06
-8.394333680106225e-07
-3.5007837578121537e-07
9.796205280993009e-08
7.251348031755978e-08
4.950458480645903e-08
2.8113693418402308e-08
9.28609652367518e-09
-6.363140511028709e-09
-1.839425526478644e-08
-2.6978370957359e-08
-3.190751710763218e-08
-3.373884112367609e-08
-3.1996457896393826e-08
-2.7027104727850304e-08
-1.8368179133948503e-08
-6.424412547084701e-09
9.262391846565077e-09
2.8140574034191124e-08
4.937684964720357e-08
7.248225393496899e-08
9.801787524341132e-08
3.4912563579708733e-07
8.378574910157532e-07
1.5345374096455144e-06
2.3400096676277904e-06
3.1635500560220353e-06
3.928128472881903e-06
4.574662860365149e-06
5.062111003175957e-06
5.363843113096248e-06
5.465539430409699e-06
5.363571830291e-06
5.061980029388152e-06
4.574815945589117e-06
3.92817216694763e-06
3.16357192809303e-06
2.3399674708105694e-06
1.534474730087356e-06
8.38072466968591e-07
3.490363485335237e-07
9.8195937132809e-08
7.239529930527441e-08
4.9420978211287686e-08
2.8239811283685412e-08
9.327246392777655e-09
-6.345832241627658e-09
-1.8377278165372657e-08
-2.6836262836948954e-08
-3.192631797994949e-08
-3.354557684236148e-08
-3.1980825597119344e-08
-2.692661601154389e-08
-1.8555958578719833e-08
-6.3585923904679875e-09
9.277465608248381e-09
2.8234486193490227e-08
4.9429844248966015e-08
7.23679840566871e-08
9.807409753412322e-08
3.4898323719029234e-07
8.379689272336455e-07
1.5346878698835331e-06
2.340053585788565e-06
3.1635016806037808e-06
3.92816779632571e-06
4.574835499805002e-06
5.0620310187120265e-06
5.363713022007305e-06
5.465774137281693e-06
5.3637256144691e-06
5.06206133745607e-06
4.574814880531353e-06
3.9282432378676124e-06
3.1635309318198135e-06
2.340064332379682e-06
1.534531312609444e-06
8.378738589262524e-07
3.490364150066094e-07
-1.3011743644000817e-07
-4.340044078288141e-08
4.30112334463828e-08
1.297261252759807e-07
-1.3000315548031272e-07
-4.327517094671052e-08
4.314811775929517e-08
1.298753451901835e-07
-1.2998538200621398e-07
-4.3252260680795226e-08
4.3176635579995556e-08
1.299099394310669e-07
-1.2991861427641416e-07
-4.321065800311219e-08
4.319337733316164e-08
1.299019864488271e-07
-2.2244311718641607e-07
-7.18604950353946e-07
-1.4390777523694276e-06
-2.287537508464943e-06
-3.1693873189311828e-06
-3.999592096959326e-06
-4.708943956988065e-06
-5.247396086836831e-06
-5.582209537405292e-06
-5.695616545283583e-06
-5.582263103456192e-06
-5.247398842320172e-06
-4.7089792902590966e-06
-3.999615357089259e-06
-3.1693414194525205e-06
-2.2875127839230847e-06
-1.4390518188467372e-06
-7.186412961518451e-07
-2.2253068849426016e-07
-1.49251496311259e-07
-4.948113587373293e-07
-1.0238349913496703e-06
-1.6863043793696741e-06
-2.416910571199915e-06
-3.1392746183515896e-06
-3.77993950555211e-06
-4.278935212525398e-06
-4.5941879015208575e-06
-4.701747684993096e-06
-4.594206632624331e-06
-4.278924421393521e-06
-3.78008853640574e-06
-3.1392716854233838e-06
-2.416975697513979e-06
-1.686339300342038e-06
-1.0237645736675682e-06
-4.947876579806942e-07
-1.493338890254381e-07
-7.580219580152758e-08
-2.662543919194904e-07
-5.900606531786257e-07
-1.0460348396391927e-06
-1.6101416680132374e-06
-2.2219588253352685e-06
-2.800603726664866e-06
-3.270990582769119e-06
-3.575034800459842e-06
-3.680306937668687e-06
-3.5751082466152495e-06
-3.271005030509866e-06
-2.800568032850642e-06
-2.2219545341081726e-06
-1.6100981988405316e-06
-1.0460207412639477e-06
-5.899968905896669e-07
-2.6628801755648746e-07
-7.584653041042833e-08
-9.992675954056951e-09
-5.277266746858689e-08
-1.634998996608017e-07
-3.81226473552404e-07
-7.379796849935061e-07
-1.2199000213770905e-06
-1.7445393915328788e-06
-2.2050884581209518e-06
-2.5181981367985995e-06
-2.626399345728725e-06
-2.518144238645298e-06
-2.205139276071494e-06
-1.7445450300711263e-06
-1.2199680604930985e-06
-7.378863231752297e-07
-3.8126119196457697e-07
-1.634740185163519e-07
-5.281769829140748e-08
-1.000233376680093e-08
4.434218869170392e-08
1.3150976407166892e-07
2.266334456560437e-07
2.740026246450533e-07
1.9880150207637892e-07
-7.198822976617336e-08
-5.222811147037598e-07
-9.98150030576822e-07
-1.3461698598893346e-06
-1.4776247392288278e-06
-1.346133815985362e-06
-9.982360188037775e-07
-5.222629145609781e-07
-7.198083547960143e-08
1.987299363993833e-07
2.740266629372434e-07
2.266143651931396e-07
1.3152769037794165e-07
4.444915577273001e-08
8.528689481729357e-08
2.753057507971779e-07
5.467184676574699e-07
8.50472955470083e-07
1.1105772141986603e-06
1.1995645239071262e-06
9.703229249119483e-07
4.6602234514414587e-07
2.9705947486580175e-08
-1.3904544953619036e-07
2.9811623308839685e-08
4.66113901784887e-07
9.702765096375465e-07
1.1996810271273917e-06
1.1105659451712824e-06
8.504567076683678e-07
5.467206029043103e-07
2.752217307475796e-07
8.520584597951353e-08
1.1307688905018431e-07
3.769554793725538e-07
7.824229993694254e-07
1.2963660003667554e-06
1.8716737551355278e-06
2.4160173888003456e-06
2.7136517320343334e-06
2.4558186732803744e-06
1.780095119762598e-06
1.5545344274649209e-06
1.780085635959966e-06
2.4558637288993324e-06
2.713609415273127e-06
2.4161086297734558e-06
1.8717106542165407e-06
1.2963804168313053e-06
7.824435244510597e-07
3.7691888480316516e-07
1.131496696234191e-07
1.3036847708314259e-07
4.4110218569079485e-07
9.358008427780284e-07
1.5964813181723603e-06
2.40608719666649e-06
3.3395763124680067e-06
4.313067220398231e-06
4.972549830489087e-06
4.648546731371439e-06
3.711084386803093e-06
4.64861174484868e-06
4.972553138466243e-06
4.312946437016671e-06
3.3396816802814394e-06
2.4061122434089477e-06
1.5963839902193716e-06
9.358013448937386e-07
4.4111080349691634e-07
1.302195538309403e-07
1.3926045174320056e-07
4.7551680544891117e-07
1.0195342064200918e-06
1.7630814226387084e-06
2.7093543043894743e-06
3.87816316800918e-06
5.319315113504891e-06
7.062044773284426e-06
8.7247949713265e-06
9.300720083090658e-06
8.724809428522357e-06
7.062207899156611e-06
5.3192522900934874e-06
3.878088601276183e-06
2.709334840037686e-06
1.7631270121179488e-06
1.01952651772666e-06
4.755345556963636e-07
1.3932096470936628e-07
1.4210536848982547e-07
4.862259665450175e-07
1.045866620683067e-06
1.8157868702343982e-06
2.8054054178744403e-06
4.052668345404242e-06
5.639453963666996e-06
7.807537888995797e-06
1.0929934135494451e-05
1.3691284670335618e-05
1.0929911174946058e-05
7.807551958914638e-06
5.639626893552685e-06
4.052689406498083e-06
2.805522337202826e-06
1.8158927829210053e-06
1.0459268010246797e-06
4.862578174454069e-07
1.4216238226893996e-07
1.3928895356563054e-07
4.755129199424113e-07
1.0195677650690071e-06
1.7630482708336226e-06
2.709400395522338e-06
3.8781159019639355e-06
5.319255807077067e-06
7.062232019457854e-06
8.724843248552466e-06
9.3006391160156e-06
8.724676502062587e-06
7.062120485777992e-06
5.319192017971125e-06
3.878144623964408e-06
2.7093285605850337e-06
1.763056250185177e-06
1.0195324812670853e-06
4.7549097259048934e-07
1.393376674787422e-07
1.3034458676286498e-07
4.4120941264033653e-07
9.35761608946567e-07
1.5964306637021586e-06
2.4061771273162225e-06
3.3395820797019193e-06
4.313035200043114e-06
4.972553975520627e-06
4.648583185697108e-06
3.711050698363902e-06
4.648633743168512e-06
4.972521990114984e-06
4.313041916984353e-06
3.3395643330332014e-06
2.406062476957571e-06
1.5963577241207005e-06
9.35803479030356e-07
4.4120960248326957e-07
1.303303534382766e-07
1.1311808581146443e-07
3.769549265231209e-07
7.824305215051175e-07
1.2962984314128512e-06
1.8717553738958892e-06
2.4160248581657495e-06
2.7136057861240626e-06
2.455820380366236e-06
1.7801415065459014e-06
1.5544863421288607e-06
1.7800548828793283e-06
2.455831408391951e-06
2.7135688258680263e-06
2.4159698553214565e-06
1.8716934565201487e-06
1.2962660489845151e-06
7.824018887457596e-07
3.7694758525750466e-07
1.131487860671701e-07
8.5171535550016e-08
2.7528623224720716e-07
5.467879470484605e-07
8.504032928159655e-07
1.1106198952136326e-06
1.1996810619641085e-06
9.703153941685583e-07
4.6611390465758906e-07
2.9742329227949726e-08
-1.3911416218634343e-07
2.973451308091457e-08
4.661418275212631e-07
9.70191565868514e-07
1.1996687596660394e-06
1.1106108594657882e-06
8.504600609105309e-07
5.468106681625132e-07
2.7526207461818497e-07
8.520807388487373e-08
4.44649780584859e-08
1.3151771106607694e-07
2.2659648770892438e-07
2.740398668439614e-07
1.9875951001030456e-07
-7.193680385056411e-08
-5.221409838853525e-07
-9.98224035845749e-07
-1.346153753477991e-06
-1.4775650465734952e-06
-1.3461498484731993e-06
-9.982888697756404e-07
-5.222119093175465e-07
-7.200671854612484e-08
1.9875931222580745e-07
2.741240485212154e-07
2.2651433026835144e-07
1.3153087110705924e-07
4.437346735539083e-08
-1.0020540001931533e-08
-5.2738878746766416e-08
-1.6347603987859616e-07
-3.813483151933472e-07
-7.378752527216481e-07
-1.2199814727123504e-06
-1.7444992881313764e-06
-2.2050581191639107e-06
-2.5180685077202947e-06
-2.626389602774018e-06
-2.5181206536224743e-06
-2.2050028710227793e-06
-1.744477088011162e-06
-1.2200332262842645e-06
-7.378871199250486e-07
-3.8128617528988135e-07
-1.6345613628593325e-07
-5.271921312086786e-08
-1.0044053401492281e-08
-7.583982110023757e-08
-2.662273625476941e-07
-5.899776454390548e-07
-1.046091159057072e-06
-1.6101252937154864e-06
-2.2219262396580564e-06
-2.80052133923292e-06
-3.2710118242663955e-06
-3.575002305118355e-06
-3.680210729448477e-06
-3.5751330419095395e-06
-3.271011793516687e-06
-2.800598452364772e-06
-2.2218573014530854e-06
-1.6100715144271721e-06
-1.0460144297085028e-06
-5.900709227008374e-07
-2.662807400380558e-07
-7.589046039030781e-08
-1.4940448525221917e-07
-4.946855282454699e-07
-1.0237230653568907e-06
-1.6863069285076582e-06
-2.4169245232859293e-06
-3.139336171374685e-06
-3.780008432513471e-06
-4.278857028403027e-06
-4.5942198042669274e-06
-4.701765823721463e-06
-4.594212876754544e-06
-4.278992928265571e-06
-3.7800299644546315e-06
-3.1392432955834257e-06
-2.4169090526333925e-06
-1.6862827055741034e-06
-1.023747455450568e-06
-4.947738070464058e-07
-1.494197672869714e-07
-2.225240856128241e-07
-7.186695237665353e-07
-1.4391326081733546e-06
-2.2874800533444206e-06
-3.169318099589119e-06
-3.999583658858413e-06
-4.708975150816835e-06
-5.247411733553392e-06
-5.582280579664173e-06
-5.69559750825295e-06
-5.582253820753114e-06
-5.247356763273328e-06
-4.709041145501379e-06
-3.999581032369977e-06
-3.1693445324536967e-06
-2.2874925015431424e-06
-1.4390447739022483e-06
-7.187079193587964e-07
-2.224238232532115e-07
2.2165550871838802e-07
7.17133717641899e-07
1.4371499178524039e-06
2.28509127463139e-06
3.1665477510829654e-06
3.996090931913943e-06
4.705135609892053e-06
5.242912606211875e-06
5.577471896032332e-06
5.690785905444057e-06
5.577516138399047e-06
5.242923539271888e-06
4.7051498898997846e-06
3.996134639333571e-06
3.1665409503459085e-06
2.285109773665292e-06
1.4371351713211508e-06
7.172307988300396e-07
2.216867458527949e-07
1.487251714143989e-07
4.936277376473008e-07
1.0221501932569654e-06
1.6841218598469265e-06
2.4141135453285834e-06
3.1356280995320507e-06
3.775713083981752e-06
4.273967186982364e-06
4.588546306531077e-06
4.695937873593764e-06
4.588632084211175e-06
4.273956379568372e-06
3.775799011042358e-06
3.135730564301359e-06
2.414109627587452e-06
1.6840782742291727e-06
1.0220485614081953e-06
4.936425612653284e-07
1.487800732648259e-07
7.547239608621248e-08
2.6538105124193634e-07
5.886839661572996e-07
1.0439990175449554e-06
1.6075810709732796e-06
2.218444946775616e-06
2.79609869721989e-06
3.265406288380235e-06
3.568583031594158e-06
3.673615686660553e-06
3.5686467510995246e-06
3.265441688205667e-06
2.7960801955405346e-06
2.2184229208875583e-06
1.6075049717664824e-06
1.0441399788327366e-06
5.886358028853178e-07
2.6542112505079096e-07
7.539177202323111e-08
9.762989819361856e-09
5.215793546023417e-08
1.6246609046977056e-07
3.7979374185176384e-07
7.357198490917649e-07
1.2167038146541909e-06
1.7398899199612405e-06
2.1988390848728945e-06
2.510375345984167e-06
2.617922844540266e-06
2.5103388043533348e-06
2.1987214368947294e-06
1.7398968167048334e-06
1.2165812675740684e-06
7.356371024280772e-07
3.7978967278376463e-07
1.6252915182105032e-07
5.219732635702856e-08
9.693365696922251e-09
-4.4428621791964273e-08
-1.3171607782594408e-07
-2.2695076812295767e-07
-2.748921862916198e-07
-2.003836628017286e-07
6.933589297153375e-08
5.178681850501188e-07
9.912066556011512e-07
1.3361171498950386e-06
1.4668056714621514e-06
1.3361380477167062e-06
9.912274892068251e-07
5.177889163161808e-07
6.937879187124407e-08
-2.0029862222645245e-07
-2.7489188373502893e-07
-2.2700875259434872e-07
-1.3171344191362233e-07
-4.4474423279566855e-08
-8.508802806089788e-08
-2.7494373846040365e-07
-5.464826223107455e-07
-8.503129181360036e-07
-1.1110059579093334e-06
-1.2012246916534575e-06
-9.734076594838936e-07
-4.736795913215519e-07
-4.2727597265868056e-08
1.1938524850652055e-07
-4.284657960720861e-08
-4.7389885546658683e-07
-9.733177771774348e-07
-1.201113691381983e-06
-1.110911099014289e-06
-8.502377317389648e-07
-5.464784962518759e-07
-2.7499376547765464e-07
-8.505550763704406e-08
-1.1275934641563623e-07
-3.7610312782210276e-07
-7.813083393627684e-07
-1.295006460618614e-06
-1.870413615656652e-06
-2.4150449426975362e-06
-2.7155322902365497e-06
-2.4583252330248606e-06
-1.8020233642362937e-06
-1.5730531653206092e-06
-1.8019907195403195e-06
-2.458405267181246e-06
-2.715575386722348e-06
-2.415031183335614e-06
-1.87039487770037e-06
-1.2950452091958775e-06
-7.813176295789342e-07
-3.760808288833656e-07
-1.1267607324602635e-07
-1.2957764343457523e-07
-4.398245233711018e-07
-9.338574507126995e-07
-1.593719202504229e-06
-2.4024487399985917e-06
-3.335312098461801e-06
-4.307196869248603e-06
-4.977621165830337e-06
-4.640927364293196e-06
-3.873931274975262e-06
-4.640890119689961e-06
-4.977632123226786e-06
-4.307141738121509e-06
-3.335346222666999e-06
-2.4024732281895805e-06
-1.593799371365362e-06
-9.338505926274193e-07
-4.39854044581231e-07
-1.2964740163726174e-07
-1.3853929469939685e-07
-4.738927719405428e-07
-1.016927036207732e-06
-1.7592337712875328e-06
-2.7036568185818954e-06
-3.869646485001044e-06
-5.304429631595303e-06
-7.0425604098284245e-06
-8.681864258161531e-06
-9.259541329686982e-06
-8.68185432365172e-06
-7.0425889693026544e-06
-5.30442194234329e-06
-3.8696641943818805e-06
-2.703526756998864e-06
-1.7592244658474337e-06
-1.0169985706458273e-06
-4.7384485873415427e-07
-1.384993257146777e-07
-1.4115914485565706e-07
-4.844620091724872e-07
-1.0429544142799563e-06
-1.8115034534672836e-06
-2.7990530993664275e-06
-4.041172229438811e-06
-5.623669341273119e-06
-7.755194710815094e-06
-1.0888367450525432e-05
-1.3293038587946365e-05
-1.0888340889853368e-05
-7.755280227013384e-06
-5.623726923649486e-06
-4.041188125459422e-06
-2.799075291106193e-06
-1.8115710967887833e-06
-1.043029451209751e-06
-4.845273616303075e-07
-1.4120946970931636e-07
-1.383896492505865e-07
-4.7386688052653003e-07
-1.0169207836745187e-06
-1.7593259545797824e-06
-2.7036608582046984e-06
-3.869600175850085e-06
-5.304388075728916e-06
-7.0425950372959845e-06
-8.681769590334135e-06
-9.259527900321723e-06
-8.68177246728108e-06
-7.042449656399427e-06
-5.304410472908513e-06
-3.869656206703653e-06
-2.7036510083407184e-06
-1.7591947714789419e-06
-1.0169466859201448e-06
-4.7381595003580246e-07
-1.3851682964353962e-07
-1.2964904284873402e-07
-4.398466673140311e-07
-9.338387156956895e-07
-1.593726379658933e-06
-2.402477954938087e-06
-3.3352518550543164e-06
-4.307168995156679e-06
-4.977667893011489e-06
-4.640889116839381e-06
-3.8739377230968125e-06
-4.640914506588711e-06
-4.9775904108362995e-06
-4.307158129147198e-06
-3.335216171402103e-06
-2.402493126508684e-06
-1.5937085907809234e-06
-9.339362554098424e-07
-4.3987576790922855e-07
-1.2969493675372978e-07
-1.127357936760165e-07
-3.761037617212859e-07
-7.813503142585498e-07
-1.2950093452313016e-06
-1.8704243395749331e-06
-2.415040199949675e-06
-2.7154852510202776e-06
-2.4584085788828536e-06
-1.8020417174233194e-06
-1.5731100160335486e-06
-1.801976128979789e-06
-2.4583175504914317e-06
-2.71550205249195e-06
-2.4149617137980695e-06
-1.8703998775088798e-06
-1.2949658620003968e-06
-7.812800810877082e-07
-3.7601637591349463e-07
-1.1271043082964477e-07
-8.504064294423408e-08
-2.7497090672110036e-07
-5.466233055709258e-07
-8.503100266434027e-07
-1.1109474836110134e-06
-1.2012469945386905e-06
-9.734145790668558e-07
-4.738094851863134e-07
-4.280539967968511e-08
1.193807879548009e-07
-4.277999130809784e-08
-4.737781532700852e-07
-9.734017381059223e-07
-1.2011495637755804e-06
-1.1110039260329302e-06
-8.503788309407317e-07
-5.465079464337524e-07
-2.749710113422732e-07
-8.511248677980227e-08
-4.454103121401265e-08
-1.316538413842494e-07
-2.2698125495476673e-07
-2.7490252296757944e-07
-2.0030146430718987e-07
6.934974444705588e-08
5.176984579444849e-07
9.911808817927165e-07
1.3361843348557584e-06
1.4667996380210435e-06
1.3360856490392953e-06
9.91341358452455e-07
5.178338955431211e-07
6.933325034409743e-08
-2.0023582875377394e-07
-2.7486872031592946e-07
-2.2709870016197203e-07
-1.316761770418784e-07
-4.438529541562347e-08
9.7110645601306e-09
5.2187459579494666e-08
1.6248921878847522e-07
3.79799723147084e-07
7.356923883879152e-07
1.2166006614668101e-06
1.7399041842332957e-06
2.198729560802526e-06
2.510357607045377e-06
2.617944716341511e-06
2.510320610219635e-06
2.1988296619816078e-06
1.7397799574950246e-06
1.2166832542509845e-06
7.357391139913363e-07
3.798314287904031e-07
1.6255978809495003e-07
5.2230114717596865e-08
9.721727718854656e-09
7.54446850721735e-08
2.6539791948831937e-07
5.886700103312215e-07
1.0441397276308995e-06
1.6075575079606275e-06
2.2183748758751454e-06
2.7960575675091415e-06
3.265385911834298e-06
3.568514546194515e-06
3.673469130171386e-06
3.568618865397097e-06
3.265373090029916e-06
2.796013728108282e-06
2.218413714759511e-06
1.6074182016623598e-06
1.0440731809044368e-06
5.886868239112636e-07
2.654059634617928e-07
7.54144009293585e-08
1.487507832985402e-07
4.935760445426429e-07
1.021943596107855e-06
1.6840788627861536e-06
2.414109160436828e-06
3.135633652853742e-06
3.7758701783626586e-06
4.273909985317084e-06
4.588537986965555e-06
4.695962725629124e-06
4.588540241034014e-06
4.273911726264748e-06
3.7757414240880555e-06
3.1356692797458036e-06
2.41408177751104e-06
1.6840075646980604e-06
1.0220579317781267e-06
4.935794607851922e-07
1.4886408229199122e-07
2.2167658870336782e-07
7.172538098974834e-07
1.437243539431643e-06
2.2850702256806132e-06
3.166522896627666e-06
3.996156319079243e-06
4.705171430374917e-06
5.242974880170434e-06
5.57743761844115e-06
5.690837630934267e-06
5.577566249385588e-06
5.242962609199736e-06
4.705131384741441e-06
3.996113998285672e-06
3.1664806821119287e-06
2.285143897622424e-06
1.4371838348600612e-06
7.172122464035174e-07
2.2161552381378628e-07
-5.8354666352539164e-08
-1.9437324208504414e-08
1.914345818671004e-08
5.8055990251326683e-08
-4.2891968407565706e-08
-1.4169244586664798e-08
1.4301844708519695e-08
4.302863310795546e-08
-2.919046515961754e-08
-9.608781600251026e-09
9.795147623559153e-09
2.938085413850544e-08
-1.6701203846974932e-08
-5.550223964451151e-09
5.492283596669756e-09
1.6642305596115126e-08
-5.463484442636002e-09
-1.7960966741670248e-09
1.8306206585327889e-09
5.497827172684655e-09
3.765973557307012e-09
1.2430630344506532e-09
-1.261810229219451e-09
-3.7852042195085644e-09
1.0948037948432798e-08
3.6453915129575076e-09
-3.5915324915480884e-09
-1.0894594799221169e-08
1.6017348367786122e-08
5.317719313502334e-09
-5.280668055607229e-09
-1.5979429737744688e-08
1.8902093078254634e-08
6.2614809726024845e-09
-6.258334066255866e-09
-1.8900873997862444e-08
1.9816215886953037e-08
6.495295259978384e-09
-6.699317468827903e-09
-2.002555231014891e-08
1.8896889941721895e-08
6.235781824931452e-09
-6.3047773633806425e-09
-1.8968398764890315e-08
1.5860452652616264e-08
5.191739808896312e-09
-5.37844259407283e-09
-1.60515415022211e-08
1.1025733655939396e-08
3.707400678121253e-09
-3.5433185691102764e-09
-1.0858331723345716e-08
3.785325424637831e-09
1.2428252038620968e-09
-1.2819727016055715e-09
-3.825669541573928e-09
-5.4836992481599456e-09
-1.816549664163114e-09
1.8096063050809796e-09
5.4757421756590485e-09
-1.6706953601813845e-08
-5.547285995138873e-09
5.503545126572806e-09
1.6661558455838277e-08
-2.9263837100085288e-08
-9.692998490656857e-09
9.698224640031228e-09
2.9269428634265404e-08
-4.287958430687633e-08
-1.4167744494947287e-08
1.4292369607260547e-08
4.3008244174358445e-08
-5.82922518796436e-08
-1.9377795638930717e-08
1.9200875438218912e-08
5.8112141734095735e-08
-2.0952494829765134e-07
-7.003386641446507e-08
6.910978352092645e-08
2.0860064383135257e-07
-5.039734501458004e-07
-1.685259678196882e-07
1.6689666814534432e-07
5.02342289199903e-07
-9.229790331154175e-07
-3.083871293087237e-07
3.066424057139583e-07
9.212382836507049e-07
-1.407655286025239e-06
-4.7026994888510476e-07
4.6806903355317564e-07
1.405457520701342e-06
-1.9031051402586263e-06
-6.35721889852281e-07
6.331255038571904e-07
1.900514275680193e-06
-2.3632447319940197e-06
-7.894533463213751e-07
7.86254885910137e-07
2.3600473270657396e-06
-2.7523788015439143e-06
-9.194854308364198e-07
9.156949079512644e-07
2.748587616322254e-06
-3.0453461603106163e-06
-1.0172214003345559e-06
1.0134654874760507e-06
3.0415984375187916e-06
-3.2269120665093937e-06
-1.077879997054762e-06
1.0738766005290168e-06
3.2229145071876325e-06
-3.288338915080624e-06
-1.0984938244151116e-06
1.0941276076294193e-06
3.283971831559429e-06
-3.2271651945210006e-06
-1.0781308898612924e-06
1.073623477823929e-06
3.2226544370347193e-06
-3.0454672791981052e-06
-1.017340357315974e-06
1.0133456374017413e-06
3.0414745778705593e-06
-2.7520935326208473e-06
-9.192386855238696e-07
9.159070547461873e-07
2.7487687311025452e-06
-2.363174233101055e-06
-7.893896380667745e-07
7.86311962547824e-07
2.36009771384469e-06
-1.9030628571892194e-06
-6.356840584293907e-07
6.331584953209179e-07
1.900542013251981e-06
-1.4076123056342912e-06
-4.702482167733349e-07
4.680696428895417e-07
1.4054368597240727e-06
-9.230085018774835e-07
-3.08424725078537e-07
3.065965989037904e-07
9.211841389216401e-07
-5.038749749308388e-07
-1.6840127527303558e-07
1.670493747548546e-07
5.025250209545438e-07
-2.094790000851856e-07
-7.002137753734511e-08
6.908881734660026e-08
2.0854582419294054e-07
-5.815638539578144e-08
-1.9235829751317393e-08
1.935190611723021e-08
5.8275174799604906e-08
-4.285009823508899e-08
-1.4166025389620446e-08
1.4265680479573148e-08
4.295200258853417e-08
-2.930578222020558e-08
-9.713021330379906e-09
9.699803649957511e-09
2.9292376319683955e-08
-1.6619468727434306e-08
-5.4595827169053035e-09
5.59317886840785e-09
1.6754976299611368e-08
-5.465806581644861e-09
-1.7883991518599651e-09
1.8488484632150914e-09
5.5271401648224194e-09
3.8784045220188745e-09
1.3293167556299723e-09
-1.2000119292351896e-09
-3.746285567353402e-09
1.1018754748903792e-08
3.7009103047783154e-09
-3.549990187229346e-09
-1.0865827091387226e-08
1.5935100896799503e-08
5.292270535001142e-09
-5.2500474991695745e-09
-1.5893092720348223e-08
1.8969742662106048e-08
6.306060191391127e-09
-6.2357222042203064e-09
-1.8899348933065774e-08
1.986852340464529e-08
6.579964477795852e-09
-6.580512376327952e-09
-1.987057520434765e-08
1.897537949338557e-08
6.297421216439059e-09
-6.2590247689592315e-09
-1.8937901458820905e-08
1.611766596923414e-08
5.4053754475896776e-09
-5.205220301660041e-09
-1.5915877242880794e-08
1.0921993125884155e-08
3.5874991397705225e-09
-3.6824956990005875e-09
-1.1020101605557775e-08
3.7454979777418185e-09
1.2292956791393195e-09
-1.2692847844823774e-09
-3.786605189343498e-09
-5.4303926251553225e-09
-1.7742040822610328e-09
1.8418507552464547e-09
5.498940108816797e-09
-1.6581585382535735e-08
-5.4327793895525556e-09
5.6092950111164e-09
1.676043970277874e-08
-2.9126206866486593e-08
-9.578735790660708e-09
9.790871453863037e-09
2.9341760469231426e-08
-4.285278030688455e-08
-1.4174431770680451e-08
1.4251358274042225e-08
4.293145864850412e-08
-5.823269060012404e-08
-1.9320292105745596e-08
1.925722850973366e-08
5.816807896810716e-08
-2.0956859175455533e-07
-7.009981201760995e-08
6.902006033718266e-08
2.0848548533403122e-07
-5.039640287342328e-07
-1.684917039813938e-07
1.6695615099454608e-07
5.024274003888329e-07
-9.228837146574298e-07
-3.082825893417629e-07
3.067592790548246e-07
9.213704992086513e-07
-1.4075967821429447e-06
-4.7021667808760936e-07
4.6811814811281716e-07
1.4055035934615323e-06
-1.903111286494924e-06
-6.357372809434603e-07
6.330999482058453e-07
1.9004776946676682e-06
-2.3631893602063525e-06
-7.894026317761815e-07
7.863014089004583e-07
2.3600900076505005e-06
-2.7522499274276746e-06
-9.193494077686104e-07
9.158404710336854e-07
2.7487454354151175e-06
-3.0455445577566576e-06
-1.017384951632061e-06
1.0133330235230498e-06
3.041493614047708e-06
-3.2271053395580007e-06
-1.0780531563524265e-06
1.073720512910492e-06
3.2227726041167415e-06
-3.28827900628742e-06
-1.0983943729385437e-06
1.0942691212253997e-06
3.284158397388187e-06
-3.2270237772941135e-06
-1.077989530952339e-06
1.0737668702485992e-06
3.222802108907713e-06
-3.045351950059505e-06
-1.017237393860504e-06
1.013438875520356e-06
3.041560607895677e-06
-2.7522654178768757e-06
-9.193658797763959e-07
9.158229452750632e-07
2.7487265405398698e-06
-2.3631532302115232e-06
-7.893578523113232e-07
7.863555789022758e-07
2.360154431831768e-06
-1.9031252118661968e-06
-6.357406087918738e-07
6.331073218283911e-07
1.9004959311494374e-06
-1.4076491719437756e-06
-4.702525481445341e-07
4.680982681089241e-07
1.4054991195160127e-06
-9.230510500286837e-07
-3.084416215007324e-07
3.066048009717215e-07
9.212168009323229e-07
-5.039246174023959e-07
-1.6848642381619983e-07
1.6692787387778685e-07
5.023657577117591e-07
-2.095646401099882e-07
-7.008542964384579e-08
6.904612097000107e-08
2.0852450888231289e-07
-1.329304178780688e-07
-4.445840819447544e-08
4.366530802907276e-08
1.321391705985664e-07
-4.3129287161797203e-07
-1.44225083580779e-07
1.4275979157152285e-07
4.298256179209592e-07
-8.64418433429992e-07
-2.88881103680666e-07
2.869500161269134e-07
8.624884596797333e-07
-1.374444964047112e-06
-4.592034494729433e-07
4.5675691589391887e-07
1.371998543608921e-06
-1.9044830236979171e-06
-6.361615137520649e-07
6.333051698857728e-07
1.9016323206284824e-06
-2.4034888235942298e-06
-8.028347583712014e-07
7.993410901796505e-07
2.399992614053603e-06
-2.8297923572971617e-06
-9.451567772253422e-07
9.413172501263056e-07
2.8259632908547716e-06
-3.1534449769533845e-06
-1.053336721557746e-06
1.0488339212619269e-06
3.1489486242985976e-06
-3.354651191410374e-06
-1.1205314689524681e-06
1.1157847074685923e-06
3.349907484091058e-06
-3.422804487965281e-06
-1.1432957403335886e-06
1.138454914936804e-06
3.4179670912945492e-06
-3.354686489175085e-06
-1.12054843845813e-06
1.115786736123614e-06
3.3499297220074276e-06
-3.1534420917474215e-06
-1.0533301257227567e-06
1.0488426544011387e-06
3.1489587177559175e-06
-2.8298158639208926e-06
-9.451698060082558e-07
9.413137871394639e-07
2.8259688273843397e-06
-2.4035005428586775e-06
-8.028342672397604e-07
7.993547288843994e-07
2.400020593547325e-06
-1.9044487532121623e-06
-6.361380840529118e-07
6.333182902967804e-07
1.9016354373402322e-06
-1.3744244150848406e-06
-4.5918531727320855e-07
4.5677407475852583e-07
1.372015925489578e-06
-8.644041102900957e-07
-2.888764120100029e-07
2.869468403235431e-07
8.624789210251449e-07
-4.3130364964574786e-07
-1.4421047307699997e-07
1.4280019270535016e-07
4.298933102518665e-07
-1.3298908351638827e-07
-4.4491254416745285e-08
4.3655551226068345e-08
1.3215060932006417e-07
-8.909176144739073e-08
-2.978228850689102e-08
2.9243477795565243e-08
8.855712887306799e-08
-2.9682719729015594e-07
-9.928770450945423e-08
9.810260841180973e-08
2.956426125681755e-07
-6.147657657350203e-07
-2.0550910721783833e-07
2.0381117925641346e-07
6.13072260416403e-07
-1.0128849495666392e-06
-3.3847147322060844e-07
3.3627546540751507e-07
1.0106934703324466e-06
-1.4519644081535665e-06
-4.851359642829567e-07
4.823234565493051e-07
1.4491570616663452e-06
-1.8861169579949266e-06
-6.302234854885236e-07
6.265840767454012e-07
1.882475148064916e-06
-2.2711308111204864e-06
-7.588482472398184e-07
7.545987063713178e-07
2.2668890152371945e-06
-2.5710388096497616e-06
-8.591233073493298e-07
8.541383740984232e-07
2.566059521563746e-06
-2.7605394024889096e-06
-9.225417616220977e-07
9.169095419522821e-07
2.7549040502658495e-06
-2.8251894519763787e-06
-9.441669089997606e-07
9.383497000282903e-07
2.819374747442538e-06
-2.760543083568656e-06
-9.225279673300002e-07
9.16943734604464e-07
2.754962090210228e-06
-2.5710310090909516e-06
-8.591194127424706e-07
8.541377625481163e-07
2.566053960064568e-06
-2.2712290594119333e-06
-7.588987133988478e-07
7.545941387750166e-07
2.2669295532823375e-06
-1.886100369899446e-06
-6.301908779433874e-07
6.266358352179091e-07
1.882550007947098e-06
-1.4520142223237165e-06
-4.851721473742021e-07
4.8229932374938e-07
1.4491436372381095e-06
-1.0129183973181521e-06
-3.3850495718620865e-07
3.362404074093439e-07
1.0106550250126023e-06
-6.147262864540648e-07
-2.0550138910349625e-07
2.0378531067830052e-07
6.130102247273173e-07
-2.968064483147015e-07
-9.926952240779663e-08
9.811886341609677e-08
2.9565762744293567e-07
-8.914472110141403e-08
-2.980737013116852e-08
2.9245256345095116e-08
8.858540865436249e-08
-4.5134511326289095e-08
-1.508851170742287e-08
1.4750159274545815e-08
4.4799007080376096e-08
-1.5961669090971964e-07
-5.344492497172393e-08
5.2570762198306253e-08
1.5874276537014564e-07
-3.5420556416046467e-07
-1.1850827535270225e-07
1.1713553348460803e-07
3.528314942678745e-07
-6.282596209175595e-07
-2.1013173405817764e-07
2.0811228967562712e-07
6.26234669977993e-07
-9.673057316007816e-07
-3.23409795326135e-07
3.208418019491621e-07
9.647402746983114e-07
-1.335103583924302e-06
-4.4640657619055e-07
4.429055860052933e-07
1.331598259567135e-06
-1.6829762313486096e-06
-5.627817573697347e-07
5.582726610893485e-07
1.678468515602799e-06
-1.965801472710721e-06
-6.574815362182795e-07
6.518877678149404e-07
1.9602108970832866e-06
-2.148629170254518e-06
-7.187486515680686e-07
7.122955561177091e-07
2.1421765305923435e-06
-2.211921458258881e-06
-7.39943326555359e-07
7.332391780898173e-07
2.2052216141037195e-06
-2.1486753256638735e-06
-7.187679610977382e-07
7.123032020744935e-07
2.142211680010442e-06
-1.9658017675651396e-06
-6.574699341413415e-07
6.519092097187484e-07
1.960240174660177e-06
-1.6829527844132441e-06
-5.62769935159857e-07
5.582736171128033e-07
1.678459308866731e-06
-1.3351083542681441e-06
-4.464184991150033e-07
4.428884917001552e-07
1.331577794933675e-06
-9.67285239406035e-07
-3.2341237064456574e-07
3.208157088527286e-07
9.64689725047041e-07
-6.282284330735854e-07
-2.1007951082896437e-07
2.081896712524678e-07
6.263416579867231e-07
-3.541681862437307e-07
-1.1849482128498123e-07
1.1712706847813448e-07
3.5280261821007963e-07
-1.5963577503982918e-07
-5.3449568316460416e-08
5.2580740244473345e-08
1.5876762111607934e-07
-4.518251829621622e-08
-1.5141680770325294e-08
1.4690024075642016e-08
4.472978900119107e-08
-5.793934852726945e-09
-1.9666294669151707e-09
1.7363845118689714e-09
5.5639089377446105e-09
-3.150074474054035e-08
-1.0652787387887414e-08
1.0051526826149182e-08
3.0894955430765814e-08
-9.801703087022884e-08
-3.29627771918084e-08
3.194579668158726e-08
9.699439651456032e-08
-2.288439240397122e-07
-7.672921345514006e-08
7.529554537852312e-08
2.2741054262614968e-07
-4.4335142117962745e-07
-1.4855316257667006e-07
1.4630069768151177e-07
4.4109648464005224e-07
-7.331777795646643e-07
-2.4555821638572173e-07
2.4236148943659885e-07
7.299812754303636e-07
-1.0487838425984886e-06
-3.5133343169804765e-07
3.466840564521345e-07
1.0441344075150238e-06
-1.3258770941437792e-06
-4.4431065283553894e-07
4.3804574863248735e-07
1.3196174061015642e-06
-1.514335426125446e-06
-5.076947049049985e-07
4.998754284980811e-07
1.5065149702210567e-06
-1.5794893332247983e-06
-5.296565185643198e-07
5.211572649543861e-07
1.5709977939232234e-06
-1.5142998631666182e-06
-5.076769525290403e-07
4.998754558963037e-07
1.5064970272822553e-06
-1.3259301970859616e-06
-4.443710845888904e-07
4.379723431875704e-07
1.3195250276043513e-06
-1.0487852654429697e-06
-3.5133118328131707e-07
3.4668910166985034e-07
1.044141102024554e-06
-7.332496192828664e-07
-2.4563683990314056e-07
2.422724698844525e-07
7.298777342963636e-07
-4.432929172730471e-07
-1.4852900904333e-07
1.4629037537253198e-07
4.4105070227604126e-07
-2.2887366215099125e-07
-7.675347583543934e-08
7.527731733097953e-08
2.273990224142819e-07
-9.798769213739678e-08
-3.292811840902021e-08
3.198780746532792e-08
9.704588432510319e-08
-3.15281247741106e-08
-1.066317966216812e-08
1.0057804387952896e-08
3.09177832780172e-08
-5.812080591111046e-09
-1.994542649097486e-09
1.6968932196881337e-09
5.5106405792704205e-09
2.665954759034639e-08
8.870267739075066e-09
-8.954803148997215e-09
-2.6744737199185797e-08
7.905436337149463e-08
2.6314351777440015e-08
-2.6520889276349102e-08
-7.926084138326628e-08
1.362638562402152e-07
4.536813081809643e-08
-4.570198930756164e-08
-1.365921747965848e-07
1.6471260570749546e-07
5.469219372528089e-08
-5.5573808822179105e-08
-1.6559688124917482e-07
1.1943916445461555e-07
3.936683437913424e-08
-4.09440716053755e-08
-1.210180376395864e-07
-4.357603143254063e-08
-1.5381580918683024e-08
1.2738624977776114e-08
4.092992013718377e-08
-3.147507782359782e-07
-1.0647209595232576e-07
1.0205733298393471e-07
3.1033663104584885e-07
-6.014046394081651e-07
-2.0297483556766527e-07
1.960203337668387e-07
5.944538737923111e-07
-8.112420948475085e-07
-2.740209721768805e-07
2.6396827060987116e-07
8.011894045908963e-07
-8.903873396116924e-07
-3.006535724513204e-07
2.899076189657665e-07
8.796165929688109e-07
-8.112113199509885e-07
-2.7399411867828904e-07
2.639923302287517e-07
8.012116130030889e-07
-6.014620457517328e-07
-2.0300737042788786e-07
1.9600907186570482e-07
5.944603582962171e-07
-3.147513727708162e-07
-1.0649141790608496e-07
1.0201892102976173e-07
3.102783502247075e-07
-4.356314513634385e-08
-1.536244221764238e-08
1.2764847481111508e-08
4.0964060771947475e-08
1.194004060380005e-07
3.935972127042109e-08
-4.092032583960514e-08
-1.2096373642675462e-07
1.6473075040504548e-07
5.4705054087361704e-08
-5.556570567208374e-08
-1.655929362624764e-07
1.362445196037565e-07
4.534508205381038e-08
-4.573251654108046e-08
-1.3663432979135748e-07
7.907029623763218e-08
2.6327882741983277e-08
-2.651027419461882e-08
-7.925383812071307e-08
2.6733907504405963e-08
8.913391261189396e-09
-8.941803051470965e-09
-2.676123165082367e-08
5.11129186232806e-08
1.7084069141998226e-08
-1.6894831474795202e-08
-5.092045061647066e-08
1.6531710249345632e-07
5.523096886089762e-08
-5.4885711163465967e-08
-1.6496623167841507e-07
3.2841316656428976e-07
1.0960790105749019e-07
-1.0936538193465073e-07
-3.281729148880974e-07
5.109674529532593e-07
1.7048246910011944e-07
-1.7032957344217947e-07
-5.10812141661654e-07
6.672317137898509e-07
2.2243445890052227e-07
-2.228505290233218e-07
-6.676520595098878e-07
7.204880127960334e-07
2.3979973980473024e-07
-2.414318264337689e-07
-7.221295029481711e-07
5.821655351852251e-07
1.931281637598814e-07
-1.9620494806291133e-07
-5.852449393821402e-07
2.7762895555422107e-07
8.991322674942182e-08
-9.757469819973719e-08
-2.8528897717816637e-07
1.4071980830587805e-08
1.68335064637537e-10
-1.3159190920958297e-08
-2.707332835347187e-08
-8.890242066475484e-08
-3.65246880691672e-08
1.6629597129891316e-08
6.908685801221282e-08
1.4129899597592477e-08
1.810890326581216e-10
-1.3190115253497448e-08
-2.7147755821133046e-08
2.77664378052489e-07
8.989076942522711e-08
-9.765810859638235e-08
-2.854376101139866e-07
5.821419677004558e-07
1.931293442322679e-07
-1.9617682055217411e-07
-5.851873402309971e-07
7.205872190954588e-07
2.398895042575455e-07
-2.4134331803871145e-07
-7.220339149453803e-07
6.672357286269248e-07
2.2245614182334061e-07
-2.2280811618272112e-07
-6.675854328404285e-07
5.109680615116019e-07
1.7050034259100122e-07
-1.7029372447081859e-07
-5.107572858993603e-07
3.284158405832821e-07
1.0961102180594151e-07
-1.0936186676212267e-07
-3.2816904747302866e-07
1.65249438580789e-07
5.517477211225419e-08
-5.493527775214668e-08
-1.650138491855746e-07
5.106129267909258e-08
1.705786115461204e-08
-1.6899025014407987e-08
-5.090535011749442e-08
6.767606550855954e-08
2.2629260389150918e-08
-2.2300005789871458e-08
-6.73507598719647e-08
2.2627243266223895e-07
7.569173338453639e-08
-7.485283045477464e-08
-2.2542900951147415e-07
4.6992260407593966e-07
1.5705537061844188e-07
-1.55934996633883e-07
-4.6880416125147373e-07
7.787611984062803e-07
2.6015446533134146e-07
-2.5878818277202953e-07
-7.773971754006237e-07
1.1244573933852364e-06
3.754451857532204e-07
-3.7416977326579226e-07
-1.1231871249704761e-06
1.451599522268171e-06
4.844970370385115e-07
-4.835064403851952e-07
-1.450615009584988e-06
1.6299304698985662e-06
5.430399605474423e-07
-5.44913232456562e-07
-1.6318062117763599e-06
1.4742288048687213e-06
4.90791758171738e-07
-4.932672961685536e-07
-1.4767147405378434e-06
1.0629564393960234e-06
3.468632401443239e-07
-3.688691158389157e-07
-1.08493600927545e-06
9.283163688138252e-07
3.0332893229470526e-07
-3.2130955254089377e-07
-9.464796362559924e-07
1.0629516034553477e-06
3.4686494780611365e-07
-3.6885896829291775e-07
-1.0849155202344307e-06
1.474246988018152e-06
4.9078438161404e-07
-4.93299297847638e-07
-1.4767708358190412e-06
1.6298894661564978e-06
5.429997347941584e-07
-5.449534500150122e-07
-1.6318473213539075e-06
1.4516661611431447e-06
4.845441366457121e-07
-4.834742771565176e-07
-1.4505937539956854e-06
1.1244853532037247e-06
3.754669886234935e-07
-3.7415143815978935e-07
-1.1231697576996602e-06
7.78763915897443e-07
2.6014597599537115e-07
-2.5880730887203884e-07
-7.774263976311618e-07
4.6993464223633874e-07
1.5706024174104438e-07
-1.5593601631821996e-07
-4.688098584441913e-07
2.2625220412117453e-07
7.568550461876933e-08
-7.484745427610573e-08
-2.2541419066914037e-07
6.774735618504668e-08
2.2700653273810545e-08
-2.222679745117473e-08
-6.727361486630334e-08
7.803050426288816e-08
2.62109397727861e-08
-2.543318169262454e-08
-7.724832762345812e-08
2.647345106639165e-07
8.863968304489989e-08
-8.736329987560354e-08
-2.634577243795788e-07
5.620077439955073e-07
1.8800853486891644e-07
-1.860599046638045e-07
-5.600609055550487e-07
9.590339623798128e-07
3.206965346370938e-07
-3.179379628008572e-07
-9.562742072782848e-07
1.4455898561388514e-06
4.832818151535856e-07
-4.796329921182008e-07
-1.4419445059712932e-06
2.006624502524923e-06
6.706357948554897e-07
-6.663692747807537e-07
-2.0023587550231647e-06
2.592162715982227e-06
8.665521576724233e-07
-8.606387882845179e-07
-2.586263793010607e-06
2.9865496465469876e-06
9.94490311389401e-07
-9.99595434831007e-07
-2.9916434517007068e-06
2.793094166699678e-06
9.340894987566739e-07
-9.261407280386491e-07
-2.7852557881805073e-06
2.192111825241594e-06
6.756645851806187e-07
-8.397820378536203e-07
-2.3558005159546314e-06
2.7931476891049356e-06
9.341344457299006e-07
-9.261013331103574e-07
-2.7852189350904832e-06
2.9865477319240136e-06
9.944843974863532e-07
-9.996041500405506e-07
-2.991653835233282e-06
2.5920779440687797e-06
8.66502585039966e-07
-8.606535957210448e-07
-2.5862438161883272e-06
2.0066967412277897e-06
6.706781114640403e-07
-6.66354234157493e-07
-2.0023689847308707e-06
1.4456039978110596e-06
4.83285643199105e-07
-4.796389993337591e-07
-1.441959900923967e-06
9.589465367124128e-07
3.206157845013491e-07
-3.180153180966372e-07
-9.563514121908867e-07
5.620076275747454e-07
1.8800873514794592e-07
-1.8605839538152202e-07
-5.600571264009757e-07
2.6473788016304067e-07
8.863677076857701e-08
-8.73736049501056e-08
-2.6347684681411743e-07
7.790900870795203e-08
2.611106355437931e-08
-2.551726391644693e-08
-7.732246977767976e-08
8.329665518794216e-08
2.7944948962493887e-08
-2.7203607991244105e-08
-8.256208593182546e-08
2.853772941846522e-07
9.562559250692049e-08
-9.399647737939887e-08
-2.837499196578497e-07
6.122929823923484e-07
2.0497269565336595e-07
-2.0237275184797898e-07
-6.096906154245962e-07
1.0591241980176247e-06
3.5440381530860154e-07
-3.5056992577636725e-07
-1.0552856824740109e-06
1.627888259983501e-06
5.447217008985872e-07
-5.390144658980189e-07
-1.6221843115692136e-06
2.330586801466833e-06
7.800326023571502e-07
-7.715172752609245e-07
-2.3220710571696113e-06
3.1978280910470447e-06
1.0714494788170714e-06
-1.0565651227291417e-06
-3.1829433651819894e-06
4.246607029911864e-06
1.4229454694675292e-06
-1.4034678707391945e-06
-4.227127185237045e-06
5.251751565831658e-06
1.7663276482178525e-06
-1.723258354478785e-06
-5.208729112769761e-06
5.597181192584788e-06
1.880668856136386e-06
-1.8401132598454273e-06
-5.556414112310726e-06
5.251762952537473e-06
1.7663373496866475e-06
-1.7232492739473193e-06
-5.208719841059625e-06
4.246721716425622e-06
1.423017742535268e-06
-1.4034329153846115e-06
-4.227125455790598e-06
3.1977807690049265e-06
1.071416883593676e-06
-1.0565836877710066e-06
-3.182948537962596e-06
2.330527449167716e-06
7.799864043100263e-07
-7.715522735880775e-07
-2.3220966290319472e-06
1.6278941461101565e-06
5.447546308802453e-07
-5.389522023460658e-07
-1.6220898160397568e-06
1.0591596623730354e-06
3.5443071348673083e-07
-3.50550123318083e-07
-1.0552716970535503e-06
6.122739076891599e-07
2.0494182408612761e-07
-2.024161214059239e-07
-6.097474595893881e-07
2.8539772644643746e-07
9.565045115678128e-08
-9.396543972084448e-08
-2.8371116047275213e-07
8.334986531868815e-08
2.7992768858106643e-08
-2.7159639440221817e-08
-8.252061439208147e-08
8.502146910810415e-08
2.858556016199776e-08
-2.763366437411041e-08
-8.407146322511605e-08
2.918058307765925e-07
9.781325874258506e-08
-9.603713561553984e-08
-2.900338064958097e-07
6.281208273471728e-07
2.103432594664778e-07
-2.0744308243739185e-07
-6.252166261551395e-07
1.0908027477281312e-06
3.6510586905527664e-07
-3.6082833155051675e-07
-1.0865232609319486e-06
1.685606491920455e-06
5.641695522903833e-07
-5.578150680460303e-07
-1.67925272673633e-06
2.4358461527991537e-06
8.16105985766008e-07
-8.046098022400361e-07
-2.4243500002761598e-06
3.3900137286560494e-06
1.135786535391703e-06
-1.1200373770080263e-06
-3.3742527762899155e-06
4.700389013980594e-06
1.5851730025689958e-06
-1.5327490482490436e-06
-4.647992155448061e-06
6.577464726365695e-06
2.2080018493401965e-06
-2.167078572527792e-06
-6.536325596023795e-06
8.315606379576818e-06
2.9091851486747616e-06
-2.5078978895566595e-06
-7.915346004066376e-06
6.577449427147206e-06
2.2079952081924953e-06
-2.167075432660953e-06
-6.536311416198079e-06
4.700381020211752e-06
1.5851445225260191e-06
-1.532796930816746e-06
-4.64805887988827e-06
3.390134561732233e-06
1.1358591639216292e-06
-1.120009881422357e-06
-3.374268348602452e-06
2.435859742607252e-06
8.16112438175795e-07
-8.046104132929111e-07
-2.424357977759417e-06
1.6856900015189968e-06
5.642231523401292e-07
-5.57788573550197e-07
-1.6792512283671929e-06
1.0908724915621032e-06
3.6514108353417896e-07
-3.6082685786129054e-07
-1.0865557552499489e-06
6.281549153035887e-07
2.1035150718669293e-07
-2.0746113444346237e-07
-6.252621827795846e-07
2.918182171757905e-07
9.780662342182e-08
-9.606278711729588e-08
-2.900788776162566e-07
8.505428374452895e-08
2.8595887666474362e-08
-2.7644410816041187e-08
-8.41023165085858e-08
8.334291773035019e-08
2.801178917294367e-08
-2.7112983441712757e-08
-8.244396580703306e-08
2.8538076840556315e-07
9.563578869109524e-08
-9.39802287276692e-08
-2.837284092289949e-07
6.123207052129154e-07
2.0499491266631753e-07
-2.0235585265412914e-07
-6.096789785352275e-07
1.0590872098377446e-06
3.5435931611954574e-07
-3.5062594493442956e-07
-1.0553575883337496e-06
1.627923376757573e-06
5.447463381422213e-07
-5.389998186840217e-07
-1.6221791933335172e-06
2.3305572133466845e-06
7.800206829541856e-07
-7.715110161754437e-07
-2.3220455383807063e-06
3.1977905838274923e-06
1.0714326060361212e-06
-1.0565621707502026e-06
-3.182921059330379e-06
4.246738599091027e-06
1.4230279455663963e-06
-1.4034288026848474e-06
-4.227126767297057e-06
5.251798657991691e-06
1.7663788397393604e-06
-1.723197782049768e-06
-5.2086539538229865e-06
5.59711737911639e-06
1.880622558193476e-06
-1.8401411633253012e-06
-5.556422263798891e-06
5.251676175510936e-06
1.7662939595600863e-06
-1.7232509023825532e-06
-5.2086801162736646e-06
4.246679437609757e-06
1.4230195261449863e-06
-1.4033869404021099e-06
-4.227033982213621e-06
3.1977399913962062e-06
1.0713926303883292e-06
-1.0565940300327759e-06
-3.182947140223033e-06
2.3305757713750624e-06
7.800256913419873e-07
-7.715229695965525e-07
-2.322077883131282e-06
1.6278729149509646e-06
5.447145629295519e-07
-5.390154409617987e-07
-1.622181060645378e-06
1.0591166615218917e-06
3.544114199807019e-07
-3.5054957457821e-07
-1.055254893543578e-06
6.122922142064863e-07
2.0497075936022624e-07
-2.0237820110534377e-07
-6.097019292269218e-07
2.853720697647971e-07
9.564087969510249e-08
-9.396069199085755e-08
-2.83693605235974e-07
8.335753797633627e-08
2.799250694955624e-08
-2.7166761165306474e-08
-8.253347891749863e-08
7.800276589919886e-08
2.6176752803558356e-08
-2.5476724840878262e-08
-7.73042192689366e-08
2.648140539594779e-07
8.86928621934846e-08
-8.733553095649493e-08
-2.63454904496363e-07
5.619786909716318e-07
1.8799024290375166e-07
-1.8606666521078785e-07
-5.600553125741092e-07
9.58995207116925e-07
3.206680733273959e-07
-3.179577675489764e-07
-9.56286934757078e-07
1.4456530008158386e-06
4.833199205925287e-07
-4.796184421528016e-07
-1.4419523191207262e-06
2.006637320840776e-06
6.706574234953411e-07
-6.663369263026908e-07
-2.002313549288176e-06
2.5921411173114584e-06
8.66541716888769e-07
-8.606373323866157e-07
-2.586249551333325e-06
2.986541442793339e-06
9.944713483672762e-07
-9.996241000544137e-07
-2.991681220681358e-06
2.793123188153321e-06
9.341150478507643e-07
-9.261146973991996e-07
-2.7852254512027858e-06
2.192084946702269e-06
6.756437726969378e-07
-8.39797503914344e-07
-2.355811233790972e-06
2.7931617544094123e-06
9.341397855106015e-07
-9.261054033458255e-07
-2.78523295698177e-06
2.9865322987241566e-06
9.94483786711034e-07
-9.995905313232856e-07
-2.9916262331113053e-06
2.5921518394412396e-06
8.665545412969711e-07
-8.606239808410521e-07
-2.5862369979218897e-06
2.0066354053764612e-06
6.706684071450947e-07
-6.663155992219644e-07
-2.0022841300728483e-06
1.445569847660145e-06
4.832619578348882e-07
-4.7965704848274e-07
-1.4419768851539616e-06
9.589463032880219e-07
3.206395521437172e-07
-3.17968887499423e-07
-9.562828667333823e-07
5.619979699875155e-07
1.8798463110800134e-07
-1.860998216831472e-07
-5.601190595384137e-07
2.648058274705434e-07
8.86775796161976e-08
-8.735660413962398e-08
-2.6348055137334625e-07
7.798082775518911e-08
2.614799843488058e-08
-2.551158722469138e-08
-7.734475480046521e-08
6.771238837341431e-08
2.266133099573797e-08
-2.227151178410547e-08
-6.732511454582424e-08
2.2627299960456537e-07
7.569300983917282e-08
-7.485146320818092e-08
-2.2542821275992053e-07
4.699200319979724e-07
1.5704313359801714e-07
-1.5595680141755608e-07
-4.6883576439865626e-07
7.78708512526316e-07
2.6011558060257123e-07
-2.5881426883936354e-07
-7.774113205301358e-07
1.1245157899887614e-06
3.7548307521909075e-07
-3.741499352803712e-07
-1.1231833439359629e-06
1.4516063884181807e-06
4.845034661353498e-07
-4.835004397199527e-07
-1.45060953403095e-06
1.62990324479792e-06
5.43031248696757e-07
-5.449034945377573e-07
-1.6317779125904486e-06
1.4742145103378845e-06
4.907614042579111e-07
-4.933142422110931e-07
-1.4767791968288424e-06
1.0629875092805358e-06
3.4688060514091734e-07
-3.6886426206528267e-07
-1.0849429006153793e-06
9.282753034248886e-07
3.03290486039845e-07
-3.2134979101663963e-07
-9.465260772702211e-07
1.0629323787172268e-06
3.4685558370980973e-07
-3.6885968537209157e-07
-1.084908397782497e-06
1.4742375367120947e-06
4.907977737087649e-07
-4.932624879938619e-07
-1.4767094264570707e-06
1.629872943668259e-06
5.430059923650088e-07
-5.449250455209775e-07
-1.6317967775278386e-06
1.4515747430877274e-06
4.844963019424997e-07
-4.834814450287162e-07
-1.4505621272857538e-06
1.124474859330593e-06
3.754606688870926e-07
-3.741557411708618e-07
-1.1231737589347673e-06
7.786921803250996e-07
2.601142051299188e-07
-2.58801144186957e-07
-7.773834532435325e-07
4.699110903970405e-07
1.5705333608704436e-07
-1.5592741792885834e-07
-4.6878654727956076e-07
2.2628104379054242e-07
7.571778367493343e-08
-7.480816673240132e-08
-2.25364159263039e-07
6.773878441067999e-08
2.2685133823502346e-08
-2.224872433335967e-08
-6.730172347636093e-08
5.1037364855177625e-08
1.704405938607323e-08
-1.6902961520043336e-08
-5.0899693272710156e-08
1.6529848671786862e-07
5.5212213252719966e-08
-5.490591385021171e-08
-1.6498921573057657e-07
3.2844318881286583e-07
1.0959829687198774e-07
-1.0941593880930967e-07
-3.2826680303535416e-07
5.109178455482699e-07
1.704501114557777e-07
-1.7034749491529576e-07
-5.108183806414729e-07
6.672733443256751e-07
2.224769920719516e-07
-2.2280490238196782e-07
-6.676011379616598e-07
7.205698320904286e-07
2.3985096720899324e-07
-2.414076525590614e-07
-7.221296270398803e-07
5.821575495210118e-07
1.9312048131839288e-07
-1.9621206743744568e-07
-5.852516716114975e-07
2.7767733006868467e-07
8.991886803894067e-08
-9.761234491360848e-08
-2.8537148564003467e-07
1.4086228660933897e-08
1.607353642546494e-10
-1.3188972634511908e-08
-2.712629500883912e-08
-8.895332682772039e-08
-3.65604392732477e-08
1.6606466575128098e-08
6.907407348877292e-08
1.4086145529515481e-08
1.6756114898375252e-10
-1.3175792826572441e-08
-2.7107022924910407e-08
2.7770415313502217e-07
8.994506220556808e-08
-9.758587623913406e-08
-2.853434202861743e-07
5.820645482268461e-07
1.930557027539359e-07
-1.9625041275395105e-07
-5.852644560239151e-07
7.205722224769284e-07
2.3987078174615706e-07
-2.4136671085417394e-07
-7.220630382949456e-07
6.672566007451947e-07
2.224516490855616e-07
-2.2283974570290466e-07
-6.676463801015553e-07
5.109479080632473e-07
1.7045471607367996e-07
-1.7036758298560883e-07
-5.108627917672914e-07
3.2847888847657714e-07
1.0964923872775617e-07
-1.0934698882643368e-07
-3.281765051897645e-07
1.6528189926163367e-07
5.520164169693642e-08
-5.4911808904621606e-08
-1.6499164033449698e-07
5.105083068779326e-08
1.7035485504884873e-08
-1.693292115551026e-08
-5.0950630448194645e-08
2.673661998742194e-08
8.901714750736422e-09
-8.969683468196266e-09
-2.680732935980701e-08
7.907175718357973e-08
2.634172761514786e-08
-2.6482746870448715e-08
-7.921112548173181e-08
1.3623408865945374e-07
4.534293657557087e-08
-4.572551100257005e-08
-1.3661739354034474e-07
1.6474054018167372e-07
5.4710857934348045e-08
-5.5564493704057805e-08
-1.6559717821301723e-07
1.1942229400166426e-07
3.9374707393874386e-08
-4.0911587641939695e-08
-1.2096086904334058e-07
-4.3536672027916223e-08
-1.5351321464018852e-08
1.2762127663684675e-08
4.09482282144602e-08
-3.146752104929429e-07
-1.064582663395236e-07
1.0201074901634855e-07
3.102293586257354e-07
-6.014632037143475e-07
-2.030205775299665e-07
1.9598444687615735e-07
5.944247116872886e-07
-8.11220735742052e-07
-2.739916921280089e-07
2.6400793224669317e-07
8.012417997554921e-07
-8.903453740279066e-07
-3.006266064507074e-07
2.899219012329757e-07
8.796200818925876e-07
-8.112325146063942e-07
-2.74021529777721e-07
2.6395759937340724e-07
8.011685278721398e-07
-6.014872189850223e-07
-2.0300271056684915e-07
1.9604635266741444e-07
5.945338409068385e-07
-3.147062247206957e-07
-1.0644974323694399e-07
1.020594496709687e-07
3.1032004737217844e-07
-4.3594366087515435e-08
-1.5398187194065605e-08
1.2725218096268365e-08
4.0921164522894626e-08
1.1943034547434728e-07
3.9392980331724725e-08
-4.0880587322440765e-08
-1.2091421538150404e-07
1.6480833818412893e-07
5.476557367063012e-08
-5.551972230219415e-08
-1.6555932791807032e-07
1.3614913775723825e-07
4.525307678235335e-08
-4.582243723523505e-08
-1.367236047650558e-07
7.90742043735998e-08
2.6335218673324834e-08
-2.6496482600016358e-08
-7.923009472370762e-08
2.6688720585962833e-08
8.899363603681598e-09
-8.9235651446265e-09
-2.6708772388195356e-08
-5.822214852596597e-09
-1.997241514534176e-09
1.701117722380241e-09
5.521552486065229e-09
-3.147198238129256e-08
-1.0626963857507388e-08
1.0076577509898765e-08
3.092124852346889e-08
-9.799585528463828e-08
-3.294295438868722e-08
3.196554525242146e-08
9.701530335678998e-08
-2.2893487883896002e-07
-7.67925369647704e-08
7.525717819409361e-08
2.273950794329238e-07
-4.432761345832259e-07
-1.4850519023529296e-07
1.463227601063155e-07
4.4109353956878206e-07
-7.33256419343381e-07
-2.4563697680404784e-07
2.4227895756637197e-07
7.298907177648306e-07
-1.0487501634556806e-06
-3.513048794905743e-07
3.467081642824499e-07
1.0441539797095833e-06
-1.3258706398240616e-06
-4.443291919814518e-07
4.3800014291710265e-07
1.3195417521202207e-06
-1.5142411334424094e-06
-5.076319509397798e-07
4.999095812533577e-07
1.5065226019166794e-06
-1.5794822594179803e-06
-5.296491638814849e-07
5.211674397962579e-07
1.5710129547992502e-06
-1.51428848749538e-06
-5.076757238747093e-07
4.998684622701394e-07
1.50648361966349e-06
-1.325813128233086e-06
-4.442663533860136e-07
4.3807168861181855e-07
1.3196256803821305e-06
-1.0487545979102203e-06
-3.5133676915335976e-07
3.4664746144559555e-07
1.0440626756584581e-06
-7.332844804168112e-07
-2.4564049933353815e-07
2.4230158227230014e-07
7.29941795168422e-07
-4.432799553810707e-07
-1.4849938709867588e-07
1.4634004506103304e-07
4.411243850173732e-07
-2.2888755562156665e-07
-7.675533284304259e-08
7.528865937460327e-08
2.2742489464832455e-07
-9.797286022305424e-08
-3.291353734523328e-08
3.2004964345411224e-08
9.70683946242834e-08
-3.1451174998566034e-08
-1.0603620337681918e-08
1.0104171890672198e-08
3.0955142768518407e-08
-5.839997382819234e-09
-2.009228813274616e-09
1.6955670045087912e-09
5.523397570480343e-09
-4.516775667720574e-08
-1.5118632359922834e-08
1.4721955175767132e-08
4.477158983481888e-08
-1.595954110256148e-07
-5.342719909540161e-08
5.2586801810436054e-08
1.587586577651845e-07
-3.5415015606568567e-07
-1.1847592175720512e-07
1.1714895585199225e-07
3.528296562589628e-07
-6.282817449770883e-07
-2.1011765901496338e-07
2.0816515514110456e-07
6.263296046631062e-07
-9.672975273163076e-07
-3.2340966668945037e-07
3.2083391481030343e-07
9.647244108533515e-07
-1.3350916780834055e-06
-4.4641481006246764e-07
4.4287732972603244e-07
1.331549535812937e-06
-1.6829233429275364e-06
-5.62755441722157e-07
5.582748517501956e-07
1.6784483945000983e-06
-1.9658195744755996e-06
-6.574975768332963e-07
6.518722996586707e-07
1.960194088324041e-06
-2.148614914663019e-06
-7.187529879899152e-07
7.122716209236046e-07
2.1421314024897e-06
-2.211871642539623e-06
-7.399400607493306e-07
7.331947838931652e-07
2.2051275724074143e-06
-2.1486980836850356e-06
-7.187897477726329e-07
7.122809800898244e-07
2.1421874983884592e-06
-1.9658207199325928e-06
-6.575007056551507e-07
6.518664794601808e-07
1.9601849942912225e-06
-1.682985139158863e-06
-5.628061983016519e-07
5.582307073641324e-07
1.6784065521874975e-06
-1.3350341678567898e-06
-4.463658341904986e-07
4.4292051398775456e-07
1.3315894481762819e-06
-9.672779562059503e-07
-3.234253571678808e-07
3.207807829546175e-07
9.646304268478775e-07
-6.282339549031069e-07
-2.1009780704506903e-07
2.081572262249004e-07
6.262931294574378e-07
-3.54213752179304e-07
-1.1851398210027675e-07
1.1713259003790638e-07
3.5283147888434674e-07
-1.5962906819294576e-07
-5.34455161936738e-08
5.2580102803852224e-08
1.5876050618807494e-07
-4.5210020684603724e-08
-1.5155004404188155e-08
1.468931935377088e-08
4.4740857083405694e-08
-8.920385408464626e-08
-2.985662441931658e-08
2.9204232171453626e-08
8.855098241125625e-08
-2.96741789404531e-07
-9.923964165714505e-08
9.81157826408785e-08
2.956227744682627e-07
-6.147147126253638e-07
-2.055189760562237e-07
2.0373889155281266e-07
6.129348579068938e-07
-1.0128934513943533e-06
-3.384866879459214e-07
3.3625254989774755e-07
1.0106613387850238e-06
-1.4519740197567466e-06
-4.851423639692931e-07
4.823190753316942e-07
1.4491533944678558e-06
-1.8861641697502651e-06
-6.302571730412709e-07
6.265633501444101e-07
1.8824674083706139e-06
-2.2711621963655837e-06
-7.58839230148925e-07
7.546520559842396e-07
2.2669914432407734e-06
-2.5709872636323072e-06
-8.590982629504834e-07
8.541366787826604e-07
2.566030532724639e-06
-2.760564514701566e-06
-9.225610795842581e-07
9.168949376206492e-07
2.754893088031257e-06
-2.825197982879793e-06
-9.441663959240676e-07
9.383587369956453e-07
2.8193918413296076e-06
-2.760556627362672e-06
-9.225532688041322e-07
9.169016763621585e-07
2.754897937213077e-06
-2.5710859911775436e-06
-8.59164995242051e-07
8.540970416453381e-07
2.566013599479902e-06
-2.271189951096389e-06
-7.588803682782863e-07
7.545898809534907e-07
2.2669001660639843e-06
-1.8860849422498369e-06
-6.301901609049795e-07
6.266192754877595e-07
1.8825130272941831e-06
-1.4519673137052339e-06
-4.851439641068503e-07
4.823092602176948e-07
1.4491350964008012e-06
-1.0128875534507614e-06
-3.3849895051622086e-07
3.3622177163412925e-07
1.0106110528316711e-06
-6.147119205567042e-07
-2.0548908070353727e-07
2.0379613954561726e-07
6.130201652102159e-07
-2.9680655060267125e-07
-9.928393203233188e-08
9.808924295853436e-08
2.956118933389318e-07
-8.919444512730905e-08
-2.9822662870248803e-08
2.9263368474946594e-08
8.863637213237484e-08
-1.3298856338384013e-07
-4.449546420551287e-08
4.364807492870937e-08
1.3214114237894425e-07
-4.313247189031977e-07
-1.4422286713847154e-07
1.4279808880496292e-07
4.2990293449424177e-07
-8.644452016808024e-07
-2.8887938651606104e-07
2.869808966507459e-07
8.625498756978378e-07
-1.3744043312370613e-06
-4.591788682374587e-07
4.5676602832001034e-07
1.3719925072847028e-06
-1.9044329251163838e-06
-6.361299057996983e-07
6.333183907511475e-07
1.9016268809242398e-06
-2.403473362062869e-06
-8.02810257367545e-07
7.99376829526896e-07
2.400041939833175e-06
-2.829811947843361e-06
-9.45164276672586e-07
9.413227471215257e-07
2.825983151270167e-06
-3.1534463890460496e-06
-1.0533234538964709e-06
1.0488625398399204e-06
3.1489935533608043e-06
-3.3547135190846455e-06
-1.120585797780363e-06
1.115737659483293e-06
3.349867077258664e-06
-3.422781330772104e-06
-1.1432672546649036e-06
1.1384898633802487e-06
3.418009836006833e-06
-3.354666935219408e-06
-1.1205196523821764e-06
1.1158236165355329e-06
3.3499737112554356e-06
-3.153400217439581e-06
-1.0532883569103896e-06
1.0488842392807757e-06
3.148999465000038e-06
-2.829864218660376e-06
-9.45206758523956e-07
9.412857686933937e-07
2.825947013247905e-06
-2.4034761852715497e-06
-8.028201218639175e-07
7.993581486618814e-07
2.4000125222372118e-06
-1.9044601308202194e-06
-6.361591338814587e-07
6.332860781393598e-07
1.9015901869291751e-06
-1.3744015262655285e-06
-4.5915975243737e-07
4.5680240482078027e-07
1.3720470983602864e-06
-8.643899570156231e-07
-2.888546358800585e-07
2.8697676601610947e-07
8.625177491403471e-07
-4.3135972697689456e-07
-1.442563813368325e-07
1.4276405130037723e-07
4.2986623851899025e-07
-1.329206807827157e-07
-4.445933288925799e-08
4.3652512861850734e-08
1.3211340401190748e-07
SCALARS strain22 float
LOOKUP_TABLE default
-2.1760104869372743e-07
-2.1782194190370086e-07
-2.1778037468463303e-07
-2.174999148493728e-07
2.175607132122448e-07
2.1721719646247695e-07
2.1743115392056436e-07
2.1753822705347647e-07
-3.4995647671745567e-07
-8.392562010177407e-07
-1.5364285841645842e-06
-2.342238523536655e-06
-3.1660415537836106e-06
-3.931309478559519e-06
-4.578324903487668e-06
-5.065995149020758e-06
-5.367942757468491e-06
-5.46986855610998e-06
-5.367942548021448e-06
-5.066020160201384e-06
-4.578297649219382e-06
-3.931357425084742e-06
-3.166145089050776e-06
-2.342516288358215e-06
-1.536481584490934e-06
-8.395692872587013e-07
-3.4993679526307275e-07
-9.814605054017655e-08
-7.240763642835102e-08
-4.9417543401125696e-08
-2.809030857746364e-08
-9.32212650128772e-09
6.226793664021457e-09
1.83375702417915e-08
2.6972412624573505e-08
3.199770933805246e-08
3.3635676938148507e-08
3.193000691452397e-08
2.7025077832705524e-08
1.8532292841814957e-08
6.309933403905732e-09
-9.350709561685433e-09
-2.817144020839102e-08
-4.944092455881274e-08
-7.260100268820409e-08
-9.816039766349233e-08
-3.5005749637553483e-07
-8.393687677750884e-07
-1.5365039319099882e-06
-2.3423230913728957e-06
-3.166140692535506e-06
-3.931117771415436e-06
-4.578047097191472e-06
-5.065970959283739e-06
-5.367769369719021e-06
-5.469882317879482e-06
-5.367845251430525e-06
-5.065813924997123e-06
-4.578334662157235e-06
-3.931349703931164e-06
-3.1661356648653854e-06
-2.342464649279785e-06
-1.536450910883183e-06
-8.394538348957536e-07
-3.500462331731957e-07
-9.806608599477462e-08
-7.242847747251924e-08
-4.923967843184496e-08
-2.7892130969459084e-08
-9.144311349795764e-09
6.506798461147767e-09
1.8540604568989538e-08
2.7148856981962233e-08
3.2025589416506683e-08
3.360865541077174e-08
3.2015391615569655e-08
2.6907176851193038e-08
1.8491165418299538e-08
6.3428244982677295e-09
-9.224832779597403e-09
-2.785788403431022e-08
-4.951046092896427e-08
-7.25383777419597e-08
-9.811250115815406e-08
3.491790131551764e-07
8.379977074583767e-07
1.5345239871046579e-06
2.339858169869008e-06
3.1634726528166623e-06
3.92810132963245e-06
4.574871867283475e-06
5.062005672008124e-06
5.363793374832393e-06
5.465556673221045e-06
5.363875258422579e-06
5.061998557601838e-06
4.5748473492188135e-06
3.927946072207478e-06
3.163517899102547e-06
2.339795621125046e-06
1.5343975063135395e-06
8.378462745019244e-07
3.490527251473474e-07
9.801782641788437e-08
7.237577134139306e-08
4.9437931956552994e-08
2.806768035525098e-08
9.24618550994516e-09
-6.424557259885472e-09
-1.8430853288876892e-08
-2.684094661462022e-08
-3.1760443134840055e-08
-3.349470052357861e-08
-3.194954007086637e-08
-2.6887567767738818e-08
-1.8461505129317712e-08
-6.357419223869398e-09
9.218592795373626e-09
2.8012871355030666e-08
4.9285777318271856e-08
7.236340442010394e-08
9.807868169855148e-08
3.491535024055764e-07
8.379140062778415e-07
1.5344892740449742e-06
2.3400694544543216e-06
3.1635934012955863e-06
3.928298999728019e-06
4.5750275261182555e-06
5.062177039079699e-06
5.363848407739444e-06
5.4656761500557205e-06
5.363695455439313e-06
5.062216994089486e-06
4.574876574670733e-06
3.928135063731297e-06
3.1635989833755235e-06
2.3398751178033833e-06
1.5344572894347014e-06
8.380069206267993e-07
3.4912131762279697e-07
9.81916459946719e-08
7.254781491522477e-08
4.949868770073862e-08
2.829797314182758e-08
9.36904815534989e-09
-6.2886509159809645e-09
-1.843524272127084e-08
-2.6925075932715536e-08
-3.187253959022196e-08
-3.3385639090083297e-08
-3.1901016106505864e-08
-2.6882822391771644e-08
-1.8431002290347775e-08
-6.29404368901465e-09
9.275763646759971e-09
2.815780074036378e-08
4.938822309799584e-08
7.227802535994532e-08
9.810586363429019e-08
-1.2996464071254876e-07
-4.323404005981968e-08
4.3192488627386005e-08
1.2992352341895108e-07
-1.3020644737057885e-07
-4.3498444266681924e-08
4.290364237838351e-08
1.296083101155754e-07
-1.301320836025058e-07
-4.3390574597864e-08
4.3045827743753116e-08
1.2978584796902604e-07
-1.2988844328223892e-07
-4.318268555583704e-08
4.321910674828788e-08
1.2992552140753122e-07
-2.2246675466033872e-07
-1.4935090634007886e-07
-7.580365878057105e-08
-1.0038150727309514e-08
4.4341771209682745e-08
8.51855038487559e-08
1.1326157419583316e-07
1.3035177618900273e-07
1.3939820965591654e-07
1.4216286765844632e-07
1.392827474570868e-07
1.302759847464363e-07
1.1318081753058928e-07
8.525472271550538e-08
4.4344524722378376e-08
-1.0079766722681516e-08
-7.587515288981495e-08
-1.4937620650481986e-07
-2.2251158884184497e-07
-7.185962749081676e-07
-4.948211254976465e-07
-2.663279645639949e-07
-5.276143596327776e-08
1.3156930327509753e-07
2.7530094208819134e-07
3.768813515124536e-07
4.411245719988799e-07
4.754354664057714e-07
4.861897148662753e-07
4.754527210340531e-07
4.411971514794999e-07
3.7689405452123736e-07
2.753393155280337e-07
1.315781890248724e-07
-5.26922428432941e-08
-2.663113329373634e-07
-4.947671369097406e-07
-7.186872611961159e-07
-1.4391845984326745e-06
-1.023698810494883e-06
-5.899964666059021e-07
-1.634215544138451e-07
2.2657564807682107e-07
5.468222011948548e-07
7.82417500044038e-07
9.358106766096941e-07
1.0195502497083175e-06
1.0458592862548632e-06
1.0195059810709506e-06
9.358760147022693e-07
7.824078103874088e-07
5.467650686340197e-07
2.2673254309116264e-07
-1.634547559803412e-07
-5.90000216012937e-07
-1.0237450767582729e-06
-1.439051350450582e-06
-2.2875176756698146e-06
-1.686317753692157e-06
-1.0460199557187078e-06
-3.812618869641904e-07
2.74120793473942e-07
8.50434010747636e-07
1.2962980217197384e-06
1.5964334573424777e-06
1.7630759279116393e-06
1.815806698824557e-06
1.7630564637244328e-06
1.596326654782626e-06
1.2963184103653713e-06
8.504164388870028e-07
2.7405761095049275e-07
-3.813430078762614e-07
-1.0460579855774838e-06
-1.6863014453000202e-06
-2.2874562361097778e-06
-3.169371451918618e-06
-2.4169687373766513e-06
-1.610142080700483e-06
-7.379396843414099e-07
1.9869562449537082e-07
1.110666250636605e-06
1.8716814027819328e-06
2.4061658781826534e-06
2.7094149177252225e-06
2.8055700871318368e-06
2.709355673861935e-06
2.4060968826372653e-06
1.8716650125438078e-06
1.110600069019127e-06
1.9887635350525346e-07
-7.380086495117899e-07
-1.6100976430889063e-06
-2.4168869555939165e-06
-3.1694640232910604e-06
-3.999558830593969e-06
-3.139238313534798e-06
-2.2218821467342997e-06
-1.2199749209185207e-06
-7.197387612636885e-08
1.199695652452648e-06
2.4160188491842427e-06
3.33947896401926e-06
3.878126780529345e-06
4.052620575772242e-06
3.878181489483726e-06
3.3396399259852383e-06
2.416032394477602e-06
1.199677794798057e-06
-7.197567825599493e-08
-1.2199383489994164e-06
-2.2219530686155148e-06
-3.1393009958576717e-06
-3.99960240251955e-06
-4.708991682370739e-06
-3.7801456015292e-06
-2.8004641497436644e-06
-1.7444807707753252e-06
-5.222137146737582e-07
9.702325999803862e-07
2.7135892510105064e-06
4.313036053790742e-06
5.319161685184495e-06
5.639513843379296e-06
5.31930680453159e-06
4.313036209681667e-06
2.7136968882204154e-06
9.703197796813445e-07
-5.222941513380319e-07
-1.7444787652805965e-06
-2.8006048703264202e-06
-3.780036829393804e-06
-4.708968015370088e-06
-5.247295565377619e-06
-4.278942852948414e-06
-3.271046454516452e-06
-2.2051456978582074e-06
-9.982559677663982e-07
4.6599957415419113e-07
2.4557933585474256e-06
4.972561677859394e-06
7.062083584408879e-06
7.807624290137247e-06
7.062172903441952e-06
4.9724144369558965e-06
2.4557859796825454e-06
4.6611295844919964e-07
-9.982372836444403e-07
-2.205075892302774e-06
-3.2709769692725044e-06
-4.27899454136238e-06
-5.247371342961479e-06
-5.582306918352348e-06
-4.594201995337249e-06
-3.5750042443457794e-06
-2.5180712701368922e-06
-1.3461217071865893e-06
2.9824809615053294e-08
1.780171904179964e-06
4.648604489105798e-06
8.724805254746448e-06
1.0929812941583641e-05
8.724796320453906e-06
4.648699509753398e-06
1.780069046072516e-06
2.970234816782047e-08
-1.3461650596787583e-06
-2.5181708144979276e-06
-3.575136334758172e-06
-4.5941187514133425e-06
-5.582206380855617e-06
-5.69568355808861e-06
-4.701709175835428e-06
-3.680344510158945e-06
-2.6263966534031957e-06
-1.4776610360554832e-06
-1.3910683559562043e-07
1.5545870241800985e-06
3.711013640581712e-06
9.300794861822476e-06
1.3691177924327752e-05
9.300591611515266e-06
3.71103780918286e-06
1.5544736876385579e-06
-1.390420037491319e-07
-1.4776264883453044e-06
-2.6263943958704933e-06
-3.6802806336316135e-06
-4.701769473964765e-06
-5.695597208955905e-06
-5.5822879130758285e-06
-4.594152322151546e-06
-3.5750591357019967e-06
-2.5181047369170206e-06
-1.3461307247775167e-06
2.9699732909116427e-08
1.7801744550925702e-06
4.648643693367163e-06
8.724807504047888e-06
1.0929836374190191e-05
8.724802258745432e-06
4.648616531243918e-06
1.7801212702020508e-06
2.975061003454571e-08
-1.346171938714294e-06
-2.5181626974388194e-06
-3.575050611057465e-06
-4.594129231146743e-06
-5.582296971597123e-06
-5.247427539725735e-06
-4.278973121038532e-06
-3.2710764840127027e-06
-2.2051122088480313e-06
-9.982290485044398e-07
4.660323912955566e-07
2.4558371148758473e-06
4.972492292866851e-06
7.062094912850536e-06
7.807577138139662e-06
7.062129029575606e-06
4.972485097762963e-06
2.4558799261772263e-06
4.6601623710992857e-07
-9.982929469031648e-07
-2.205059429117792e-06
-3.2709320166683653e-06
-4.278864424936933e-06
-5.2473162263366735e-06
-4.709067507175507e-06
-3.7800349821440205e-06
-2.800615923288785e-06
-1.7444992963105976e-06
-5.222531200797798e-07
9.70269400558596e-07
2.713618492302186e-06
4.313066129191245e-06
5.3193014649295656e-06
5.6395895555311215e-06
5.319158163019297e-06
4.313036473300655e-06
2.713665406330404e-06
9.70243138373461e-07
-5.222696397187351e-07
-1.7445414298026055e-06
-2.8005632504617475e-06
-3.7800286492670893e-06
-4.708995107678519e-06
-3.999596166075897e-06
-3.139250772478397e-06
-2.2219539688068946e-06
-1.2199712164234766e-06
-7.18935578292168e-08
1.1996865921896915e-06
2.416059442669413e-06
3.339543065850742e-06
3.878109381082878e-06
4.052656644930319e-06
3.87814460616441e-06
3.3395875670624853e-06
2.4160196972679987e-06
1.199631089051148e-06
-7.1935274130637e-08
-1.2199649723669895e-06
-2.221884370125042e-06
-3.139324418767117e-06
-3.999514571470801e-06
-3.1693461593194396e-06
-2.4169409616999274e-06
-1.6101383314669204e-06
-7.379417027719715e-07
1.9875086407043774e-07
1.110543232922534e-06
1.8717507401268263e-06
2.4061579747582107e-06
2.709328969893038e-06
2.805580446031339e-06
2.7093125464592444e-06
2.4061668517129375e-06
1.871709551085933e-06
1.110623991089181e-06
1.9872173768076956e-07
-7.378579492374818e-07
-1.6100848480417665e-06
-2.41703725901727e-06
-3.1693819031088782e-06
-2.2875084533073575e-06
-1.6863212102188885e-06
-1.046015159846675e-06
-3.813388147130836e-07
2.7404994719891496e-07
8.503865300876073e-07
1.2962176867761799e-06
1.596393573088592e-06
1.763182271753358e-06
1.8158268910370423e-06
1.763058095545847e-06
1.5964036562399198e-06
1.2963648066428163e-06
8.504090173791501e-07
2.7404252559998926e-07
-3.8127920948954896e-07
-1.0460490385737556e-06
-1.6862971479723356e-06
-2.2875389932806856e-06
-1.43904804160086e-06
-1.023724418566102e-06
-5.900317452643689e-07
-1.6343706309672468e-07
2.26619880416834e-07
5.468482244756073e-07
7.823520569473497e-07
9.357962251765883e-07
1.0195299487373438e-06
1.0458443188404026e-06
1.0195526005014888e-06
9.357844173293536e-07
7.823447700722533e-07
5.467785638589226e-07
2.2669705703869808e-07
-1.6347820891091103e-07
-5.900304024214313e-07
-1.0237380486562142e-06
-1.4391422206556058e-06
-7.186549635211648e-07
-4.947509099628711e-07
-2.663282339943063e-07
-5.2747322116034057e-08
1.3154140266619097e-07
2.7532488340413497e-07
3.7685265035468374e-07
4.412043593075843e-07
4.754706230628708e-07
4.862418421253817e-07
4.755930494686894e-07
4.411081384594548e-07
3.7687256404430464e-07
2.753324150010089e-07
1.3154154035726479e-07
-5.27535213784916e-08
-2.6630074191581407e-07
-4.948110905269622e-07
-7.186171125548799e-07
-2.2247828805263548e-07
-1.493318872933247e-07
-7.580649016500352e-08
-9.990597214099006e-09
4.445479363096583e-08
8.51890244561726e-08
1.1317419105170978e-07
1.3032563372060435e-07
1.3927354008784476e-07
1.4214117537159066e-07
1.3939245613672768e-07
1.303057146706879e-07
1.1314365251993697e-07
8.52377585397815e-08
4.443610482178506e-08
-1.0011559116451796e-08
-7.577941006165281e-08
-1.4941192584853533e-07
-2.2240437298878726e-07
2.2163204349556764e-07
1.4881518862683296e-07
7.544225829464457e-08
9.719049731682361e-09
-4.432198352777306e-08
-8.512151044789973e-08
-1.1272928954197958e-07
-1.2971287548235733e-07
-1.3839975456994558e-07
-1.412210523868418e-07
-1.3842972983527102e-07
-1.2973121705367463e-07
-1.1271012996874608e-07
-8.511824867510343e-08
-4.451223651474878e-08
9.7273778970966e-09
7.543062406027007e-08
1.4868741618923736e-07
2.2173771421080124e-07
7.171844322896581e-07
4.93622928796067e-07
2.653889214498939e-07
5.22577181909234e-08
-1.3172278155032524e-07
-2.7496559488332517e-07
-3.76088761216975e-07
-4.3982998658431693e-07
-4.7382750732738455e-07
-4.844686450518332e-07
-4.7373717475610033e-07
-4.398607905027607e-07
-3.761119655928957e-07
-2.750022884169534e-07
-1.3172797895533161e-07
5.216728720877639e-08
2.654193018113149e-07
4.936624771433029e-07
7.172180627283697e-07
1.4372395150258344e-06
1.0220131875515737e-06
5.886886971888383e-07
1.6245207437592946e-07
-2.27010495897767e-07
-5.465207533195127e-07
-7.813610140780525e-07
-9.338930185807948e-07
-1.0170361966384267e-06
-1.04298166141506e-06
-1.0168817659861329e-06
-9.3386700836251e-07
-7.813902752895618e-07
-5.464517854568418e-07
-2.2707107079009137e-07
1.6250904475573202e-07
5.886053355171061e-07
1.0220074119701716e-06
1.4371692630132937e-06
2.2850755596014183e-06
1.6840915303545367e-06
1.0441054243658099e-06
3.797226473256643e-07
-2.7487436170259283e-07
-8.502755176158228e-07
-1.2949726972029396e-06
-1.5936912159501826e-06
-1.7592551502139397e-06
-1.8115207040987624e-06
-1.759360036289459e-06
-1.593769007903617e-06
-1.295017161100781e-06
-8.50312055364344e-07
-2.748401949723839e-07
3.798162879261463e-07
1.0441901413336258e-06
1.6840791693065876e-06
2.2850923344312074e-06
3.166570835162752e-06
2.414083550967422e-06
1.6075221343572754e-06
7.356918493399422e-07
-2.0030854871663784e-07
-1.1110126145082166e-06
-1.8703482242178604e-06
-2.4024638876143922e-06
-2.703649025936894e-06
-2.799031166476895e-06
-2.703621177706228e-06
-2.402440773666137e-06
-1.8703898908567496e-06
-1.1109251330330278e-06
-2.0033193783193515e-07
7.356487522949123e-07
1.6075718898469343e-06
2.4140266610683803e-06
3.166502877481603e-06
3.996084654796228e-06
3.135657649911555e-06
2.2183566005216926e-06
1.2167403698574997e-06
6.93247115199358e-08
-1.2011707160065888e-06
-2.415055967694424e-06
-3.335272825973762e-06
-3.8695449217328315e-06
-4.0412102753212276e-06
-3.8696352426936115e-06
-3.335387953287694e-06
-2.4150520939736353e-06
-1.2012184211242227e-06
6.9322871422417e-08
1.2165917681120075e-06
2.218452354513234e-06
3.1357043513476762e-06
3.9961060502250595e-06
4.705113394180144e-06
3.7757553030676183e-06
2.7960638438254137e-06
1.739916961746718e-06
5.177548455179148e-07
-9.73371064957873e-07
-2.7155577258311525e-06
-4.307026400751646e-06
-5.304382434418581e-06
-5.623739767163932e-06
-5.304476945621264e-06
-4.307112785947517e-06
-2.7156225049390116e-06
-9.733484095733602e-07
5.177882673431181e-07
1.7399093561343976e-06
2.796062319312259e-06
3.7758162885863367e-06
4.705128235631129e-06
5.2430011014369116e-06
4.274005702652184e-06
3.2653616010083764e-06
2.1987884785135137e-06
9.912457417729503e-07
-4.73716445133221e-07
-2.458360237465179e-06
-4.97762982434348e-06
-7.042562287578116e-06
-7.75519293919752e-06
-7.042552716307257e-06
-4.9775561531493345e-06
-2.458395476896344e-06
-4.737484180557944e-07
9.912679824319176e-07
2.1987392019168217e-06
3.2654705121332867e-06
4.27391140527672e-06
5.242994369944812e-06
5.577461040302822e-06
4.588547860378406e-06
3.568635943026338e-06
2.510292476283482e-06
1.3361608374555523e-06
-4.282965387208959e-08
-1.802049886723625e-06
-4.640888204213503e-06
-8.68187952812391e-06
-1.0888351064048188e-05
-8.681806182932877e-06
-4.640963033404957e-06
-1.8019512308085905e-06
-4.2828679438014494e-08
1.3362112027178602e-06
2.5103664927968866e-06
3.568644476221322e-06
4.588530926556006e-06
5.577499734852123e-06
5.690851555304605e-06
4.6959737425855685e-06
3.673622209644095e-06
2.6178623431516446e-06
1.46677597784306e-06
1.1945040881422564e-07
-1.5731319715633907e-06
-3.873973625339797e-06
-9.259511998064782e-06
-1.3293058073475875e-05
-9.259499498738555e-06
-3.873972430490022e-06
-1.5730335953170055e-06
1.1939228241469868e-07
1.4668179573497364e-06
2.6179194512337967e-06
3.673525233839972e-06
4.695951131632528e-06
5.6907247021464186e-06
5.57750144889943e-06
4.588563764815895e-06
3.5686771893833624e-06
2.510323112974583e-06
1.3361634369109254e-06
-4.279796557600524e-08
-1.8020701405448147e-06
-4.640911502783174e-06
-8.681755151750126e-06
-1.0888392888279766e-05
-8.681783999943057e-06
-4.640868006637253e-06
-1.8020143045943682e-06
-4.278738288156225e-08
1.3362444953798902e-06
2.510327531724671e-06
3.5685555472148023e-06
4.588555079640053e-06
5.577522200690341e-06
5.242975110904269e-06
4.2739899079359545e-06
3.2654708890730855e-06
2.1988390539705305e-06
9.912384863267065e-07
-4.737385128263799e-07
-2.4583765661657236e-06
-4.977633561364589e-06
-7.042565456088709e-06
-7.755176309883274e-06
-7.042643220557185e-06
-4.977531693940371e-06
-2.458391148218303e-06
-4.737225693957764e-07
9.912380258270126e-07
2.19876831204259e-06
3.265392557613711e-06
4.27388592211253e-06
5.242870374642938e-06
4.705184691939507e-06
3.775791401781914e-06
2.7960586703144885e-06
1.7398447740187006e-06
5.178238786235356e-07
-9.734108256595486e-07
-2.7154464849396542e-06
-4.307068680393239e-06
-5.3044522999694255e-06
-5.623751136589299e-06
-5.3043454310787354e-06
-4.307127504824676e-06
-2.715579037158855e-06
-9.73313722391414e-07
5.177516891842135e-07
1.7398804940411267e-06
2.796062095480889e-06
3.7757963818286708e-06
4.705080609739183e-06
3.996196539651775e-06
3.1356339771429487e-06
2.218379101887047e-06
1.216624953798845e-06
6.938686984009346e-08
-1.2012597241251727e-06
-2.4150556328945277e-06
-3.3352508176966167e-06
-3.86964001202611e-06
-4.041197142281433e-06
-3.86960766666708e-06
-3.3353637243563328e-06
-2.4150416666618435e-06
-1.2011965864954996e-06
6.933002630934298e-08
1.216707563335244e-06
2.2183566162261442e-06
3.1357445419285743e-06
3.995991551186337e-06
3.1665041228708113e-06
2.414135435481468e-06
1.6075673393220469e-06
7.356490511218478e-07
-2.003530292747635e-07
-1.1109694438276446e-06
-1.8704529959022442e-06
-2.4025548451458295e-06
-2.703556356746864e-06
-2.7990474153177097e-06
-2.7036878192041036e-06
-2.402457113534831e-06
-1.8703925522738432e-06
-1.1109854534500918e-06
-2.0032455755585737e-07
7.357804005410362e-07
1.6074821434933564e-06
2.4141669928024606e-06
3.1664705433340906e-06
2.2851106841401125e-06
1.6841080970261824e-06
1.044101364242045e-06
3.797973232629731e-07
-2.748204654887121e-07
-8.503351948685456e-07
-1.294888477425954e-06
-1.59373244127195e-06
-1.7593090734201178e-06
-1.8115330692979048e-06
-1.7593198611554062e-06
-1.5937426567930874e-06
-1.2950738877050977e-06
-8.502687864507183e-07
-2.7483026288598056e-07
3.796938333648983e-07
1.0441404991751863e-06
1.68406981900307e-06
2.2851885460978792e-06
1.4371778695489168e-06
1.0221135099582057e-06
5.886213634773152e-07
1.6246399040832638e-07
-2.269948707125935e-07
-5.465368705694085e-07
-7.812441870005266e-07
-9.338686760649445e-07
-1.0169147846190996e-06
-1.0430854101104586e-06
-1.0169589933859552e-06
-9.338534488704392e-07
-7.813215352724112e-07
-5.464841957951438e-07
-2.2712988106965426e-07
1.62477742931752e-07
5.886723195938116e-07
1.0219844167841212e-06
1.437256218283535e-06
7.172115316297911e-07
4.935887685762752e-07
2.654292746324949e-07
5.214497840466681e-08
-1.3166251994385647e-07
-2.7505257257226523e-07
-3.760275317146039e-07
-4.398164700093049e-07
-4.7383255206978614e-07
-4.844077423384052e-07
-4.738315709969243e-07
-4.398593914560836e-07
-3.7599258862104634e-07
-2.7500381396487056e-07
-1.317762343445994e-07
5.219955596068304e-08
2.653991735775997e-07
4.936239081728029e-07
7.171653194663549e-07
2.216505998950402e-07
1.487105268337119e-07
7.552167315821867e-08
9.73636653418819e-09
-4.448434066592344e-08
-8.50011830143358e-08
-1.1270204150243442e-07
-1.2968528403413393e-07
-1.3847716858438053e-07
-1.4126499139378856e-07
-1.3853149986517432e-07
-1.2965551517488128e-07
-1.1279636302763407e-07
-8.51260961798675e-08
-4.444757522367032e-08
9.731102349266885e-09
7.542467499047426e-08
1.4884948650408826e-07
2.2162158859289054e-07
-2.0944274979617372e-07
-6.996158243011141e-08
6.917405025175238e-08
2.086586290035719e-07
-5.03763592275136e-07
-1.6833883220712664e-07
1.6706474274819083e-07
5.024947626088017e-07
-9.23104527469909e-07
-3.084819117198101e-07
3.065764175684549e-07
9.211993146698849e-07
-1.407711172365933e-06
-4.7034630105274866e-07
4.6797014371935397e-07
1.4053336516994808e-06
-1.903049420708125e-06
-6.356988558262056e-07
6.331156185909737e-07
1.9004710094389088e-06
-2.363238134000384e-06
-7.894546686058879e-07
7.862453292491189e-07
2.3600292088366004e-06
-2.752238334305379e-06
-9.193321456740788e-07
9.158638034252597e-07
2.74877510970592e-06
-3.0454850549962997e-06
-1.0173487959633243e-06
1.013347497844097e-06
3.0414877160364617e-06
-3.2270099574287225e-06
-1.0779637831699607e-06
1.0738054622531912e-06
3.2228546560097993e-06
-3.2883050449065976e-06
-1.0984652126892758e-06
1.0941516404572305e-06
3.2839920626713537e-06
-3.226994691730295e-06
-1.0779330205136495e-06
1.0738524072670397e-06
3.222918528927171e-06
-3.045503599401894e-06
-1.0173623782062935e-06
1.0133373464990547e-06
3.041479694831234e-06
-2.7522232720761375e-06
-9.193284167784144e-07
9.158572239938156e-07
2.748759133103934e-06
-2.363304000971983e-06
-7.895401643552569e-07
7.861385313695513e-07
2.3598991040207906e-06
-1.9031224406940161e-06
-6.357420732489016e-07
6.331018459308779e-07
1.9004866494420902e-06
-1.4079414645193356e-06
-4.705317706750478e-07
4.678271663810518e-07
1.405231482551339e-06
-9.231726316241695e-07
-3.085647822531623e-07
3.064789166513926e-07
9.210873279687226e-07
-5.040376039183725e-07
-1.6857719149776518e-07
1.6685861159090876e-07
5.02317531476254e-07
-2.094513466902037e-07
-6.999866138807098e-08
6.910812798757715e-08
2.0856303318064762e-07
-5.8248114030018394e-08
-1.9346422401589347e-08
1.9220715966744573e-08
5.8121593385362935e-08
-4.2947657010600215e-08
-1.4243122171270217e-08
1.4208331195614265e-08
4.291388342944624e-08
-2.929017262412459e-08
-9.698241338479408e-09
9.714555108258915e-09
2.930788213853508e-08
-1.6643800251209262e-08
-5.519051177876877e-09
5.497633315601491e-09
1.6621984214384988e-08
-5.527992504722468e-09
-1.8548199018364464e-09
1.7779526982619753e-09
5.451434840000879e-09
3.6638181859054153e-09
1.1532026167326848e-09
-1.3409488658355784e-09
-3.854957268331627e-09
1.085529498581761e-08
3.568053000627125e-09
-3.6545188732833855e-09
-1.0944027633782993e-08
1.6008276088400053e-08
5.344857880937304e-09
-5.217261244555571e-09
-1.5879402183796576e-08
1.9002192121891914e-08
6.370346085707301e-09
-6.1388761834341166e-09
-1.876874530098993e-08
1.995386639079555e-08
6.655902681437786e-09
-6.513365832794271e-09
-1.9811794522636705e-08
1.891279842285154e-08
6.2585766014144895e-09
-6.274363315364462e-09
-1.8929900221995033e-08
1.6040184763754795e-08
5.356760294020213e-09
-5.224896805142154e-09
-1.59064217717525e-08
1.10020059061397e-08
3.66857920257313e-09
-3.598579528113488e-09
-1.0931695525358276e-08
3.741546013118213e-09
1.2266543249900286e-09
-1.2706133688603072e-09
-3.786660152972632e-09
-5.553795000279305e-09
-1.879216155950547e-09
1.753649246649669e-09
5.426028642022129e-09
-1.671706047765356e-08
-5.585707327226963e-09
5.436237383860121e-09
1.6564541955969847e-08
-2.9336633993598538e-08
-9.768904543367568e-09
9.618331114642081e-09
2.9184506351084133e-08
-4.310088874844541e-08
-1.4358499747469874e-08
1.4128725107399875e-08
4.2868495430965076e-08
-5.824851059626178e-08
-1.9332524791313213e-08
1.9249560575303887e-08
5.816600229138595e-08
-2.0952634867795134e-07
-7.002889627655707e-08
6.912180428410904e-08
2.0862035796581158e-07
-5.038661801389042e-07
-1.684335057513045e-07
1.669758682395269e-07
5.02409490295069e-07
-9.231699100147733e-07
-3.085384088384255e-07
3.065278243994697e-07
9.211579332616023e-07
-1.4077391005179116e-06
-4.7031705130125626e-07
4.680577863564253e-07
1.4054817179935154e-06
-1.9031035268382915e-06
-6.357088293430097e-07
6.331492386525694e-07
1.9005480248399098e-06
-2.3630510807151964e-06
-7.892692442104318e-07
7.864321463811955e-07
2.3602201129867273e-06
-2.751991999411056e-06
-9.191135606273146e-07
9.160582146181331e-07
2.7489486976849803e-06
-3.0454314571522548e-06
-1.0172659688501007e-06
1.0134595627344506e-06
3.0416292512705154e-06
-3.226865223989947e-06
-1.077845031392452e-06
1.0739007470081038e-06
3.2229287778807666e-06
-3.288293975469564e-06
-1.098428326693282e-06
1.094215179058694e-06
3.2840832151666277e-06
-3.226951615996343e-06
-1.0779441482651475e-06
1.073786386909456e-06
3.2227965229957717e-06
-3.045303049278511e-06
-1.0171634428277065e-06
1.0135387735806661e-06
3.0416877150954424e-06
-2.752244572261711e-06
-9.193353259790565e-07
9.158633935881649e-07
2.7487773272775323e-06
-2.3632622737617542e-06
-7.894636121896087e-07
7.862509860667981e-07
2.360048978754291e-06
-1.903099508137121e-06
-6.357054900107267e-07
6.331524413736439e-07
1.9005519966818624e-06
-1.4078855914076427e-06
-4.704709098846821e-07
4.678936930176819e-07
1.405304225808937e-06
-9.231375499470229e-07
-3.085245433541439e-07
3.065250797160829e-07
9.211400308021395e-07
-5.039166236509018e-07
-1.6844915562419516e-07
1.669954936625584e-07
5.024652609715574e-07
-2.0952261958057106e-07
-7.003342000766466e-08
6.91084337776926e-08
2.0859765017394727e-07
-5.8151893682356626e-08
-1.9232930824342187e-08
1.9352737506278528e-08
5.827359421048395e-08
-4.292996953758621e-08
-1.4187250700625764e-08
1.4302502352597779e-08
4.3046607865054876e-08
-2.9138684853879937e-08
-9.571479629710833e-09
9.818077618267695e-09
2.9389443729349596e-08
-1.6445183884800096e-08
-5.317089931539121e-09
5.705955350571168e-09
1.683972823338098e-08
-5.362249772683514e-09
-1.7004843158585636e-09
1.921418406325426e-09
5.584398457547657e-09
3.909057296608287e-09
1.367005130620269e-09
-1.1555894227632812e-09
-3.6953435381126276e-09
1.1014623369637322e-08
3.6852075141480256e-09
-3.5783619470319827e-09
-1.0908274655080374e-08
1.6131687669701522e-08
5.416247349926406e-09
-5.197410602592045e-09
-1.591117705299072e-08
1.9002732810913248e-08
6.343607965308973e-09
-6.193236985752026e-09
-1.8851484123727502e-08
1.9950466688400947e-08
6.677796145909687e-09
-6.464579867943021e-09
-1.973398481083799e-08
1.8987878630527533e-08
6.324557131481834e-09
-6.215952075977471e-09
-1.8877344871298662e-08
1.594874460622564e-08
5.290632765220238e-09
-5.266737615472472e-09
-1.592471153902264e-08
1.0973723204438235e-08
3.6539095291110435e-09
-3.5990546237707477e-09
-1.0917140372268541e-08
3.779228336525664e-09
1.2697013301865567e-09
-1.2215706397811221e-09
-3.730845819782669e-09
-5.444345793637062e-09
-1.7847606760545975e-09
1.8344434409012234e-09
5.494437755465542e-09
-1.644523284910493e-08
-5.351459445718243e-09
5.6370536329064524e-09
1.6735690205188503e-08
-2.9370721577048897e-08
-9.768313345703827e-09
9.653124754399611e-09
2.925318381627462e-08
-4.3066836926536345e-08
-1.4353298022351524e-08
1.4104722015351179e-08
4.2814301423610424e-08
-5.820635442729816e-08
-1.929529028915633e-08
1.9282606116000078e-08
5.819572443388488e-08
-1.329534050700798e-07
-4.44812127929628e-08
4.364232271056312e-08
1.321159092612656e-07
-8.915049235294625e-08
-2.980252299805697e-08
2.9260360755872794e-08
8.861050360131628e-08
-4.514145763093169e-08
-1.5101205605438928e-08
1.4731695075625995e-08
4.477473650177366e-08
-5.837835877903208e-09
-2.0093641902273196e-09
1.6941757580157812e-09
5.521354335541462e-09
2.6676578009088292e-08
8.906312822659634e-09
-8.897684852793297e-09
-2.6664156542455242e-08
5.1033330419197886e-08
1.7021770843533846e-08
-1.694406574423435e-08
-5.096030254725381e-08
6.781933185526223e-08
2.2736864793704292e-08
-2.2222663518395303e-08
-6.729906599015067e-08
7.799391346999252e-08
2.6153161615527498e-08
-2.5514126967413064e-08
-7.735498691249787e-08
8.341826323796098e-08
2.805862179405816e-08
-2.7089635350890928e-08
-8.243939785337884e-08
8.505198698799399e-08
2.85907265883123e-08
-2.765219807646102e-08
-8.411234081462382e-08
8.333214628411523e-08
2.7995429377480896e-08
-2.713599972503644e-08
-8.247486511445135e-08
7.793550650669889e-08
2.6109132005708302e-08
-2.554673317681222e-08
-7.737905043450621e-08
6.776639309424848e-08
2.27076001960147e-08
-2.223221547484333e-08
-6.729257294099678e-08
5.108983012688806e-08
1.7065968443974455e-08
-1.6912342328673224e-08
-5.0941977948470996e-08
2.665107771276931e-08
8.848162993957409e-09
-8.993705565008003e-09
-2.6804068711111517e-08
-5.863154080298916e-09
-2.0217040402892295e-09
1.6916943575140397e-09
5.52568067690995e-09
-4.5195289784943915e-08
-1.514013484721355e-08
1.4704670852488944e-08
4.475678751225676e-08
-8.919015305475231e-08
-2.9859377959767786e-08
2.9183213491601467e-08
8.850970984602968e-08
-1.3296858311986903e-07
-4.446715404921031e-08
4.3685820710903656e-08
1.3218977855042335e-07
-4.312784138670034e-07
-1.4420383380106538e-07
1.4278906578998884e-07
4.298646146191909e-07
-2.9683492971943615e-07
-9.929403405051218e-08
9.809710116090442e-08
2.956375897526786e-07
-1.5967431935687282e-07
-5.3486602095281777e-08
5.25452156611983e-08
1.587336513654558e-07
-3.14789989248887e-08
-1.0617192805484343e-08
1.0104676460148676e-08
3.096943847896716e-08
7.909772437725282e-08
2.6343195552031018e-08
-2.6505053790648603e-08
-7.925680003961766e-08
1.6531299508459885e-07
5.5225650132800785e-08
-5.489426460267288e-08
-1.6498030525752272e-07
2.262214047372979e-07
7.566097328173815e-08
-7.486608986223553e-08
-2.2542730502075892e-07
2.647502209060515e-07
8.864943685030213e-08
-8.73589220927451e-08
-2.634583476691932e-07
2.8532580899354176e-07
9.560327362059806e-08
-9.398985305678065e-08
-2.837141980724378e-07
2.9177795477647317e-07
9.779214334842967e-08
-9.605270790205567e-08
-2.900447371202708e-07
2.853560250419551e-07
9.56468547141931e-08
-9.39320564594115e-08
-2.836409331852252e-07
2.6480235863074464e-07
8.868144354967633e-08
-8.734709276312855e-08
-2.634673295070361e-07
2.2622763225579878e-07
7.566071089787352e-08
-7.487320671448194e-08
-2.2544194817897267e-07
1.6533674709884316e-07
5.5234993433239676e-08
-5.489963836660672e-08
-1.6500086261889146e-07
7.910436418054334e-08
2.6347580523583547e-08
-2.6503167032537744e-08
-7.925795817223524e-08
-3.143888778131543e-08
-1.0606990841210973e-08
1.0083494539347981e-08
3.0914863398401327e-08
-1.5965198899015043e-07
-5.3459884654522005e-08
5.2574759580592545e-08
1.5876450368268458e-07
-2.9678690714393663e-07
-9.925054164985903e-08
9.813767094107861e-08
2.956767994402587e-07
-4.3134351574575236e-07
-1.4424418241440473e-07
1.4277297877979267e-07
4.2987294746749116e-07
-8.644822151668285e-07
-2.889041759920885e-07
2.869657450207952e-07
8.62541554458307e-07
-6.146824398992057e-07
-2.054783455711362e-07
2.037884690789249e-07
6.129939766584547e-07
-3.541580395720334e-07
-1.1847459823952078e-07
1.1715773877429836e-07
3.528441846339936e-07
-9.796106562043327e-08
-3.292686353434382e-08
3.196361065410658e-08
9.699569084378745e-08
1.362128619931957e-07
4.5320676069632304e-08
-4.574951446845166e-08
-1.3664369998001025e-07
3.2848468712112777e-07
1.0964977026350908e-07
-1.093511657578039e-07
-3.2818510658019773e-07
4.6990850404576845e-07
1.570323564792364e-07
-1.5596733083170222e-07
-4.6884636146701797e-07
5.620069023874741e-07
1.879977894574114e-07
-1.8607967310069196e-07
-5.600889491814975e-07
6.122894939293577e-07
2.049472594030377e-07
-2.0242289528252244e-07
-6.097686202841124e-07
6.28112957316157e-07
2.1033314590718222e-07
-2.0745711676317669e-07
-6.252363558244267e-07
6.122823583143422e-07
2.049779098817206e-07
-2.023531164019321e-07
-6.096577536210401e-07
5.620622730850844e-07
1.8804457580304246e-07
-1.8604040819686363e-07
-5.60056458008551e-07
4.6989547457243486e-07
1.5701593387637547e-07
-1.559874664922023e-07
-4.6887069812470705e-07
3.284537967995771e-07
1.0964433139887264e-07
-1.0933173550872755e-07
-3.2814095433930657e-07
1.363223203591779e-07
4.538532815193119e-08
-4.5727601410278096e-08
-1.3666334746503805e-07
-9.79801881156872e-08
-3.2930151987187184e-08
3.1978188989173484e-08
9.703035879285449e-08
-3.5417414022756444e-07
-1.185047056248556e-07
1.1711186036905685e-07
3.527805695069386e-07
-6.147144434899554e-07
-2.0549935705362066e-07
2.0377522115880287e-07
6.129857492258306e-07
-8.643951911642411e-07
-2.888600921305273e-07
2.8696963852263557e-07
8.625075302703261e-07
-1.374427530932698e-06
-4.5919049421888625e-07
4.5676302571490135e-07
1.3719951945136144e-06
-1.0128972816186854e-06
-3.384846626558295e-07
3.362592643878226e-07
1.0106716354825462e-06
-6.282313520650229e-07
-2.1008791400295435e-07
2.0817414254220568e-07
6.263173608078709e-07
-2.2888464177792112e-07
-7.677600055711054e-08
7.524173060644013e-08
2.2734865275098048e-07
1.6480360609180678e-07
5.476003221704939e-08
-5.552549172185839e-08
-1.65565053857758e-07
5.109430631644596e-07
1.70472974691388e-07
-1.7032386212534334e-07
-5.107907803045264e-07
7.787138480153111e-07
2.601269131971562e-07
-2.5879602224415654e-07
-7.773848223063817e-07
9.58998694580715e-07
3.2067470738528225e-07
-3.179450776963355e-07
-9.562648473140922e-07
1.0591170021903573e-06
3.5439423735211806e-07
-3.5058264088311253e-07
-1.0553023715061116e-06
1.0908182712515702e-06
3.6511583965948e-07
-3.6082547498830775e-07
-1.0865293934361753e-06
1.059089844334532e-06
3.5435507712844316e-07
-3.506384972130905e-07
-1.0553800434132121e-06
9.589084126598868e-07
3.205957838786633e-07
-3.1801800991215767e-07
-9.563374172710803e-07
7.787245658447128e-07
2.6012675538589214e-07
-2.5880877914039035e-07
-7.774122237000358e-07
5.10926680533097e-07
1.7045524492755038e-07
-1.7034541614432963e-07
-5.10818655223913e-07
1.6476407072550658e-07
5.4741781612896445e-08
-5.552465789752936e-08
-1.65546852079132e-07
-2.2893101958576523e-07
-7.678821076911868e-08
7.526388630732517e-08
2.2740591731733317e-07
-6.282481905279386e-07
-2.1008226072476155e-07
2.082039294512561e-07
6.263733910768371e-07
-1.0128863273187183e-06
-3.384792034814843e-07
3.3625899774000767e-07
1.0106654753493788e-06
-1.3743787544949482e-06
-4.591523948358628e-07
4.567923125742973e-07
1.3720173905572286e-06
-1.9044650380536932e-06
-6.361416963994448e-07
6.333264964374086e-07
1.9016547332488531e-06
-1.4520132889245252e-06
-4.851774222693062e-07
4.822875822700634e-07
1.449125016480396e-06
-9.673173225824283e-07
-3.2343261116909994e-07
3.20807414612434e-07
9.646938555034346e-07
-4.433275349498278e-07
-1.48544053033689e-07
1.462962931318701e-07
4.410797037335268e-07
1.1937073813098054e-07
3.933491438123937e-08
-4.0940115998699955e-08
-1.2097854642026395e-07
6.672979210135821e-07
2.2247987116127965e-07
-2.2282399939066444e-07
-6.676428054193384e-07
1.124474040211515e-06
3.7547188606879e-07
-3.7413175075010074e-07
-1.1231362589056437e-06
1.4456449360551737e-06
4.83315777490001e-07
-4.796176970162103e-07
-1.4419455376113444e-06
1.6279325731893834e-06
5.447526724468299e-07
-5.389938834664265e-07
-1.6221713975035634e-06
1.6857325727120953e-06
5.642626112710436e-07
-5.577499390839111e-07
-1.6792110732791708e-06
1.6278948621051281e-06
5.447342605255368e-07
-5.389950801203136e-07
-1.622157243003075e-06
1.4455980150186731e-06
4.832889949919067e-07
-4.796262236851645e-07
-1.4419374807783658e-06
1.1244537495708196e-06
3.754472077711901e-07
-3.7416137070242494e-07
-1.1231715112032525e-06
6.672636780457458e-07
2.2247655087799523e-07
-2.2279694693837226e-07
-6.675856072599351e-07
1.1950542476608927e-07
3.942671190221292e-08
-4.088853349307198e-08
-1.2096513991866065e-07
-4.4338515790484645e-07
-1.4859338223413565e-07
1.462522114786119e-07
4.4103768979605884e-07
-9.67275281722052e-07
-3.2339137374590154e-07
3.208496336670752e-07
9.647388672737872e-07
-1.4519599508093506e-06
-4.851515990143135e-07
4.822862386885673e-07
1.4490962885853331e-06
-1.9045469985649877e-06
-6.362160713101889e-07
6.332568135165167e-07
1.9015871454697297e-06
-2.4034664576691456e-06
-8.028216450135794e-07
7.993464705459419e-07
2.399991597006046e-06
-1.8860860079850106e-06
-6.301958496365834e-07
6.266104346439039e-07
1.8825022046232986e-06
-1.3350634579696596e-06
-4.464005309637309e-07
4.4287935585182736e-07
1.3315408034890452e-06
-7.332301582736733e-07
-2.4558851225223166e-07
2.4235311090262113e-07
7.299950418870882e-07
-4.356737821550882e-08
-1.53781067151193e-08
1.2737238114929328e-08
4.0923723521046895e-08
7.205935015387743e-07
2.398849274741488e-07
-2.413617693000636e-07
-7.220697367214812e-07
1.4515986068823483e-06
4.844936634072761e-07
-4.83512318794066e-07
-1.4506234652829353e-06
2.0065563536356135e-06
6.705951379956665e-07
-6.663834216276421e-07
-2.002346534607513e-06
2.3305754401625745e-06
7.800466391774674e-07
-7.714765042042548e-07
-2.3220013668084905e-06
2.4358041294664234e-06
8.160679458475706e-07
-8.046457705308818e-07
-2.4243859891304176e-06
2.3306022103736224e-06
7.800457613137135e-07
-7.715055491928913e-07
-2.322059969788598e-06
2.0066596816848553e-06
6.706434556857932e-07
-6.6638884984975e-07
-2.002405958366829e-06
1.4516078723162545e-06
4.845002108538887e-07
-4.835073421464997e-07
-1.4506192261183604e-06
7.205711247369739e-07
2.39857435071697e-07
-2.4139508536871745e-07
-7.221097787640796e-07
-4.35688483554908e-08
-1.5379164318776728e-08
1.2736400456861419e-08
4.092272215712456e-08
-7.332256044979141e-07
-2.4561762933424103e-07
2.422877887070518e-07
7.298901257193208e-07
-1.3350978079734038e-06
-4.4640062142956016e-07
4.4291185887467e-07
1.3316050113450911e-06
-1.8861245136368027e-06
-6.302120570400582e-07
6.266153798357293e-07
1.8825278296635828e-06
-2.403497475707327e-06
-8.02840415698022e-07
7.993401375302328e-07
2.3999984552457165e-06
-2.82983229545411e-06
-9.451904162474656e-07
9.41288531834672e-07
2.8259383206413746e-06
-2.271280161333239e-06
-7.589452885592429e-07
7.545504160620664e-07
2.26688679218906e-06
-1.6828774482904874e-06
-5.62720232667735e-07
5.582999796013843e-07
1.678463915553291e-06
-1.0487334645252477e-06
-3.5128989059676763e-07
3.467217778579945e-07
1.0441668139848925e-06
-3.1471813907030244e-07
-1.0647413924841365e-07
1.020198936510508e-07
3.102623412284955e-07
5.821026732716339e-07
1.9309142867268703e-07
-1.9621666814267913e-07
-5.852323588621811e-07
1.6298774451299625e-06
5.42995061230539e-07
-5.449510789637402e-07
-1.6318376714272165e-06
2.5921639023249177e-06
8.665887785176685e-07
-8.605627102517555e-07
-2.586143323799611e-06
3.1977193448769897e-06
1.0713822093371544e-06
-1.0565932406763484e-06
-3.1829336511711437e-06
3.390044872150083e-06
1.135790579479684e-06
-1.1200591192132847e-06
-3.3742992458507537e-06
3.1978125721813383e-06
1.0714266991691118e-06
-1.0565954393845778e-06
-3.1829817828139123e-06
2.5921523002549185e-06
8.665634892643381e-07
-8.60604489111641e-07
-2.5862052236737265e-06
1.6299495674988035e-06
5.430330794527899e-07
-5.449465928161756e-07
-1.6318671632493953e-06
5.821719234050393e-07
1.9314543836176923e-07
-1.9617534101346035e-07
-5.852013910418591e-07
-3.1477420633224673e-07
-1.0650699091077631e-07
1.0200945375904436e-07
3.1027387357128455e-07
-1.0487366006069199e-06
-3.5129649726510503e-07
3.4671334744017235e-07
1.0441580747255763e-06
-1.6829829344328778e-06
-5.627947556700874e-07
5.582526052295977e-07
1.678440615021648e-06
-2.271186335393166e-06
-7.588637209472032e-07
7.546223946153924e-07
2.2669519777439306e-06
-2.829812608511062e-06
-9.451737672267618e-07
9.413032521898151e-07
2.825952410582394e-06
-3.1533530285253464e-06
-1.0532506122921947e-06
1.0489173446238953e-06
3.1490328334417284e-06
-2.5710386392374662e-06
-8.591151671386021e-07
8.541552519204798e-07
2.5660864069118605e-06
-1.96584941837899e-06
-6.575242453392416e-07
6.5184738238383e-07
1.96016986302866e-06
-1.325924604538703e-06
-4.4435221216096443e-07
4.3800585762185373e-07
1.3195745815694493e-06
-6.014779916491131e-07
-2.030176009353013e-07
1.9600630419419618e-07
5.944670187496559e-07
2.7760462832995825e-07
8.988681101870788e-08
-9.760386568413715e-08
-2.8532161353012064e-07
1.4742015942634246e-06
4.90762551579732e-07
-4.932985415255497e-07
-1.4767479477248435e-06
2.986555477939648e-06
9.944911459527223e-07
-9.995986488858973e-07
-2.991649804095012e-06
4.246634119310297e-06
1.422962933993882e-06
-1.4034582119046984e-06
-4.227123845134545e-06
4.700451712889159e-06
1.5852155806177215e-06
-1.5327231478925313e-06
-4.647979745702954e-06
4.246702662275004e-06
1.4230133689608487e-06
-1.4034234320711714e-06
-4.227102568846522e-06
2.9864582114756677e-06
9.944403242343608e-07
-9.996059644520189e-07
-2.9916158959461536e-06
1.4741921479984738e-06
4.907493828965742e-07
-4.933172131731112e-07
-1.4767739696247562e-06
2.776888634870023e-07
8.994236810194733e-08
-9.757690878388348e-08
-2.853236722825947e-07
-6.014606873175343e-07
-2.0300066183934207e-07
1.960239742731379e-07
5.944864703809338e-07
-1.3258844015814203e-06
-4.44338505914757e-07
4.379960185079551e-07
1.3195438489429362e-06
-1.965779300134446e-06
-6.574502608106686e-07
6.519289308098281e-07
1.9602629927461396e-06
-2.5710925107193944e-06
-8.591741151881688e-07
8.540880056147337e-07
2.5660074214131634e-06
-3.1534102792052376e-06
-1.0532917258023605e-06
1.0488899380989292e-06
3.149016855042569e-06
-3.354726561249216e-06
-1.1205876341152665e-06
1.1157453902489733e-06
3.3498830850249572e-06
-2.760550500528064e-06
-9.225500848045187e-07
9.169040644137205e-07
2.754901767137302e-06
-2.1485969781721848e-06
-7.187135510761111e-07
7.123350162022146e-07
2.1422219030134415e-06
-1.5142541718270175e-06
-5.076562429699727e-07
4.998729268256008e-07
1.5064723520447076e-06
-8.112034795386414e-07
-2.739873627040368e-07
2.6400122094330514e-07
8.012258653038173e-07
1.414086940251802e-08
1.9092256595132362e-10
-1.3179963172932352e-08
-2.7135338247219476e-08
1.0630075927484106e-06
3.468917379942371e-07
-3.6886075813549746e-07
-1.0849458079477403e-06
2.7931450142550107e-06
9.34135015420029e-07
-9.260989087336857e-07
-2.7852160708972257e-06
5.251755506512773e-06
1.7663260242582052e-06
-1.7232649103995218e-06
-5.208740160304176e-06
6.577376982027858e-06
2.207944245694385e-06
-2.16710905462901e-06
-6.536331556481617e-06
5.251760990285931e-06
1.7663466752946416e-06
-1.723228107807298e-06
-5.208685865992074e-06
2.793204019871376e-06
9.34159268417209e-07
-9.261083418771882e-07
-2.7852584442607242e-06
1.0629492867893914e-06
3.46874930022556e-07
-3.6883819410846175e-07
-1.0848850660362397e-06
1.4052137757222805e-08
1.311423660638189e-10
-1.3215374641828426e-08
-2.715065203738598e-08
-8.112260949117572e-07
-2.739905729277903e-07
2.640163988092137e-07
8.012587636805485e-07
-1.5143164369870593e-06
-5.076832246611596e-07
4.998798771530671e-07
1.506512736773255e-06
-2.148695988141028e-06
-7.187823873654273e-07
7.122937625558823e-07
2.142206270198954e-06
-2.76049098682854e-06
-9.225120766419292e-07
9.169224226713429e-07
2.7549019369528527e-06
-3.35464596892647e-06
-1.1205226758907033e-06
1.1157984578184094e-06
3.3499276323196298e-06
-3.422843192185665e-06
-1.143307284699746e-06
1.1384696237230763e-06
3.4180074193305987e-06
-2.8251546921737036e-06
-9.441343553941162e-07
9.383816777751297e-07
2.8194078222423813e-06
-2.2119500917780477e-06
-7.399634248880793e-07
7.332275801900934e-07
2.2052187799749545e-06
-1.5794982857579576e-06
-5.296772016688545e-07
5.211243039628111e-07
1.5709516883212482e-06
-8.904210181785721e-07
-3.006851719139503e-07
2.898774043302854e-07
8.795870699608577e-07
-8.893810551913184e-08
-3.653511757364947e-08
1.6644261555814888e-08
6.912663919056428e-08
9.283469214454304e-07
3.03336017878561e-07
-3.2132802937900884e-07
-9.465265482129503e-07
2.192053492975493e-06
6.756152940660259e-07
-8.398257128512665e-07
-2.3558419271693665e-06
5.597238958350917e-06
1.8807134237689566e-06
-1.8400778376975735e-06
-5.556383760823777e-06
8.315524334620919e-06
2.909123820935e-06
-2.5079421773644556e-06
-7.915376504390864e-06
5.597090932256063e-06
1.88061395763571e-06
-1.840134900810489e-06
-5.5564037843396086e-06
2.1920735635873323e-06
6.75631103796287e-07
-8.398144207746178e-07
-2.355835472389947e-06
9.282778652228846e-07
3.033092005663013e-07
-3.2131361503602573e-07
-9.464707696818508e-07
-8.889999209872601e-08
-3.652268475845544e-08
1.6632056764817604e-08
6.909091929303834e-08
-8.903887979416769e-07
-3.0065361346712227e-07
2.8991024272548294e-07
8.796232996589187e-07
-1.5794857208453056e-06
-5.296542414413852e-07
5.211580629705531e-07
1.5709967297831279e-06
-2.2119138469254424e-06
-7.399563060270231e-07
7.332032461032645e-07
2.2051600089747353e-06
-2.825202722992609e-06
-9.441723819430398e-07
9.383513224544421e-07
2.8193825963133967e-06
-3.422801529618172e-06
-1.143308666204032e-06
1.1384262252576993e-06
3.4179224384332796e-06
-3.3547079267108593e-06
-1.1205673739675404e-06
1.1157696134141137e-06
3.349913934299481e-06
-2.7605115283761694e-06
-9.225197757367631e-07
9.169277023109157e-07
2.7549206556669315e-06
-2.148634739154026e-06
-7.18733442768571e-07
7.123340206964535e-07
2.142241209337342e-06
-1.5142736092405018e-06
-5.076627601664774e-07
4.998787039821317e-07
1.5064903475178748e-06
-8.112032713371298e-07
-2.7398145735144097e-07
2.6400931602693634e-07
8.01232772983107e-07
1.4054901607135628e-08
1.3985538248328933e-10
-1.3200063647168803e-08
-2.712802366034925e-08
1.0630084672988427e-06
3.4688966312444725e-07
-3.6886723286597145e-07
-1.084958305154135e-06
2.793169104854318e-06
9.341455632812246e-07
-9.261005668604466e-07
-2.7852288983134382e-06
5.251776889533127e-06
1.766368776013466e-06
-1.7231981488553122e-06
-5.208646267523473e-06
6.5773848804580315e-06
2.2079378036582442e-06
-2.1671285967070353e-06
-6.536362920618599e-06
5.251770173219858e-06
1.7663587517733476e-06
-1.7232131032853676e-06
-5.20866758035865e-06
2.7931564719526486e-06
9.34146950905615e-07
-9.260853530944357e-07
-2.7851997466115525e-06
1.062977410941704e-06
3.4688001718415074e-07
-3.6885561586173787e-07
-1.0849250325177529e-06
1.409747332412059e-08
1.7394389748015548e-10
-1.317433293360204e-08
-2.7110204322763898e-08
-8.112248020154117e-07
-2.7398171860947007e-07
2.640327611269644e-07
8.012831218349309e-07
-1.5143192819006002e-06
-5.076961197073016e-07
4.998577105234242e-07
1.506481931225906e-06
-2.1486451397632195e-06
-7.187653487360224e-07
7.1227700070009e-07
2.1421545352822563e-06
-2.760490190304235e-06
-9.225017855215428e-07
9.169400201122085e-07
2.7549242643983007e-06
-3.3547100873661945e-06
-1.1205627886614472e-06
1.1157804056648873e-06
3.349930242200691e-06
-3.1534536478368402e-06
-1.053325352308454e-06
1.0488632463043213e-06
3.1489947605843616e-06
-2.5710624687660943e-06
-8.591344650768495e-07
8.541385868865436e-07
2.566070823901284e-06
-1.965853024626235e-06
-6.575014536817914e-07
6.518973281917362e-07
1.9602483961253525e-06
-1.3258923782684395e-06
-4.443193040923332e-07
4.380418250661544e-07
1.3196163649309423e-06
-6.014549671744251e-07
-2.03000121067054e-07
1.9601679118047555e-07
5.944692190312795e-07
2.776294729302936e-07
8.990217860785354e-08
-9.75994473191577e-08
-2.8532966898572876e-07
1.4742318299679896e-06
4.907801814061502e-07
-4.932927330277698e-07
-1.4767534050399989e-06
2.986500975360115e-06
9.94450574472519e-07
-9.996262081493623e-07
-2.9916651390505394e-06
4.2466393902935995e-06
1.4229637114483717e-06
-1.4034603466345913e-06
-4.22712729053476e-06
4.700419311474274e-06
1.5851965933042639e-06
-1.532729703218258e-06
-4.647974540456998e-06
4.246655397274063e-06
1.422959655796724e-06
-1.4034866151809572e-06
-4.227178096524384e-06
2.9865142027012126e-06
9.944845019930343e-07
-9.995708619200266e-07
-2.9915872508928104e-06
1.474264968711475e-06
4.908028778203427e-07
-4.932813977166078e-07
-1.4767544543239225e-06
2.7761955898909785e-07
8.989844648560341e-08
-9.759694133935903e-08
-2.853206590141405e-07
-6.015073631983597e-07
-2.0304050347020458e-07
1.959889884307897e-07
5.944546726983913e-07
-1.3258670778851234e-06
-4.443194980170706e-07
4.380175082198748e-07
1.3195687581773335e-06
-1.9657579733416836e-06
-6.574521015326878e-07
6.51903513447169e-07
1.960212482966621e-06
-2.5709963838169494e-06
-8.591096021083947e-07
8.541223197322534e-07
2.5660120676340714e-06
-3.1533843393265204e-06
-1.0532976026959504e-06
1.0488488572605453e-06
3.1489365635486294e-06
-2.829876485668098e-06
-9.452046739223674e-07
9.413031354585377e-07
2.825981232131708e-06
-2.2711878044194556e-06
-7.588696474547518e-07
7.546111093527375e-07
2.2669343222522786e-06
-1.6829900604878323e-06
-5.627991324676229e-07
5.582497118322705e-07
1.6784379776382807e-06
-1.048759844846786e-06
-3.51325358780713e-07
3.46675725744483e-07
1.044108559462159e-06
-3.1473861074847453e-07
-1.0647471756879134e-07
1.0204063144794717e-07
3.103061628206838e-07
5.821248038589272e-07
1.930987692053826e-07
-1.9622441230562893e-07
-5.852557357233917e-07
1.6299177629606337e-06
5.430488833318287e-07
-5.448810026370543e-07
-1.6317484595185228e-06
2.5921803344011035e-06
8.665914524880886e-07
-8.60574221255711e-07
-2.586169717768219e-06
3.1978101279143273e-06
1.0714285183580086e-06
-1.0565877672195911e-06
-3.182966557557093e-06
3.3901016829613467e-06
1.1358295947221098e-06
-1.120037089297199e-06
-3.3742938521409693e-06
3.1977235438636342e-06
1.0713944274126641e-06
-1.056572784758139e-06
-3.182904879812584e-06
2.5921498438604557e-06
8.665579499314569e-07
-8.606133052885961e-07
-2.5862171681659968e-06
1.6299324205985843e-06
5.430302744517668e-07
-5.449347058490706e-07
-1.6318399438611936e-06
5.82118585237823e-07
1.9311459107350382e-07
-1.961842650988893e-07
-5.851885673015256e-07
-3.1476217469180584e-07
-1.065073256959273e-07
1.0199686373887212e-07
3.1024918194233475e-07
-1.0487854134278926e-06
-3.513351461191874e-07
3.4668126890936846e-07
1.0441291800940972e-06
-1.682952266227923e-06
-5.627733524662254e-07
5.58266098328597e-07
1.6784470929301354e-06
-2.2711856103585504e-06
-7.588692423491153e-07
7.546116189381669e-07
2.266936524677153e-06
-2.829839058493891e-06
-9.452012512999389e-07
9.412723216721194e-07
2.825914965021853e-06
-2.4034744007146724e-06
-8.02800495938033e-07
7.993969275005286e-07
2.4000721602530917e-06
-1.886100166437199e-06
-6.302122948810551e-07
6.265913754799346e-07
1.8824805915161613e-06
-1.3351139110592825e-06
-4.464312567779849e-07
4.42867158376159e-07
1.331546193965305e-06
-7.332446116253832e-07
-2.456230402680948e-07
2.422956857815392e-07
7.299109063573818e-07
-4.3497949818449566e-08
-1.531569799977095e-08
1.2796292787539687e-08
4.098281522653402e-08
7.205732929244785e-07
2.39851459634538e-07
-2.414109177995699e-07
-7.22137327126976e-07
1.4516280295844702e-06
4.845137817517664e-07
-4.834999474834928e-07
-1.4506175700298996e-06
2.0066074973897757e-06
6.706360448065912e-07
-6.663504236933959e-07
-2.0023196314559316e-06
2.3305465784474733e-06
7.800047649216685e-07
-7.715334532001211e-07
-2.3220759107853844e-06
2.435834100037587e-06
8.160927063328993e-07
-8.046254879375686e-07
-2.424369483436037e-06
2.3305814809779918e-06
7.800391829473896e-07
-7.714996154584847e-07
-2.322042780800518e-06
2.006624729889925e-06
6.706245055162346e-07
-6.663928822422255e-07
-2.0023957240638407e-06
1.451599306277751e-06
4.844959068436155e-07
-4.835070826006427e-07
-1.4506140839105203e-06
7.205392604401825e-07
2.398396105572631e-07
-2.413994494975674e-07
-7.221009932206063e-07
-4.353788087083782e-08
-1.535640291837337e-08
1.275233055524766e-08
4.093341247728144e-08
-7.332265778182967e-07
-2.455920193296726e-07
2.42341472792007e-07
7.299737467417536e-07
-1.3350649092202377e-06
-4.464015432277882e-07
4.428786102399218e-07
1.3315403119811692e-06
-1.8861377385215317e-06
-6.302138221576242e-07
6.266263621974508e-07
1.882552847072734e-06
-2.4034490180499524e-06
-8.028307631937487e-07
7.993104848141863e-07
2.3999277789076706e-06
-1.9044584982502721e-06
-6.361535730345369e-07
6.332964213699721e-07
1.9016064588713022e-06
-1.4519864031496688e-06
-4.851487714618852e-07
4.823208919410571e-07
1.4491660239208948e-06
-9.673075862769165e-07
-3.234160619210169e-07
3.2083204674557275e-07
9.647279258402641e-07
-4.4333150484021644e-07
-1.4855287936224593e-07
1.4627952405962819e-07
4.4105164811319986e-07
1.1941007281232596e-07
3.9356400463250174e-08
-4.0938567777079604e-08
-1.2099899134032643e-07
6.672153058141783e-07
2.2243362613957873e-07
-2.2283748353155164e-07
-6.676266777454892e-07
1.124507279418041e-06
3.754702540791077e-07
-3.741675665171196e-07
-1.1232062384000652e-06
1.4456246565739544e-06
4.832814028462445e-07
-4.796683353777698e-07
-1.4420149403535781e-06
1.6278838239538324e-06
5.447399070278997e-07
-5.389714254119132e-07
-1.6221139479081353e-06
1.6857416374714551e-06
5.642686050581075e-07
-5.577490995306578e-07
-1.6792175983604274e-06
1.6278533193046785e-06
5.446913250144875e-07
-5.390426159272016e-07
-1.6222126646738e-06
1.4456494449380242e-06
4.833227929355172e-07
-4.796094225049258e-07
-1.4419372881685488e-06
1.1244864690054032e-06
3.754696528376119e-07
-3.7414798577037334e-07
-1.1231663642093104e-06
6.672691380714066e-07
2.2246452574970627e-07
-2.2282573246788784e-07
-6.676304103976974e-07
1.193891077562459e-07
3.9345048539508876e-08
-4.0938532494538826e-08
-1.2098570613839482e-07
-4.4324899693519437e-07
-1.4846634193571573e-07
1.4637554251063084e-07
4.411626562715945e-07
-9.672827186429228e-07
-3.234187182362888e-07
3.2080233467075836e-07
9.646709184657487e-07
-1.4520521520256305e-06
-4.851869531011591e-07
4.823077853948268e-07
1.4491759694531398e-06
-1.9044893196139626e-06
-6.361816756988298e-07
6.332686571190044e-07
1.9015768310502723e-06
-1.374417786931953e-06
-4.591780562897274e-07
4.5678044711255916e-07
1.3720200849297315e-06
-1.0128986497985604e-06
-3.384831673662603e-07
3.362645635378303e-07
1.010681873823971e-06
-6.282299007051573e-07
-2.1008904549715823e-07
2.0817112315538178e-07
6.263133894568451e-07
-2.2893023108976063e-07
-7.67913946736476e-08
7.525603552653581e-08
2.2739281623287977e-07
1.6476201807752444e-07
5.4744890136751434e-08
-5.551642368040177e-08
-1.6553322921414315e-07
5.109031384967211e-07
1.704354079014314e-07
-1.7036414156311463e-07
-5.108385796592785e-07
7.78669514575614e-07
2.601165226476243e-07
-2.5877408916727407e-07
-7.773315076672199e-07
9.589637780874072e-07
3.206422437822959e-07
-3.179776784604377e-07
-9.56300350588024e-07
1.059189547816114e-06
3.5443447529183436e-07
-3.5057370731741977e-07
-1.055324605508945e-06
1.0908314062359897e-06
3.651224054022212e-07
-3.6082521387773014e-07
-1.086535359389601e-06
1.0590978625282799e-06
3.543699990272292e-07
-3.506160324955043e-07
-1.0553491745536603e-06
9.589720634910204e-07
3.206477963597909e-07
-3.179760131588605e-07
-9.56303893960217e-07
7.787481920490044e-07
2.6012908733302753e-07
-2.5882664832655583e-07
-7.774496174053555e-07
5.109256683843988e-07
1.7046219250721473e-07
-1.7032856398230267e-07
-5.107898044288961e-07
1.6475228121516639e-07
5.473404887049865e-08
-5.552742709385994e-08
-1.6554373875963396e-07
-2.289039992926442e-07
-7.679721744473234e-08
7.521850869680186e-08
2.2732297599772217e-07
-6.282495676442415e-07
-2.100941568442677e-07
2.0818082669890603e-07
6.263378327323738e-07
-1.0128858627710471e-06
-3.384822911153655e-07
3.3625300257470597e-07
1.01065725993622e-06
-1.3744274732939085e-06
-4.591672190384921e-07
4.5681229743702034e-07
1.3720740633603977e-06
-8.643922839550455e-07
-2.8885680762938404e-07
2.8697405715649715e-07
8.625137472087485e-07
-6.146857065673916e-07
-2.0545824713086303e-07
2.0383337894468168e-07
6.130655484000436e-07
-3.54199312626452e-07
-1.1852209845855666e-07
1.1710386485161428e-07
3.5278371356486926e-07
-9.797408952183506e-08
-3.293605341930794e-08
3.195984196215085e-08
9.699890925543575e-08
1.3624738983211704e-07
4.5347462564529484e-08
-4.572840578767612e-08
-1.366263205800078e-07
3.2850293836365896e-07
1.0966008479745826e-07
-1.0934919089829187e-07
-3.2819188162946933e-07
4.6987933550839134e-07
1.570387200226092e-07
-1.5592538028449954e-07
-4.6876782622273794e-07
5.620017836781982e-07
1.8800112726313767e-07
-1.8606870518834973e-07
-5.600709874886006e-07
6.12291959987965e-07
2.049750181983001e-07
-2.0236706546952754e-07
-6.096816047330977e-07
6.280804594437084e-07
2.1028345829031403e-07
-2.075242079933176e-07
-6.253213609211383e-07
6.123025749447952e-07
2.0497301421451564e-07
-2.023823041444328e-07
-6.097109021534902e-07
5.619969189948892e-07
1.8800245690352851e-07
-1.8606188048955752e-07
-5.600595495832902e-07
4.698611409280004e-07
1.5700859630745495e-07
-1.5596899139835169e-07
-4.6882702900864076e-07
3.2845876367024185e-07
1.096405652187965e-07
-1.0934461931386141e-07
-3.281633620590835e-07
1.3628599628348614e-07
4.5346526616162064e-08
-4.5770776415515746e-08
-1.367131100557875e-07
-9.800185524991983e-08
-3.2951357107312285e-08
3.19557279014962e-08
9.700458099368842e-08
-3.541826755332732e-07
-1.1849295906800339e-07
1.1714286009094355e-07
3.528299404439647e-07
-6.147127241582472e-07
-2.0550309623749638e-07
2.0376579272247258e-07
6.12969969130718e-07
-8.644479359194192e-07
-2.888767097536035e-07
2.869878956419762e-07
8.625600675690563e-07
-4.31320564157206e-07
-1.4422932129165567e-07
1.4278062212755294e-07
4.298736726096597e-07
-2.967876183597451e-07
-9.926819929950703e-08
9.810246102276432e-08
2.956231078474203e-07
-1.5966788212418148e-07
-5.347283730389174e-08
5.256701813421971e-08
1.5876436734035826e-07
-3.1486660527144106e-08
-1.064797776340054e-08
1.0048845032126219e-08
3.088638784315423e-08
7.908782392353209e-08
2.6350974615882428e-08
-2.647977980808902e-08
-7.9214069474004e-08
1.6531230026886612e-07
5.520184459019417e-08
-5.4940080243884304e-08
-1.650470232844592e-07
2.2620545999524344e-07
7.56598433349076e-08
-7.484976050596559e-08
-2.2539034104374078e-07
2.648152637920592e-07
8.870052383563864e-08
-8.732107150376256e-08
-2.63432990355722e-07
2.853522142100967e-07
9.562140141673725e-08
-9.397967746030411e-08
-2.837117481467588e-07
2.918219344227868e-07
9.783337038236917e-08
-9.600921371290261e-08
-2.899944353453726e-07
2.854449684215263e-07
9.568766392588877e-08
-9.393712952117383e-08
-2.836907402430089e-07
2.647360050709452e-07
8.863499466240515e-08
-8.737608144220727e-08
-2.634805647359212e-07
2.262309789398398e-07
7.568978786526986e-08
-7.481670113822225e-08
-2.2535555063967622e-07
1.65331986933491e-07
5.5231503854821784e-08
-5.490230057126483e-08
-1.6500295683258281e-07
7.907204157067693e-08
2.6316349921277904e-08
-2.653671905741145e-08
-7.929725909152502e-08
-3.148010413369512e-08
-1.0629010563627944e-08
1.0079990133381178e-08
3.092943389121708e-08
-1.596458195419516e-07
-5.345916053974345e-08
5.2569265964613754e-08
1.5875202135327837e-07
-2.9682417608490816e-07
-9.928382942430564e-08
9.810549125291099e-08
2.9564286038643445e-07
-4.3129725219481947e-07
-1.4422142575955428e-07
1.4277195556442607e-07
4.2984697207074443e-07
-1.329596538424127e-07
-4.448172095591896e-08
4.3647996175733006e-08
1.321280005302239e-07
-8.915556437213978e-08
-2.983145629825712e-08
2.9207158143418344e-08
8.853223908145136e-08
-4.513192769506347e-08
-1.5077480007563704e-08
1.477161044871611e-08
4.483314292383356e-08
-5.799062136740973e-09
-1.9778806405190696e-09
1.7196716186468342e-09
5.5421216921258676e-09
2.673382191835383e-08
8.909037330778746e-09
-8.949139504096926e-09
-2.6770382112462077e-08
5.1053546380047665e-08
1.7061627090309006e-08
-1.688109354559819e-08
-5.0870566536964645e-08
6.775934682616558e-08
2.2701322809418056e-08
-2.2236155515845124e-08
-6.729183168151243e-08
7.797982174220786e-08
2.6150042199343804e-08
-2.5506822794521544e-08
-7.733755468669612e-08
8.331762041575985e-08
2.797457492910438e-08
-2.716442542953501e-08
-8.251208903457818e-08
8.50316488210795e-08
2.8569309605541715e-08
-2.7677662640945844e-08
-8.414519622225447e-08
8.339828132426785e-08
2.8019603868015275e-08
-2.7153241755756286e-08
-8.253378122775878e-08
7.796928847957768e-08
2.6149285803529765e-08
-2.5497553026408715e-08
-7.731806707551858e-08
6.77225869029352e-08
2.2655598562112966e-08
-2.2294102083528222e-08
-6.736588287724332e-08
5.107556703097538e-08
1.705346057770396e-08
-1.692348387642706e-08
-5.0951695673359665e-08
2.6730223583182333e-08
8.918429160106878e-09
-8.928723344882317e-09
-2.6740899535492024e-08
-5.8119555201505135e-09
-1.9851760491539083e-09
1.715514478736746e-09
5.538674993036535e-09
-4.512545661661607e-08
-1.509324091750197e-08
1.4731393067207721e-08
4.47659621450984e-08
-8.919053164448999e-08
-2.982303429904798e-08
2.9258374395144116e-08
8.862659816536583e-08
-1.3290590870820157e-07
-4.4448331042797225e-08
4.366080454022979e-08
1.3212000291409117e-07
SCALARS strain33 float
LOOKUP_TABLE default
-2.7222766709300572e-05
-3.2916315748865443e-05
-2.6374364104218145e-05
-2.7918737554033513e-05
2.92597533365635e-05
2.5763159503200406e-05
2.995631678345996e-05
2.669876649774583e-05
-2.1332985042810115e-05
-3.072365271339361e-05
-4.472513636433195e-05
-6.01514543726589e-05
-7.735329333735663e-05
-9.41170253293544e-05
-0.0001066391696787905
-0.00011829495051030037
-0.00012680495203687414
-0.00012806219257510687
-0.00012709166508917402
-0.00011771188005882394
-0.00010756752984919515
-9.25912491377412e-05
-7.699684190509704e-05
-6.014548578170409e-05
-4.595423318853875e-05
-3.2635917668555336e-05
-2.166600842135047e-05
-2.3284371183596164e-05
-3.2882784561705236e-05
-4.499810415814487e-05
-6.120284598187808e-05
-7.818823866728719e-05
-9.359454959717572e-05
-0.00010699735049457537
-0.00011899183193120333
-0.00012494216770775335
-0.0001283071659436974
-0.0001257268071566675
-0.00011756390940181882
-0.00010751828913832528
-9.28210424770981e-05
-7.605394762766338e-05
-6.051905949769343e-05
-4.443265969115984e-05
-3.1784938943651975e-05
-1.9861591418639246e-05
-2.092164191533699e-05
-3.073278269553198e-05
-4.5586440634265424e-05
-6.0549969609330345e-05
-7.814875221529016e-05
-9.316500545900053e-05
-0.00010743518872066704
-0.0001188471280856862
-0.00012741162857587973
-0.00012756300889948946
-0.0001254425583002705
-0.00012026594586417305
-0.0001062641634816397
-9.196772517272578e-05
-7.754819830324555e-05
-6.154217869808187e-05
-4.492010927920065e-05
-3.13139228290682e-05
-2.1338558358618975e-05
-2.130882501671927e-05
-3.029467747572845e-05
-4.292537141303843e-05
-5.9542579848415045e-05
-7.682475040038383e-05
-9.545919150899529e-05
-0.00010814236116574172
-0.00011905279076107611
-0.00012529266348648704
-0.00012908934062916266
-0.0001255224259587573
-0.00011827389642138364
-0.00010680452445799293
-9.552609723739725e-05
-7.79926513003737e-05
-6.237370024675393e-05
-4.612245308099894e-05
-3.033670225194296e-05
-2.08695253157698e-05
2.048209224081443e-05
3.0164356583539664e-05
4.409400759841642e-05
6.203946316496456e-05
7.761090372016e-05
9.467868672052848e-05
0.00010879124142926244
0.00011912618812048859
0.00012603539954625376
0.00012874695738374076
0.00012491012580961858
0.00012090863472991042
0.00011121964240279336
9.480051334598283e-05
7.944964669948096e-05
6.161774309365597e-05
4.4548167249303106e-05
2.876997680789639e-05
2.2288667665182338e-05
2.0750018547177618e-05
3.019707411511252e-05
4.461251085502438e-05
6.034216253386626e-05
7.788497599836575e-05
9.483083210981569e-05
0.00010959359681872449
0.00011850673462587835
0.00012555430326244288
0.00012886069040468628
0.00012685400459966356
0.00012040198673837765
0.00010918736226428472
9.389606246901216e-05
7.764799216927742e-05
6.114951800750834e-05
4.308430154617571e-05
2.9102549194880145e-05
2.205922977397551e-05
2.0776415721280445e-05
3.264070858642609e-05
4.563248476754933e-05
6.041277068269402e-05
7.819628596625328e-05
9.448959936481094e-05
0.00010971556860825404
0.00011950051199405287
0.00012241242728849855
0.00012907087234292902
0.00012590632623366016
0.00011768015224777884
0.00011063630353297382
9.710554595265819e-05
7.765850867186286e-05
5.9621483465832625e-05
4.28521654023406e-05
3.11412326322591e-05
2.001527212736054e-05
2.099991677617652e-05
2.9279704448437194e-05
4.4472271382822726e-05
6.238446209316795e-05
7.903996993519069e-05
9.305823105210109e-05
0.00010659960651315803
0.00011717662116694783
0.0001267814184922056
0.0001274936045112529
0.00012597536403557985
0.00011963460470465481
0.0001078858673296823
9.132677358958396e-05
7.748928164519331e-05
6.0648811089025756e-05
4.584158060627619e-05
3.1243679348258446e-05
2.0138666095959046e-05
-1.5841920085302164e-05
-4.60487414777333e-06
6.591630374974677e-06
1.784655005765412e-05
-2.103255658958414e-05
-9.326598806036479e-06
2.3060573676181306e-06
1.3968402458486295e-05
-1.5036685870604624e-05
-3.83652881977975e-06
7.327793873149191e-06
1.855928540311219e-05
-1.6890134841740512e-05
-6.0139970113892716e-06
4.809842877206982e-06
1.568141567420689e-05
-2.835669493894688e-05
-5.48914466598216e-05
-9.96619848246949e-05
-0.0001512500285019147
-0.00020665278942655352
-0.0002577761117081856
-0.0003027849058346854
-0.00033737301772018835
-0.0003572498703833249
-0.0003653166248716033
-0.00035726130289492897
-0.0003365159123538408
-0.0003027812166734867
-0.0002577862758760263
-0.00020605220392111434
-0.00015151164408699902
-9.961088091414716e-05
-5.548803683230741e-05
-3.0184616943929043e-05
-5.536944252160225e-05
-5.3842860360919786e-05
-7.011878601170807e-05
-9.393382269617945e-05
-0.00012320442315771896
-0.00015418835414993115
-0.00018415358208168087
-0.00020744194655597514
-0.00022175639287025373
-0.0002294888441854992
-0.0002229679480175717
-0.0002086710260031932
-0.00018286065330230805
-0.00015517689933819412
-0.00012451572318972204
-9.41648932550887e-05
-7.047540519444784e-05
-5.2864282229059256e-05
-5.534661623696202e-05
-9.956564237756371e-05
-7.135723456341836e-05
-6.920377229946428e-05
-7.034268399475074e-05
-8.111584641234959e-05
-9.85777515096764e-05
-0.0001185990301214579
-0.0001371387391591039
-0.0001496777078586753
-0.00015362188814183053
-0.00014976107267405947
-0.00013666264923972715
-0.0001180685900358247
-9.737770090911813e-05
-8.221624858850696e-05
-7.129721442689085e-05
-6.99985772445455e-05
-7.05977334803376e-05
-0.0001002107689672127
-0.0001505863916871908
-9.375403353906187e-05
-7.013022408286496e-05
-4.3659936637685526e-05
-2.6288574452415503e-05
-2.0549502666611374e-05
-2.5448067664246565e-05
-3.4242510008275495e-05
-4.21745961636244e-05
-4.558585776714974e-05
-4.158886096827796e-05
-3.4270538980973875e-05
-2.552828392965445e-05
-1.961712935322213e-05
-2.642868375052343e-05
-4.388498566498811e-05
-7.068573820545598e-05
-9.332175261428377e-05
-0.00015107042615647437
-0.00020676695095067643
-0.00012358132667955601
-8.185314469955074e-05
-2.649329685611157e-05
2.202373956705639e-05
5.970987027092978e-05
7.698453653626203e-05
7.896134202023397e-05
7.754151990235769e-05
7.574624442630018e-05
7.6502732346162e-05
8.000411398634277e-05
7.722038816121435e-05
6.005776862921808e-05
2.259801218607027e-05
-2.5625300872578194e-05
-8.157432686778376e-05
-0.00012375053907670575
-0.00020633276283865687
-0.00025813995395107536
-0.00015409679471789506
-9.854544452259084e-05
-1.9620454614233118e-05
5.9057299430564925e-05
0.00013788870562325695
0.0001933513088276939
0.00021758272208460827
0.0002246294496921486
0.00022136099882547056
0.0002247086109301577
0.0002173978252568709
0.00019348885675385397
0.00013795754454265508
5.994712963014459e-05
-2.0280979637299357e-05
-9.864667429071439e-05
-0.00015458606847834622
-0.0002585496565268852
-0.00030333867525866864
-0.00018387899683480757
-0.00011850679730762703
-2.5868792602357082e-05
7.544496109801457e-05
0.0001929723773557157
0.0003116915798196951
0.0003873245804879577
0.00040490880152660447
0.00042052933113523316
0.0004040331271391584
0.0003877645433019161
0.00031253897490857163
0.00019246620269885995
7.721000783050824e-05
-2.566409051935059e-05
-0.00011958734602274257
-0.00018491708339701818
-0.0003024008589032623
-0.00033688106252327543
-0.000207609731118219
-0.00013652899055571766
-3.487546044056433e-05
8.006370948054897e-05
0.00021833314851227303
0.0003863819699038151
0.0005735464479226793
0.0006688276800254078
0.0006320268230948778
0.000667736421694376
0.0005752817392828402
0.00038750822881994385
0.0002172472679140558
8.049677918242626e-05
-3.427706589759216e-05
-0.00013656372880288536
-0.00020755873583372386
-0.00033603369083545775
-0.00035744293056394483
-0.00022330075036913755
-0.00014977909779589904
-4.271768710173429e-05
7.819476803161418e-05
0.00022398342716445363
0.0004032208572005147
0.0006701233836008957
0.0010080262163926768
0.0012252359683085357
0.0010089669945579915
0.0006681214200650043
0.00040470819067622843
0.00022398936778694756
7.780671755786006e-05
-4.176490330043414e-05
-0.00014820330745707322
-0.00022276148869848633
-0.0003574226410749115
-0.00036441589490232573
-0.00022826129835040732
-0.00015270575060377656
-4.5857275870697656e-05
7.540893412083527e-05
0.0002221225008620653
0.0004225916309163469
0.0006317689336713395
0.0012247912597289634
0.001378078143268846
0.0012239729825866963
0.0006323949182783228
0.0004210110336198558
0.00022198750235702391
7.584564251322812e-05
-4.6458971359408796e-05
-0.00015522458029737507
-0.00022817885660159076
-0.00036425177333593295
-0.0003571841977009216
-0.0002229686060363223
-0.00015066218738368775
-4.272980710595675e-05
7.775761259709579e-05
0.00022439794631512466
0.0004040339053714703
0.0006681122498482517
0.0010074772922544217
0.001226315807830114
0.0010086253706716453
0.0006665089393228518
0.0004036778511159467
0.0002243447368739382
7.815001420630185e-05
-4.246281698516707e-05
-0.00014983361370046744
-0.0002238574528633519
-0.00035584237830843524
-0.000338083619064955
-0.0002079600000536308
-0.00013620858006402337
-3.323310158453996e-05
7.986068680992942e-05
0.00021679332617219327
0.000386940679457104
0.0005735213913719006
0.0006693173601878821
0.0006315613160976508
0.0006688577220579361
0.000573430558341359
0.0003867602742949061
0.0002190421144363519
8.047746313910586e-05
-3.449748081124637e-05
-0.00013795329313595617
-0.00020651472436072904
-0.0003364777647363315
-0.0003038153336650806
-0.00018288423132095666
-0.0001196449394977872
-2.5152656321636435e-05
7.643134539997432e-05
0.0001935894062428667
0.00031250545631938964
0.0003863332577173084
0.0004052644587021481
0.0004209806213867351
0.0004028656238575512
0.0003877264571146011
0.00031245487297704155
0.00019366159248901393
7.658735098453606e-05
-2.5096500734594906e-05
-0.00011887421276454702
-0.000185022362942322
-0.0003030056892005528
-0.0002581794549341154
-0.0001538597034476119
-9.775771325848392e-05
-2.0526585375990614e-05
5.938414479400578e-05
0.00013754902345985975
0.00019365570693352652
0.0002169141686656495
0.0002234638840545311
0.00022155647537996925
0.00022446748742871447
0.0002167490447561593
0.0001939854593141499
0.00013814709192766506
5.9295206468745754e-05
-1.9894653892488234e-05
-9.864770586462401e-05
-0.00015363857849448603
-0.0002592190527128113
-0.00020564435803971381
-0.00012375320688551295
-8.219064552195121e-05
-2.696733329882184e-05
2.2909730076847712e-05
5.848424076126957e-05
7.596621088762356e-05
7.92146559815965e-05
7.669606243115856e-05
7.694186316803409e-05
7.703853751611645e-05
8.099865777910775e-05
7.508981209158883e-05
5.9066657403544776e-05
2.3667827851237e-05
-2.7055926843183586e-05
-8.192400017639767e-05
-0.0001236192870902042
-0.00020615786044961282
-0.00015139611964265498
-9.312115616832983e-05
-7.035850144310185e-05
-4.259128539413348e-05
-2.5985052851340562e-05
-2.0442732396097618e-05
-2.4335836244782083e-05
-3.4300122422448176e-05
-4.140347322795224e-05
-4.645038619438546e-05
-4.298217362391776e-05
-3.4136935736006624e-05
-2.4155611516030184e-05
-2.1342698115572878e-05
-2.730156560271091e-05
-4.226630776896223e-05
-7.078235190569049e-05
-9.430834935049426e-05
-0.00015147467676429605
-0.0001001322511284819
-7.133016041238616e-05
-6.858212828880772e-05
-7.021424139391774e-05
-8.188842275452801e-05
-9.920697563570169e-05
-0.00011853907168546396
-0.00013730879726608913
-0.00015055146460690727
-0.00015407949262669085
-0.00015075118371665752
-0.0001374626839291404
-0.00011774056932395416
-9.919722675791331e-05
-8.180615551794945e-05
-7.033992583543869e-05
-6.964330511917416e-05
-7.101148550316128e-05
-9.893644971493976e-05
-5.460562821135717e-05
-5.317518247105468e-05
-7.026842437635183e-05
-9.536968327544804e-05
-0.0001229780148588322
-0.00015473908065166686
-0.00018430179370110267
-0.00020842247228514132
-0.00022268854734325272
-0.00022892409669106328
-0.00022245651863272986
-0.00020768482379937558
-0.00018473480422245836
-0.0001555846980365594
-0.00012202546329273534
-9.355271449995595e-05
-7.212979404636055e-05
-5.163884192301016e-05
-5.6789532512570295e-05
-2.9129779566927638e-05
-5.5059238376897746e-05
-9.959018465843794e-05
-0.0001520376283025704
-0.000206088117547798
-0.0002590910175286343
-0.0003031424233728708
-0.0003360753220418289
-0.00035920162718761084
-0.00036580009014430814
-0.000358750454793777
-0.0003373040384701542
-0.0003020716585550032
-0.00025816511676513
-0.00020630358278950212
-0.0001517459836038737
-9.983870566637743e-05
-5.522471598298079e-05
-3.1183681948092346e-05
2.893238994083891e-05
5.4907748183952165e-05
9.895547823524087e-05
0.00015156606172783693
0.00020665535604302843
0.00025743879108020007
0.000302082457068642
0.00033728425871459855
0.0003583915571677698
0.0003660948550622267
0.00035762117753090905
0.00033748275447453846
0.00030277453935489973
0.0002581827938019643
0.00020582658001544463
0.00015192269276742554
9.989772733853819e-05
5.59306875114185e-05
2.9622354967950848e-05
5.485472274557868e-05
5.3925064684823276e-05
7.011474755047598e-05
9.434668239471922e-05
0.00012316052140892708
0.0001550756663001307
0.0001840267086946623
0.00020792084300569336
0.00022224005349291698
0.00022873467792727809
0.0002236280159220172
0.00020870149304652585
0.00018377349045428648
0.00015481851063747776
0.0001247710896861154
9.432961201005785e-05
7.028085016724805e-05
5.3068391422939065e-05
5.665694845147229e-05
0.00010007430963099306
7.061401729513417e-05
6.951325668180797e-05
7.117180456561734e-05
8.168558074550525e-05
9.766723752580031e-05
0.00011885240660214347
0.0001372409341025005
0.00015096681273518708
0.0001538407777185169
0.00014994979569560307
0.00013695986979767039
0.00011892685700876093
9.783470119284488e-05
8.249648504499163e-05
7.151676584660205e-05
6.960360320318326e-05
7.150752855800135e-05
0.00010030204850536295
0.00015134840084451984
9.573207383284377e-05
6.950523019111365e-05
4.318423295379681e-05
2.678292663638171e-05
2.1105305578306144e-05
2.4892830723377557e-05
3.5151970581237535e-05
4.2570942186515026e-05
4.508256802315813e-05
4.182156540311066e-05
3.3331587052654044e-05
2.5223414102382158e-05
1.9668604555045377e-05
2.6523363669039846e-05
4.2242661759450684e-05
7.060541395437214e-05
9.344424967677734e-05
0.00015068138687790444
0.00020556742428468056
0.00012284845143717416
8.064099932070246e-05
2.6005561478248396e-05
-2.1582003739806233e-05
-5.959908404462588e-05
-7.612607514817515e-05
-8.070264560877671e-05
-7.683044616491053e-05
-7.639029710482248e-05
-7.725739410213706e-05
-7.966126687602992e-05
-7.633789565575366e-05
-5.875656790066408e-05
-2.3175803408714835e-05
2.6765021853392135e-05
8.201963658649447e-05
0.00012415695107426128
0.00020680155168439907
0.000259187577682507
0.00015421571119234034
9.79457469791889e-05
2.0587458024690086e-05
-5.832507716108104e-05
-0.00013770811376634384
-0.0001933263079012537
-0.00021855525977598766
-0.00022480113134071278
-0.0002210682952303311
-0.00022494476562412435
-0.00021692984095628143
-0.00019324598197600906
-0.00013828300061663468
-6.06087658949761e-05
2.0469164005332274e-05
9.814004242730823e-05
0.00015476291936594722
0.00025739197092639055
0.00030358456105405995
0.00018391607188639192
0.00011941333793941133
2.585463996473969e-05
-7.627180283609203e-05
-0.00019231673095032598
-0.0003118294349597761
-0.00038563556028892165
-0.00040467914914799064
-0.00042039182286846
-0.0004050151949906988
-0.0003876842870010333
-0.00031204546294322233
-0.00019381938005907928
-7.649189038699822e-05
2.5251524682967652e-05
0.00011935548685199082
0.00018415635333218772
0.000303223312209
0.0003364411509855225
0.00020735762843659966
0.00013714184023494447
3.4749711661064e-05
-7.984288205520329e-05
-0.0002173563321407057
-0.0003866414094216841
-0.0005745415267711662
-0.0006683319097585683
-0.0006314731939207063
-0.0006682926117680399
-0.0005749867079434812
-0.0003873655982074564
-0.00021689149238551808
-8.000565357468847e-05
3.465202042390869e-05
0.0001372421478968433
0.0002077400120816253
0.0003362002155267163
0.0003577330736856954
0.00022302960547582185
0.0001501015185478849
4.2611945580306454e-05
-7.699716512887811e-05
-0.00022349155138678967
-0.00040371002776340426
-0.0006690363465635674
-0.0010085969414600493
-0.0012256125720916944
-0.001006767646945017
-0.0006680797239299596
-0.0004037589960542709
-0.00022387370817095187
-7.783099984348674e-05
4.2006614142053866e-05
0.0001495230504182654
0.00022377183580929438
0.0003571263293858373
0.0003652000021561186
0.00022940266763826767
0.0001531000853298714
4.746178585079974e-05
-7.705732724583303e-05
-0.0002225829292839543
-0.00042121333477990186
-0.000631522101310733
-0.0012258309447470417
-0.0013816703992889923
-0.0012251614269062072
-0.0006313064886615538
-0.0004201970436316649
-0.0002221166300401256
-7.619981418560684e-05
4.624861563712335e-05
0.00015538826582067733
0.00022898395176790265
0.0003639287878773323
0.00035778912863349
0.0002232935567741956
0.00014968904790646498
4.288085495696148e-05
-7.738943728419212e-05
-0.00022424900743633902
-0.0004043470389590853
-0.0006682334605778717
-0.001007495691747018
-0.0012249958667474026
-0.001007436127847039
-0.0006691740729681817
-0.0004023607366422377
-0.0002243043697142677
-7.891054326747415e-05
4.304305638619388e-05
0.00014970629224392296
0.00022341454478452816
0.0003581011082928187
0.00033673320932303685
0.00020839249292359252
0.00013684945659264702
3.348482969078859e-05
-7.973156157980998e-05
-0.00021715924927007135
-0.00038777673599171836
-0.0005737938680427934
-0.0006686780910236667
-0.0006316357388580496
-0.000668907511806871
-0.0005733022882169481
-0.0003867480635598164
-0.00021744992772981808
-7.950007269375003e-05
3.390628321642275e-05
0.0001387115960770069
0.0002076293224845538
0.00033653277856593444
0.00030286629486819816
0.00018416996458159307
0.00012013288982148929
2.5486274957908783e-05
-7.684671487145911e-05
-0.0001940476083445164
-0.0003115014000104055
-0.00038763015908632736
-0.00040358093178632926
-0.00042112218444573246
-0.00040258162701362066
-0.00038762597568459123
-0.00031210206510640104
-0.0001942182637615364
-7.598672291059261e-05
2.453615892228367e-05
0.00011930538588281192
0.00018387252025961476
0.00030215961817653403
0.0002581031211627005
0.00015404129673080025
9.819343295658367e-05
2.0307785224993324e-05
-5.740703202500308e-05
-0.00013745320934371863
-0.00019350965239067763
-0.00021634931363107013
-0.0002240092610762412
-0.0002205383042583331
-0.00022484686751012006
-0.00021659388412875735
-0.00019394393853383596
-0.00013725434815201054
-5.916353540705299e-05
2.0843727320307703e-05
9.754874298348315e-05
0.0001539543014176803
0.0002595641969802831
0.0002061648009530348
0.00012292657914170224
8.2184840093813e-05
2.6011365491740435e-05
-2.321598217558396e-05
-5.902634539389773e-05
-7.597179237617269e-05
-8.012297653342548e-05
-7.723676265031232e-05
-7.630713125189592e-05
-7.655096126030214e-05
-8.167149020832376e-05
-7.657896123294816e-05
-5.830097642564591e-05
-2.282660792124469e-05
2.5974605385670202e-05
8.225688104199214e-05
0.00012316568123535432
0.00020734111315384718
0.00015157507154217598
9.462808326388128e-05
7.032192795142223e-05
4.2901248845095274e-05
2.5754411581202508e-05
2.0922677811507917e-05
2.4912054712500353e-05
3.487194700102503e-05
4.2370043903783294e-05
4.592994354440938e-05
4.32171064093656e-05
3.404255771094489e-05
2.5813098616295216e-05
2.05029868259321e-05
2.6902410258211606e-05
4.331687063693912e-05
7.063973444018656e-05
9.362956157574209e-05
0.0001509733736174551
9.936343749994414e-05
6.936521770462001e-05
6.899402234045171e-05
7.06031374821392e-05
8.280594043208467e-05
9.908140966918833e-05
0.0001186456669164393
0.0001385647220134567
0.00014978774829410568
0.0001547933316650707
0.00015002385385842754
0.00013787471634196802
0.00011916741313153234
9.876879786235859e-05
8.162932239602627e-05
7.069228882444767e-05
7.008604131249208e-05
7.007242694898053e-05
9.93897579242009e-05
5.391891503681023e-05
5.242639400115934e-05
7.192263089061957e-05
9.501016599189338e-05
0.00012296215497126228
0.00015485726448283277
0.0001839497783397981
0.00020842249272590152
0.0002229430658917675
0.0002297510838845107
0.00022187063973067023
0.00020883203160265706
0.0001835576919716475
0.00015543475254020667
0.00012266946051225913
9.398525706513783e-05
7.101781342290503e-05
5.373344608984587e-05
5.565636990753631e-05
2.9634139962597672e-05
5.6640107783834104e-05
9.859705938075614e-05
0.00015226918859900795
0.00020677559591009143
0.00025837214286078547
0.00030314526405506026
0.0003369553534617875
0.00035854513156857726
0.00036532401090749733
0.0003595865548142174
0.00033698966316639267
0.0003017298141458069
0.00025940560727027995
0.00020583163466605936
0.0001516745662872715
9.998104897755711e-05
5.579773170665686e-05
3.0163655409497225e-05
-1.2765035633077737e-05
-4.495970657769632e-06
3.6708668768037356e-06
1.1932212178877855e-05
-1.8237249890029616e-05
-6.20605547574371e-06
5.669556916498841e-06
1.7693455783285295e-05
-2.6502446717091566e-05
-8.962150553459836e-06
8.345657160790942e-06
2.588207970444234e-05
-3.5122053399727626e-05
-1.1021344873185512e-05
1.2778385633294143e-05
3.692398162513655e-05
-4.55438581183909e-05
-1.4963151064084634e-05
1.5202126234403757e-05
4.578982240166507e-05
-5.5370201102578065e-05
-1.8120484777561785e-05
1.8626299846946637e-05
5.5895158219909646e-05
-6.244175456016077e-05
-1.995630930473613e-05
2.196271019727636e-05
6.449806128949742e-05
-6.953102949958101e-05
-2.268295777352325e-05
2.351384324139616e-05
7.036246545355507e-05
-7.486696349801036e-05
-2.496890914061023e-05
2.4231817901010366e-05
7.412016513108632e-05
-7.535404882841323e-05
-2.4697146910002132e-05
2.527417312492286e-05
7.59676372125151e-05
-7.530985096215748e-05
-2.5572035271648197e-05
2.3461883714270826e-05
7.317647603510835e-05
-6.876682339018725e-05
-2.171347627843989e-05
2.4717615901392875e-05
7.183612346328694e-05
-6.268970120015815e-05
-1.9535383403601614e-05
2.304810563269477e-05
6.624996870974176e-05
-5.4126849326929793e-05
-1.715478555031069e-05
1.9314777768064673e-05
5.630344214391236e-05
-4.4934288096931674e-05
-1.4081236067831071e-05
1.6378757720314496e-05
4.728523983943411e-05
-3.5181580807730484e-05
-1.1155720550770631e-05
1.2559413172352762e-05
3.660925586401742e-05
-2.7375680423769033e-05
-9.49124956606262e-06
8.15164958978265e-06
2.601443441063722e-05
-1.99845320013603e-05
-7.818021081740234e-06
4.160828597443711e-06
1.6256978867201788e-05
-1.2705922687983318e-05
-4.032798599284959e-06
4.556390167387292e-06
1.326389199818312e-05
-1.4250028892770494e-05
-5.532369378169477e-06
3.0707467884028006e-06
1.1764458577312453e-05
-1.9929007870289617e-05
-7.451060652918784e-06
4.857650567458016e-06
1.730561363399996e-05
-2.662101306033504e-05
-8.925249848301675e-06
8.539475892743731e-06
2.623592339678904e-05
-3.6234690892922305e-05
-1.2229466566981984e-05
1.1440969015563685e-05
3.542267106670938e-05
-4.611795981251943e-05
-1.5297682546600022e-05
1.5088195998935738e-05
4.587806995631771e-05
-5.491298676119083e-05
-1.7732387306679254e-05
1.8941047424891888e-05
5.613166610568543e-05
-6.255179800557231e-05
-1.9828669072075034e-05
2.2320246207629957e-05
6.508003167754461e-05
-7.021019171438159e-05
-2.3345520521300678e-05
2.286641503451703e-05
6.972931008841776e-05
-7.348371054521907e-05
-2.4057472369942712e-05
2.467740653866457e-05
7.410224449894143e-05
-7.54883098975645e-05
-2.4743688227746308e-05
2.5295976881889448e-05
7.604168904806752e-05
-7.389020691977999e-05
-2.407067266058105e-05
2.5075864472867693e-05
7.493675279290901e-05
-6.873903847653962e-05
-2.1808613310608793e-05
2.4494108809669513e-05
7.147640237031849e-05
-6.304056749018017e-05
-2.028707755821757e-05
2.1886884124744377e-05
6.466407449967626e-05
-5.4508263566704906e-05
-1.7677621789641274e-05
1.865922218691196e-05
5.552186502710832e-05
-4.451587110487765e-05
-1.419544570677167e-05
1.5719529565833e-05
4.6064611096352515e-05
-3.557499331219294e-05
-1.1566362992335155e-05
1.213053338856851e-05
3.616154449263831e-05
-2.646082701991681e-05
-9.173575209325824e-06
7.876664991066096e-06
2.5147728014582316e-05
-1.92480077647883e-05
-7.190789393936303e-06
4.684605270359465e-06
1.6682810301593687e-05
-1.1317916198905209e-05
-3.0525221620392173e-06
5.1330999736622085e-06
1.3438610041341392e-05
-1.2364861050308262e-05
-4.1149063241367745e-06
4.025673067700047e-06
1.2257806348753286e-05
-1.7773011293222007e-05
-5.262623882014428e-06
7.103114142613387e-06
1.9637312729511858e-05
-2.6885080995006638e-05
-8.869512216222453e-06
8.913991816017486e-06
2.693133178600926e-05
-3.570478238043573e-05
-1.1818811102626281e-05
1.1736488623417807e-05
3.560579716724299e-05
-4.603681135509352e-05
-1.5169918198831844e-05
1.5268392949685516e-05
4.611955610481222e-05
-5.4640220821911e-05
-1.76146990126802e-05
1.8905191937562682e-05
5.5942955171778275e-05
-6.287148060127312e-05
-2.0032868342345633e-05
2.222860404416105e-05
6.509576661328786e-05
-6.991467937911278e-05
-2.2890260422986364e-05
2.3490523064745306e-05
7.053280442240184e-05
-7.601263872092368e-05
-2.6677731310265074e-05
2.192654291477414e-05
7.117746492446564e-05
-7.489965251095132e-05
-2.4281014299465387e-05
2.5656094844672683e-05
7.631894643911341e-05
-7.38451345998481e-05
-2.426259381821394e-05
2.4643970653936975e-05
7.425410096639773e-05
-7.134807982578373e-05
-2.4369757709141737e-05
2.1932683932746055e-05
6.886210654705183e-05
-6.180513216758055e-05
-1.904388511375643e-05
2.3168489378999624e-05
6.601360127556077e-05
-5.324318450583565e-05
-1.5977195302663283e-05
2.0825418498071624e-05
5.818900193971244e-05
-4.569632544398905e-05
-1.5068526666439652e-05
1.514608100255943e-05
4.578458445980704e-05
-3.664741167624941e-05
-1.2714550640668953e-05
1.088277142663463e-05
3.478590964139938e-05
-2.6897662044222947e-05
-9.561571532701318e-06
7.537249735345419e-06
2.4859224267703706e-05
-1.8534365315514556e-05
-6.203055317732797e-06
5.981834966806154e-06
1.832914583921319e-05
-1.2850661694319143e-05
-4.66855090852647e-06
3.405512381760012e-06
1.1568513378024115e-05
-1.2644730962518835e-05
-4.279594049250157e-06
3.984086627828454e-06
1.234608540467974e-05
-1.8078603680415917e-05
-6.311664201619216e-06
5.303549057034118e-06
1.706922127120425e-05
-2.5026757910384667e-05
-7.787183366803063e-06
9.239614624290127e-06
2.6512062179739893e-05
-3.4569165453524064e-05
-1.0522894916875636e-05
1.3225559064911074e-05
3.7319753436237946e-05
-4.4874391940341596e-05
-1.413394393867673e-05
1.6210794520743477e-05
4.6999421534632546e-05
-5.6716176686011366e-05
-1.949303186199458e-05
1.7200739990785863e-05
5.4388064040233886e-05
-6.403520979525457e-05
-2.1659691171405093e-05
2.0125429361139702e-05
6.249837789062962e-05
-7.052839240950792e-05
-2.391666799361758e-05
2.2043709597130423e-05
6.865468613559411e-05
-7.357985350764373e-05
-2.3870151488414315e-05
2.5178091669464386e-05
7.494881641523232e-05
-7.636899692764487e-05
-2.5730284718528118e-05
2.4193260170668474e-05
7.481201437387064e-05
-7.38911468224357e-05
-2.427846746344553e-05
2.4656290510849388e-05
7.429448313833742e-05
-6.94365568916222e-05
-2.250453976360145e-05
2.3788647499634052e-05
7.074749783364531e-05
-6.273918091637132e-05
-2.039219516591917e-05
2.1381134731601747e-05
6.375964735638728e-05
-5.7104314344802454e-05
-2.0205938324191486e-05
1.615774852281593e-05
5.300553263054564e-05
-4.60722389588053e-05
-1.538409587464873e-05
1.4884806795234518e-05
4.557230800861234e-05
-3.710588327043851e-05
-1.2805788575875887e-05
1.1158667603705652e-05
3.5433089860759104e-05
-2.726352064919002e-05
-9.096493608695688e-06
8.8336798629296e-06
2.699583694276697e-05
-1.7734150230097612e-05
-5.577267307210754e-06
6.434796155918576e-06
1.860863580416261e-05
-1.2453065350803705e-05
-4.33792013276868e-06
3.6695537686259883e-06
1.1764895877397485e-05
-1.635034111713285e-05
-5.164545392455366e-06
5.740302597367908e-06
1.692683648302218e-05
-3.2008790904036744e-05
-1.050347046094302e-05
1.0527489532896617e-05
3.2030255235571126e-05
-5.843477373956851e-05
-1.9428936886889403e-05
1.8802716691301846e-05
5.778175559567611e-05
-8.854072760289267e-05
-2.904818256599384e-05
2.9339537372274904e-05
8.884207238002428e-05
-0.00012113247501721602
-3.989718298402778e-05
3.986329396310495e-05
0.00012111097472811139
-0.00015115102664542412
-4.985390946365964e-05
4.9595741561270223e-05
0.00015086774821604365
-0.00017761903687529834
-5.8684851037771324e-05
5.808664093021054e-05
0.00017698573491586878
-0.00019784134117994956
-6.52131107939935e-05
6.50408326550167e-05
0.00019769720584450479
-0.00020930889438364186
-6.86626762342879e-05
6.949810448175775e-05
0.00021024752517906364
-0.0002140884788113251
-7.032656747196775e-05
7.088227388452051e-05
0.00021471978071219144
-0.0002094516523017953
-6.894578427196763e-05
6.906526796979229e-05
0.00020965186857468954
-0.0001971729482114215
-6.470168049776959e-05
6.54232567598445e-05
0.00019797692226353192
-0.00017753328425262893
-5.8489974902542485e-05
5.8418253221947936e-05
0.00017748374922688104
-0.00015103839481644954
-4.960826071920277e-05
4.998787286780715e-05
0.00015142431831038916
-0.00012081760562765442
-3.986547266598972e-05
3.9611643396830765e-05
0.00012057343473315107
-8.870614744704852e-05
-2.9104064450780065e-05
2.9404820304113066e-05
8.904449138746884e-05
-5.8258815251566176e-05
-1.910257122528236e-05
1.930590059306958e-05
5.8490676319800095e-05
-3.2311175377164325e-05
-1.0500268706525873e-05
1.0852026822383287e-05
3.269370399083815e-05
-1.7630991742012547e-05
-5.933323429907489e-06
5.4613444927520405e-06
1.712823176847067e-05
-3.241308573476154e-05
-1.083014273606242e-05
1.0284808596106032e-05
3.1879017141411836e-05
-3.123026168372345e-05
-1.0207853782362442e-05
1.0273178677633332e-05
3.130267251139074e-05
-4.0744276157300696e-05
-1.3354733021775367e-05
1.3354422722211545e-05
4.074390071517886e-05
-5.45793969463082e-05
-1.7795766939943114e-05
1.811599252143914e-05
5.493129934641683e-05
-7.171306982423076e-05
-2.3530322127207626e-05
2.351352480689517e-05
7.168829854731218e-05
-8.962951334912095e-05
-2.913213147814897e-05
2.9974260510545747e-05
9.048716310589011e-05
-0.00010732087470055607
-3.5277464049854323e-05
3.512323357535152e-05
0.00010717630795842314
-0.00012084686067226347
-3.9594416027521895e-05
3.984751661489927e-05
0.000121176358541919
-0.00012917699218750744
-4.2316616364224124e-05
4.260047066828587e-05
0.00012952823748058062
-0.00013390011399705415
-4.42110423853892e-05
4.3451066725541665e-05
0.0001331414875835879
-0.00012985370159634968
-4.2475300341293654e-05
4.2952908549165336e-05
0.00013039300924699848
-0.00012162066674237249
-3.9946681697156095e-05
3.989026431205911e-05
0.00012159368817887817
-0.00010639421251423808
-3.468484645829939e-05
3.541073397639316e-05
0.00010718295320244486
-9.045465136137132e-05
-2.980694504195469e-05
2.9440862473473217e-05
9.00907741465673e-05
-7.244229342839859e-05
-2.368814483522108e-05
2.3928685632723656e-05
7.26884254899085e-05
-5.474616396716758e-05
-1.79142779046515e-05
1.8035681131012282e-05
5.488358917016267e-05
-4.098916738137781e-05
-1.3498135028378044e-05
1.3309955611218172e-05
4.079980163707031e-05
-3.0624431045622735e-05
-9.969680678789672e-06
1.0146850419778808e-05
3.081178519048766e-05
-3.209984807384103e-05
-1.020416528263457e-05
1.1257559529131989e-05
3.3240531815859065e-05
-5.820480307650033e-05
-1.90326455811185e-05
1.940183747295432e-05
5.86211675811521e-05
-4.160465126101798e-05
-1.3857770691072524e-05
1.3191816760849129e-05
4.091315383780714e-05
-4.0229130668478774e-05
-1.3106665722184552e-05
1.3385112825892165e-05
4.0519052393328536e-05
-4.085624136473953e-05
-1.3212805949236461e-05
1.3822191308965337e-05
4.1539535948320605e-05
-4.721674335861348e-05
-1.5371056727109256e-05
1.578720937689404e-05
4.768484101058679e-05
-5.766660859385375e-05
-1.920456935078363e-05
1.8402936538763903e-05
5.682867919176715e-05
-6.921998627840154e-05
-2.269518623476685e-05
2.2857026977685102e-05
6.94121580896434e-05
-8.015112768422483e-05
-2.6402268342051727e-05
2.6258969423986755e-05
8.009005650910783e-05
-8.727560453469785e-05
-2.838698517604321e-05
2.9330709450103853e-05
8.833485715464828e-05
-8.971406767654955e-05
-2.9453338905804927e-05
2.956346172333646e-05
8.986004797040259e-05
-8.74823247044576e-05
-2.8745596779122806e-05
2.8788571789006845e-05
8.757393140712555e-05
-7.979483022202416e-05
-2.6180009489396028e-05
2.6331718037453378e-05
7.99957745162283e-05
-6.882095022253676e-05
-2.2407012758685063e-05
2.305544254366243e-05
6.953991325542308e-05
-5.679291066285064e-05
-1.8594899482859972e-05
1.8809058581314986e-05
5.708849231922386e-05
-4.7935296351386825e-05
-1.571796097832312e-05
1.581136764550184e-05
4.809189360410748e-05
-4.148432845296757e-05
-1.3555605828496908e-05
1.3730752988605488e-05
4.167484229022911e-05
-4.0788067334429634e-05
-1.3463569696614552e-05
1.3199667299401696e-05
4.048098156694824e-05
-4.087520023321467e-05
-1.313271435160468e-05
1.3943044129494098e-05
4.1719791691596786e-05
-5.8668079470525214e-05
-1.9322020629153336e-05
1.928355086067146e-05
5.8674352981735733e-05
-8.81192646319251e-05
-2.882992224950698e-05
2.9386488103355646e-05
8.874547807735667e-05
-5.425741584008659e-05
-1.728545468415721e-05
1.886517727756054e-05
5.597253133171609e-05
-4.095056961916921e-05
-1.364177618201623e-05
1.3024318141208191e-05
4.0331301204843406e-05
-2.5458922621290903e-05
-8.496093458987275e-06
8.039798184422686e-06
2.499668743183303e-05
-1.5209999206011737e-05
-4.875944913940167e-06
5.2195130775256615e-06
1.560471099915084e-05
-1.1909369847074025e-05
-3.7934806769168716e-06
4.162519501305084e-06
1.23415689264883e-05
-1.4996093994246174e-05
-5.1238756658689155e-06
4.550565068206502e-06
1.4428315375902834e-05
-1.9938591656609717e-05
-6.340796760206935e-06
7.036300002205564e-06
2.0705470530235637e-05
-2.469693587292543e-05
-8.077487492430535e-06
8.267731085642716e-06
2.495609941988164e-05
-2.6807778115367498e-05
-8.986243011044337e-06
8.502271192645239e-06
2.6316772446577374e-05
-2.434060319556064e-05
-7.961404652312432e-06
8.12496388724604e-06
2.4526819737302752e-05
-2.023917311078094e-05
-6.947449243233095e-06
6.080225979476772e-06
1.934744527198884e-05
-1.4986945888750824e-05
-5.0280616628040065e-06
4.729414652238084e-06
1.4686026257870743e-05
-1.140326382009782e-05
-3.727568844369422e-06
3.7642015932037864e-06
1.1444227864754186e-05
-1.5337536971082866e-05
-5.007193253303566e-06
5.066701704470322e-06
1.540891535861677e-05
-2.5789793104025183e-05
-8.950824620490572e-06
7.442553478786973e-06
2.4236644899477966e-05
-4.117962145305798e-05
-1.3546970464628494e-05
1.344504394829027e-05
4.1085267110274604e-05
-5.428020436498704e-05
-1.779824978842548e-05
1.7817425475685766e-05
5.433471037280535e-05
-8.855576109662033e-05
-2.9259952003812817e-05
2.8921589697972205e-05
8.820109426649347e-05
-0.000121370043141944
-4.029177302777853e-05
3.927639139611472e-05
0.00012029329375684572
-7.203630925056714e-05
-2.3819085860243838e-05
2.323945451154774e-05
7.140621977796968e-05
-4.79203430444608e-05
-1.6086348102239967e-05
1.5011999335956538e-05
4.680007762536409e-05
-1.5464977643486755e-05
-5.211024287077315e-06
4.7721218026097745e-06
1.5009645421004691e-05
1.2961820029078197e-05
4.385116691540958e-06
-4.0167216132092065e-06
-1.2569007832641255e-05
3.4843437688447665e-05
1.1457855231267189e-05
-1.1412165084490056e-05
-3.477663746687121e-05
4.4949971019447865e-05
1.497358160806872e-05
-1.4278401694212128e-05
-4.420030083041038e-05
4.557538115446125e-05
1.4409805597970227e-05
-1.6011059013165685e-05
-4.7224566859904726e-05
4.508970476235774e-05
1.4938729417934837e-05
-1.4405098906267177e-05
-4.449730773148364e-05
4.384917030519908e-05
1.4188022197547667e-05
-1.4720137594959048e-05
-4.4419688528196666e-05
4.427313676469424e-05
1.429267355645969e-05
-1.4931079959645821e-05
-4.495155147066221e-05
4.6542501167035066e-05
1.5339568102124e-05
-1.5080532718314554e-05
-4.6255794207195056e-05
4.5121705580075666e-05
1.5073576291935176e-05
-1.426282711353144e-05
-4.42873511570796e-05
3.526493211059023e-05
1.196897443034306e-05
-1.0797141263452215e-05
-3.404981263027684e-05
1.3131097141128034e-05
4.147003659971116e-06
-4.676582649520977e-06
-1.3676900024628402e-05
-1.4717969226696326e-05
-4.5354430420752045e-06
5.426647638695492e-06
1.569246618232656e-05
-4.750792584007346e-05
-1.5504801344601304e-05
1.5806170469423453e-05
4.785843275373347e-05
-7.201490602926075e-05
-2.35601484968595e-05
2.3788774121402678e-05
7.230439619887452e-05
-0.00012089286065347649
-3.971474840819278e-05
4.001210270643263e-05
0.00012124892444537183
-0.0001511600805155222
-4.948301966600788e-05
5.037973971533383e-05
0.000152107839119342
-8.971420517578377e-05
-2.9399288586695604e-05
2.9519341517625364e-05
8.983448209631817e-05
-5.76135521833665e-05
-1.9118615095625735e-05
1.853677387064767e-05
5.702583783995241e-05
-1.1288992082247873e-05
-3.4717664058048214e-06
4.196648836884975e-06
1.2095502065045949e-05
3.454606253605608e-05
1.1520131953490775e-05
-1.0974915076178426e-05
-3.3938254557441816e-05
8.045553677360484e-05
2.645903192988186e-05
-2.6348290201760882e-05
-8.032174792960145e-05
0.00011268970862254868
3.69807605822281e-05
-3.702000322380883e-05
-0.00011270823348819015
0.0001265057227367583
4.11959972133058e-05
-4.213857954560307e-05
-0.00012745937924418804
0.0001306543195042087
4.277479928704864e-05
-4.3007271005146563e-05
-0.000130867236232457
0.00012877595722154966
4.232489572997267e-05
-4.2023318545525434e-05
-0.00012847785929692712
0.00013070866004116777
4.279376202304119e-05
-4.303323305826501e-05
-0.00013094776006727926
0.00012663167086035543
4.165514096765577e-05
-4.131915608635017e-05
-0.00012625196979265674
0.00011283814017720717
3.713178210884571e-05
-3.687700342197564e-05
-0.00011258811952064018
8.043584448047536e-05
2.633994047152033e-05
-2.65876196021142e-05
-8.071007709559153e-05
3.486024981785851e-05
1.124887667758312e-05
-1.1860685095899104e-05
-3.548891650262398e-05
-1.1759991324467034e-05
-3.7898409099290653e-06
3.99009689383556e-06
1.1956485577890863e-05
-5.762309437301605e-05
-1.9055407010082348e-05
1.865520347904548e-05
5.7187259339674945e-05
-9.00233202991707e-05
-2.9521185426317764e-05
2.959660200219094e-05
9.0133121440239e-05
-0.00015181502797517732
-5.039524506256221e-05
4.9194489477655257e-05
0.00015062873622601058
-0.00017783091819534302
-5.8530358077901745e-05
5.864233026031673e-05
0.00017798830839355073
-0.00010714160667624206
-3.518542169056449e-05
3.5137228151405075e-05
0.0001071222446480391
-6.90629118463848e-05
-2.246332807498419e-05
2.31784159024917e-05
6.984220253103413e-05
-1.5186178792481186e-05
-5.065047087082775e-06
4.880853784805517e-06
1.5058264406953015e-05
4.374412573404651e-05
1.4070892702666704e-05
-1.4906182258189737e-05
-4.457722255135632e-05
0.00011257004786047187
3.712282653511867e-05
-3.6606548357798196e-05
-0.00011200720240878148
0.00018172908771307839
5.961120133624043e-05
-5.9804619883752075e-05
-0.00018190461177058914
0.00022598974985899023
7.463271884000644e-05
-7.326160503617896e-05
-0.00022451257079725284
0.0002357157186551051
7.73455309315274e-05
-7.729035859299627e-05
-0.00023560272949685324
0.0002449609028263855
8.043338142033063e-05
-8.03028940890016e-05
-0.0002448292392537854
0.00023503877723729527
7.682065385417047e-05
-7.770915143312518e-05
-0.00023595931003889126
0.00022599170292408877
7.417700670131477e-05
-7.420442500111202e-05
-0.0002259836850490582
0.00018233021826441487
5.998966667331018e-05
-5.963223480154323e-05
-0.0001819282121647281
0.0001119178301235424
3.630533665832658e-05
-3.761683612912847e-05
-0.00011324430942161179
4.504944126193511e-05
1.4959854762297553e-05
-1.4401365067306937e-05
-4.443789297248202e-05
-1.5065540339642691e-05
-5.060450209259937e-06
4.730897082694252e-06
1.470786110585598e-05
-6.986979987388953e-05
-2.303566691180814e-05
2.2805863602926024e-05
6.963924282382683e-05
-0.00010787974085696428
-3.565254110121652e-05
3.491861783905259e-05
0.00010713684398544476
-0.0001771897335433592
-5.8161270531209563e-05
5.875691577794662e-05
0.00017786208288528282
-0.0001975530521619584
-6.515585934385726e-05
6.483402755608214e-05
0.0001971917803424983
-0.00012103843795674418
-3.983610254465475e-05
3.952734398782187e-05
0.00012074862040634127
-7.967931450392207e-05
-2.606852524689174e-05
2.6452730707893224e-05
8.014030133773886e-05
-2.0456521303002795e-05
-6.7793464587628804e-06
6.642357334496474e-06
2.0322964552343947e-05
4.654722428409919e-05
1.5292083497486786e-05
-1.5176172370900964e-05
-4.63969607864545e-05
0.00012724603761182784
4.197243252113125e-05
-4.127502419504214e-05
-0.0001264557158973112
0.00022512165394839023
7.379247359307062e-05
-7.41178770078399e-05
-0.00022542558352134368
0.0003344087735052126
0.00010954925411693628
-0.00011041657968380303
-0.0003353201250669291
0.00038993329402958743
0.0001281329228040584
-0.00012777806132086011
-0.00038953192333690545
0.0003675665292538488
0.00012061808100327642
-0.00012029618546655074
-0.0003671677845490384
0.00038909646543999754
0.00012752854325603913
-0.00012816457571773743
-0.0003897069527720176
0.0003356302540269418
0.0001103013832114974
-0.00011009419180119107
-0.00033539435317714306
0.0002258499089398125
7.414611007050542e-05
-7.412472562506878e-05
-0.00022578877735301983
0.00012649820320437266
4.1545064299486345e-05
-4.139610824893669e-05
-0.0001262804641298243
4.682599483357697e-05
1.5436820043845945e-05
-1.5148118847119196e-05
-4.6469841867569084e-05
-2.0059085017343214e-05
-6.5465811611153946e-06
6.7413480806521875e-06
2.0313295497009776e-05
-7.966492155786487e-05
-2.601592821349641e-05
2.6532269459922375e-05
8.023573118326466e-05
-0.00012095347700047387
-3.970229599409292e-05
3.972666600143837e-05
0.00012103094804705172
-0.00019700381158027636
-6.485788861704256e-05
6.49220111613169e-05
0.0001971025847200547
-0.0002095237864621069
-6.893413166420004e-05
6.913518304907385e-05
0.0002097544953172381
-0.00013019638022437885
-4.284797860365508e-05
4.252791001913003e-05
0.0001298923631062321
-8.748038320061102e-05
-2.8716955119634235e-05
2.8850202899333155e-05
8.76767033417547e-05
-2.506761262321966e-05
-8.308366476472706e-06
8.148276485986372e-06
2.492514247365296e-05
4.556903393426737e-05
1.5246257690781917e-05
-1.4263785525825412e-05
-4.4514468637180116e-05
0.0001303395938687668
4.2813188067647445e-05
-4.258527435541115e-05
-0.00013002391819805226
0.00023459855438157096
7.677044155152135e-05
-7.73433922124922e-05
-0.00023514441118521745
0.00039080276270686554
0.00012859332955578173
-0.00012771307048237146
-0.00038985374571109954
0.0005883278900149502
0.00019309811060991278
-0.0001937087620971223
-0.0005889262556724173
0.0007162048855451908
0.00023536930868500727
-0.00023575464253372536
-0.0007165886288898471
0.000589348544080659
0.00019423497291892744
-0.00019240594401714883
-0.000587396113047367
0.00038945624824648917
0.00012786022480520964
-0.00012786595368324827
-0.0003894471510328956
0.00023573111559271887
7.757778712763619e-05
-7.683658075924304e-05
-0.00023492062377949985
0.00013031492620030338
4.273497997819842e-05
-4.274080829375082e-05
-0.00013028027770695116
4.5124401783558366e-05
1.4734018244200175e-05
-1.4860916536130198e-05
-4.5217875232539395e-05
-2.4474646186989357e-05
-8.042493566728925e-06
8.111655097065018e-06
2.4600626217341492e-05
-8.639506014535003e-05
-2.80865907096306e-05
2.9056321202036717e-05
8.748187236312654e-05
-0.00012969950305735667
-4.234981093065304e-05
4.306935876347007e-05
0.0001305170912320186
-0.00020964142264373598
-6.917832881170316e-05
6.877076991079756e-05
0.00020927127837666593
-0.0002135972049021051
-7.021233290493978e-05
7.064364800868361e-05
0.00021414713096290505
-0.00013288383687126704
-4.335454714310405e-05
4.419705058456014e-05
0.00013382689689633853
-8.914256374004115e-05
-2.92131231111048e-05
2.947891230786759e-05
8.945132033089109e-05
-2.6677144248532514e-05
-8.39911215655409e-06
9.610328417619662e-06
2.8020057812216947e-05
4.343536383544233e-05
1.3704258336799668e-05
-1.5269221725788817e-05
-4.5029106597871404e-05
0.00012906387451344647
4.21544270633456e-05
-4.2643514372553426e-05
-0.00012954428321310107
0.0002463658494878951
8.122974206831168e-05
-8.007450178720843e-05
-0.0002451365972974129
0.00036735634639101233
0.00012045307644747982
-0.00012041891434227958
-0.00036725152923111626
0.0007158650372301456
0.00023510395606307632
-0.00023597484973414407
-0.0007167939637716114
0.0008044116404904988
0.00026310122136868896
-0.0002670297304525615
-0.0008082277532943105
0.0007153628798942102
0.00023490129296133144
-0.0002358883212669194
-0.0007164189063343374
0.0003678812469706805
0.00012088287397277186
-0.00012007384263357235
-0.00036697913391264825
0.00024531264110655426
8.068989477533206e-05
-8.01052507244937e-05
-0.0002446521059843443
0.00012901847068513828
4.221319021330272e-05
-4.246445739047866e-05
-0.0001292293067083894
4.3907914232477196e-05
1.4237855595899962e-05
-1.4649960258850125e-05
-4.4301430402182707e-05
-2.7302541485529908e-05
-9.095408386339265e-06
8.793786585914454e-06
2.703114970992182e-05
-9.070273638811521e-05
-2.9831747287156762e-05
2.9803468968248037e-05
9.07386318730885e-05
-0.0001328931903091246
-4.3459177564597606e-05
4.3993506210759925e-05
0.00013351843071740532
-0.00021366611952949865
-7.053394367295684e-05
7.004369121821341e-05
0.00021323235797071627
-0.00020932833847442378
-6.879069346710232e-05
6.92373858227624e-05
0.00020982902023924943
-0.00012989625597181753
-4.25677060609253e-05
4.279647637406292e-05
0.00013015732359356047
-8.815728331723616e-05
-2.9242622086589343e-05
2.8418962244813883e-05
8.728302979010838e-05
-2.5080563766599617e-05
-8.290795646792581e-06
8.225862556110464e-06
2.5087680892044162e-05
4.517005959370213e-05
1.4874436512046785e-05
-1.4623996877460854e-05
-4.4881177618583123e-05
0.00013056467720534704
4.282921442400056e-05
-4.280059691241789e-05
-0.00013049612409871125
0.00023511934310921356
7.700614855971066e-05
-7.739205477158562e-05
-0.00023548170527809553
0.0003894415942288787
0.0001278267472487049
-0.0001279300642164638
-0.0003895521581260275
0.0005880813268740459
0.00019315770471828309
-0.00019332916658831856
-0.0005882022930669972
0.0007171341379691443
0.00023617934633962667
-0.00023503398681534726
-0.0007159312741498725
0.0005890150811294625
0.00019387969340611821
-0.00019282088644589912
-0.0005879133567647798
0.00038807895935644154
0.0001266474743969459
-0.00012898039977182751
-0.0003905249173808967
0.0002351501496939412
7.745205876757977e-05
-7.648951471489474e-05
-0.0002340691520821836
0.00013048864827958084
4.274234433016e-05
-4.288737197238879e-05
-0.00013057211906902788
4.519827394849907e-05
1.4534083955075605e-05
-1.5341533692536657e-05
-4.599051707465662e-05
-2.478037702474678e-05
-7.9857491289137e-06
8.50831193860424e-06
2.5321842145153983e-05
-8.754145085354548e-05
-2.8817446197870744e-05
2.867834525055457e-05
8.74055021349851e-05
-0.00013061938912423132
-4.311221228486817e-05
4.244975255834893e-05
0.00013003072029049711
-0.00020830617662948026
-6.802427117374998e-05
6.980646649257238e-05
0.00021024918055007058
-0.00019845459198775117
-6.576729005436377e-05
6.451240286398097e-05
0.00019716758651111554
-0.00012112031940691992
-3.964956132229691e-05
3.998636662938537e-05
0.00012148945361878383
-7.944096668188738e-05
-2.592885961261171e-05
2.647330738625442e-05
8.001721540851214e-05
-1.9452544205100786e-05
-6.371280655059763e-06
6.483235054477454e-06
1.9610872244557598e-05
4.6392970201203365e-05
1.5197289518265045e-05
-1.5205528515527256e-05
-4.6356159879024084e-05
0.0001261332018051009
4.124337786831633e-05
-4.16607740584829e-05
-0.00012653421527769604
0.00022536383385685088
7.371576549941583e-05
-7.452460014267803e-05
-0.00022618287033632223
0.0003345252776738583
0.00010981092706047191
-0.00011000273628503088
-0.0003347451829761039
0.00039023673384502855
0.0001282578198724127
-0.00012782220701013092
-0.00038973347024912064
0.0003671900062832689
0.00012031599214457067
-0.00012053779957543753
-0.0003673635934645092
0.0003898746092331762
0.0001279648106041198
-0.0001280717172021939
-0.00038996296405746644
0.00033454404017507766
0.0001099353012810611
-0.00010976984058636008
-0.0003343920860917615
0.00022535270548917907
7.390516662497681e-05
-7.409770917538028e-05
-0.00022547731424665818
0.00012776450306684062
4.2323010179257103e-05
-4.10772012598426e-05
-0.0001264032328196496
4.690357326625483e-05
1.561426721291559e-05
-1.4866915427402816e-05
-4.60796437269928e-05
-2.0300441835763294e-05
-6.850890847287516e-06
6.332189667668242e-06
1.97570179312212e-05
-8.047401047114877e-05
-2.6260152993173858e-05
2.684849427159186e-05
8.111905733931835e-05
-0.00012019129275361862
-3.919612704625375e-05
4.000181176821993e-05
0.0001211004159558382
-0.00019729656086062142
-6.500155374930539e-05
6.492994245743677e-05
0.00019726753439330835
-0.00017826932477194024
-5.897485477590614e-05
5.8148099682964194e-05
0.00017740195371751533
-0.00010633102320689591
-3.453864272384699e-05
3.5639474898596646e-05
0.00010749445754931752
-6.981026558305903e-05
-2.2833430397994903e-05
2.317555048469977e-05
7.02010611383086e-05
-1.4662407241350373e-05
-4.742513245115099e-06
4.990119575665197e-06
1.4938574260825455e-05
4.4369725676618454e-05
1.4367281792215802e-05
-1.491448939611173e-05
-4.487321476637218e-05
0.00011271181687905196
3.680103279141145e-05
-3.7388940392790726e-05
-0.00011325644135040669
0.00018240091062088348
6.016597222624487e-05
-5.934476785396381e-05
-0.0001815191491275625
0.00022493249104282853
7.344657148788958e-05
-7.46448626705587e-05
-0.00022616509884143543
0.00023618899071048416
7.794708647312909e-05
-7.654498546472155e-05
-0.00023469313810414727
0.0002451550638481459
8.037959853468557e-05
-8.059413212063715e-05
-0.0002453459324264773
0.00023452180781025067
7.697512452403688e-05
-7.684800119833746e-05
-0.00023434252877257977
0.0002259884786216526
7.41940095289606e-05
-7.417526417391462e-05
-0.00022594301742306921
0.00018226113765346108
5.9931644949884344e-05
-5.968339203205053e-05
-0.00018197811453363189
0.00011274698575380881
3.679992132815668e-05
-3.743259080818406e-05
-0.00011335475480911406
4.4646801073550124e-05
1.4773879729007566e-05
-1.4368506862677544e-05
-4.4176374629334436e-05
-1.4783578459992563e-05
-5.047341654657034e-06
4.489152101161409e-06
1.4224651768673935e-05
-6.937903772044618e-05
-2.272720193999267e-05
2.2968164225006804e-05
6.968418703934276e-05
-0.00010802037766849404
-3.582439377339264e-05
3.4715645892358094e-05
0.00010689727709314867
-0.00017777785927250433
-5.87875068901178e-05
5.803806954210455e-05
0.00017699681404606538
-0.0001513486910788009
-4.984593599322018e-05
4.98126751440342e-05
0.0001513018537181443
-8.956984929253675e-05
-2.9339604494582616e-05
2.94985201200193e-05
8.973653124932923e-05
-5.700246446338486e-05
-1.86494215946853e-05
1.8898875396078374e-05
5.7314996499302495e-05
-1.2011338718087572e-05
-4.040118872450371e-06
3.751793325623698e-06
1.1745885961367275e-05
3.493204791282789e-05
1.1996335431474492e-05
-1.0377921231596865e-05
-3.3193446016321904e-05
8.020747647224935e-05
2.6314671575822235e-05
-2.6374710257681677e-05
-8.021572435656932e-05
0.00011288086800675945
3.706305601136606e-05
-3.703813064470651e-05
-0.00011281592264578144
0.00012634975860126296
4.15720179152701e-05
-4.1198429260091984e-05
-0.00012591271419526429
0.00012990156034897726
4.2412109832024036e-05
-4.2990738568726705e-05
-0.00013047001144450565
0.0001289571161626757
4.252738911358911e-05
-4.175913049075941e-05
-0.00012810566770199427
0.0001305269422572919
4.267374875860375e-05
-4.3087600653968217e-05
-0.00013093022540799915
0.00012619144973902152
4.141444572242081e-05
-4.1366579147605886e-05
-0.00012610833055642923
0.00011304973531622853
3.708070379437878e-05
-3.7168123494135674e-05
-0.00011309442934259728
8.070583311367563e-05
2.6728318562013742e-05
-2.6036778850963005e-05
-7.994727225352216e-05
3.458480604040526e-05
1.1362067360937145e-05
-1.1337628909258157e-05
-3.4524598290397446e-05
-1.1455930211651255e-05
-3.530578552096708e-06
4.244788607193906e-06
1.2249103249206694e-05
-5.7793290288515875e-05
-1.936355867204753e-05
1.8236184387926402e-05
5.667491125377344e-05
-8.944736774380013e-05
-2.9298500027613583e-05
2.947760163155011e-05
8.967313616695116e-05
-0.00015191466976793855
-4.993792656332596e-05
5.020933181892895e-05
0.00015221126890158088
-0.00012044149508416702
-3.951165041993221e-05
3.995330065043046e-05
0.00012091058051655335
-7.217923400359982e-05
-2.392300777509515e-05
2.3184292202271806e-05
7.14111214016322e-05
-4.7946349736815996e-05
-1.5778226237328496e-05
1.56865749596502e-05
4.788353263329714e-05
-1.582565865304586e-05
-5.467993561492079e-06
4.6100947599381215e-06
1.493457295120848e-05
1.3361059222727345e-05
4.299481226710533e-06
-4.596445293103546e-06
-1.3661634040540438e-05
3.401121025836673e-05
1.0995548194836502e-05
-1.1521051069329769e-05
-3.45426797206394e-05
4.4191023313877587e-05
1.4459489244389445e-05
-1.4560473685309994e-05
-4.42606713271787e-05
4.586266016082252e-05
1.4742684126600736e-05
-1.5616958333908304e-05
-4.674930425541124e-05
4.438477770279947e-05
1.4343150966378282e-05
-1.4917931280722385e-05
-4.494892920409166e-05
4.472391917542673e-05
1.4792106331096289e-05
-1.4337482216242314e-05
-4.420926402354253e-05
4.4780648833619985e-05
1.4800198630260386e-05
-1.4392063517110198e-05
-4.434635477490456e-05
4.69758718452673e-05
1.5201197436698344e-05
-1.5810369648205924e-05
-4.7607256274728726e-05
4.3454917245472346e-05
1.3820132151731723e-05
-1.514654057627185e-05
-4.483672145197404e-05
3.4559722166538354e-05
1.1542330433877979e-05
-1.0944714172095305e-05
-3.3905976048270725e-05
1.3960309568267215e-05
4.783550445947027e-06
-4.183218568210023e-06
-1.3278700364494078e-05
-1.5941639960465048e-05
-5.5938985363546134e-06
4.492896746643993e-06
1.4847050516908489e-05
-4.7715085811111946e-05
-1.5583632350546495e-05
1.5842633238366544e-05
4.79995687650836e-05
-7.203154820872859e-05
-2.375760584172326e-05
2.3371186439552494e-05
7.162330806520512e-05
-0.00012061952299655121
-3.936145696295523e-05
4.043264336639485e-05
0.0001217294223687937
-8.867101985454706e-05
-2.9152246665553605e-05
2.9268635584722702e-05
8.880939521138664e-05
-5.3907282991039196e-05
-1.7245762129691755e-05
1.856146004364234e-05
5.528837348012239e-05
-4.0957617382764155e-05
-1.3438412390431864e-05
1.343256060326592e-05
4.0942047925707215e-05
-2.4683046631612804e-05
-7.99742376517143e-06
8.273626706967185e-06
2.4970697723503132e-05
-1.5126424261380222e-05
-5.0307588957410054e-06
4.802972648543236e-06
1.4897811547509576e-05
-1.1822394784755108e-05
-3.7468504489601706e-06
4.149593419933151e-06
1.2250768760768693e-05
-1.416057119840719e-05
-4.531741717384019e-06
4.927537448684571e-06
1.4616456099347808e-05
-2.0044950134912032e-05
-6.4915844686930235e-06
6.842473182555597e-06
2.0468869742551465e-05
-2.4117817688684706e-05
-7.687826752644789e-06
8.466659305261803e-06
2.495847824351971e-05
-2.7336757624341068e-05
-9.182400063700857e-06
8.642334869357615e-06
2.6802386028534908e-05
-2.5145536363457843e-05
-8.207139687577136e-06
8.422372232141928e-06
2.5366785554592486e-05
-2.0024515477556903e-05
-6.6384024853261e-06
6.501490669941212e-06
1.990163373016829e-05
-1.3894512843531936e-05
-4.152362634596285e-06
5.450503834963927e-06
1.531351384079227e-05
-1.2608163342670009e-05
-4.426658950340556e-06
3.567319969671745e-06
1.175505259382037e-05
-1.5955079470469924e-05
-5.376265447415429e-06
4.943414256636247e-06
1.5533636341519275e-05
-2.4400034794175296e-05
-7.730612696127404e-06
8.554608531580188e-06
2.530046806831221e-05
-4.125160826418117e-05
-1.359552754431892e-05
1.3420721410667413e-05
4.108781614459156e-05
-5.494724592869371e-05
-1.8192079788925675e-05
1.765306273963929e-05
5.436147523213419e-05
-8.878903756531775e-05
-2.9340914327519174e-05
2.8975667546504713e-05
8.837905287709114e-05
-5.871815931635105e-05
-1.9532429784252514e-05
1.887428722791018e-05
5.802394796827759e-05
-4.17408920800888e-05
-1.4197612052568864e-05
1.2603710576875038e-05
4.0023551253542955e-05
-3.979757390187855e-05
-1.2877697883884043e-05
1.3391191865663732e-05
4.0277693140244875e-05
-4.080875492956659e-05
-1.3275815128221957e-05
1.3620223605903536e-05
4.116870162490516e-05
-4.763419115061396e-05
-1.543023221295403e-05
1.609678819347593e-05
4.838532147688479e-05
-5.7925381325929504e-05
-1.9086466472639785e-05
1.891751843469125e-05
5.777136168300112e-05
-6.922777474854813e-05
-2.2768494031877307e-05
2.272557025478905e-05
6.923479592529924e-05
-8.006153679035455e-05
-2.6044068831720946e-05
2.6905835154356073e-05
8.105572443045661e-05
-8.810837812561756e-05
-2.9230370295452168e-05
2.8424796465309488e-05
8.731675047174425e-05
-8.9902613482018e-05
-2.9373025020318355e-05
2.9919554624613376e-05
9.050512047603654e-05
-8.81935239222531e-05
-2.9215695802997654e-05
2.8524946819319386e-05
8.748998076585357e-05
-8.027796178261548e-05
-2.633765228710061e-05
2.6511793090794322e-05
8.053125458182264e-05
-6.855719059101206e-05
-2.218782683552356e-05
2.325337263112126e-05
6.974406587120785e-05
-5.7973828013535567e-05
-1.919455267224146e-05
1.8746869950653222e-05
5.7532639706758815e-05
-4.773042836897501e-05
-1.5736682383998835e-05
1.5544260416638922e-05
4.754324740172122e-05
-4.0916694672848974e-05
-1.3351897278940372e-05
1.3588561601773907e-05
4.1193132714778535e-05
-4.049250393545201e-05
-1.3185086273487245e-05
1.3503957540877964e-05
4.085274542066364e-05
-4.1437293290411126e-05
-1.3869076619890675e-05
1.3002330393682704e-05
4.054613069812141e-05
-5.78111363949696e-05
-1.888673092681481e-05
1.9285373742863876e-05
5.822846128152037e-05
-3.197109692620881e-05
-1.0711299604060365e-05
1.0070673064133118e-05
3.131477053652798e-05
-3.096417238046545e-05
-1.0352710199335036e-05
9.701436355480375e-06
3.0281030069301273e-05
-4.056096034110723e-05
-1.2817818717369978e-05
1.427406001752729e-05
4.2084870469250024e-05
-5.5597489732661654e-05
-1.8404660573789755e-05
1.791670239248422e-05
5.515333491651342e-05
-7.166370608657768e-05
-2.361325870037234e-05
2.334541303750104e-05
7.148111653287881e-05
-9.012507430500305e-05
-2.9573201902388657e-05
2.959406842562018e-05
9.017862086690975e-05
-0.00010743504025240158
-3.537099746370176e-05
3.504019710581785e-05
0.0001070972145473803
-0.00012152769963275079
-3.9987342521086156e-05
3.974054932781579e-05
0.00012136393606609897
-0.000129798947018811
-4.262952116684815e-05
4.2605036537690655e-05
0.00012986858047492333
-0.0001332933193853858
-4.3542709273480806e-05
4.420465196119938e-05
0.00013401062625750804
-0.00012974201209747793
-4.278765448906263e-05
4.218830813107477e-05
0.00012914708822525656
-0.00012087586886411206
-3.940808085242664e-05
4.0257382802888486e-05
0.00012182572151198112
-0.00010783092509827896
-3.574444389567444e-05
3.467489883232644e-05
0.00010672489587115752
-9.065316375619914e-05
-2.9804697555979587e-05
2.9641881609643317e-05
9.049463430574334e-05
-7.095889007799339e-05
-2.3149887199036545e-05
2.356657107524529e-05
7.14529582669654e-05
-5.4374188448877425e-05
-1.7751008423202985e-05
1.8013958404686226e-05
5.469461144470833e-05
-4.2119287030767394e-05
-1.4134840981880337e-05
1.3141741140101915e-05
4.1086565854220325e-05
-2.9588058145291196e-05
-9.085690343843544e-06
1.0916098438826238e-05
3.1508486999606844e-05
-3.330882252226136e-05
-1.1252672226264027e-05
1.0295855686667799e-05
3.2293449544903985e-05
-1.6860074345759202e-05
-5.4064029630929156e-06
5.7819112059265265e-06
1.727987369637418e-05
-3.1882041623743085e-05
-1.0048306719356859e-05
1.1355938137280752e-05
3.328260035628805e-05
-5.8472451196556197e-05
-1.9565455494918726e-05
1.857921487508074e-05
5.7484266580254406e-05
-8.903271355487075e-05
-2.924822895838952e-05
2.9431341899144314e-05
8.923254854298346e-05
-0.00012066975799707169
-3.9530437844825794e-05
4.014048048617269e-05
0.00012130685465033819
-0.00015201603295805777
-5.027765804194173e-05
4.9612340893845364e-05
0.00015133322673327454
-0.00017771651808756728
-5.8518598880619166e-05
5.852838175834929e-05
0.0001777245747795475
-0.00019690867249178012
-6.462321095956902e-05
6.530745304494934e-05
0.00019765945204985869
-0.00021071599739169722
-6.959633744779703e-05
6.897690324636496e-05
0.0002100850080589689
-0.000214546489715417
-7.080396629599583e-05
7.034350886064855e-05
0.00021408087653074226
-0.00021024215906662036
-6.905714824112508e-05
6.962799061294156e-05
0.00021090242828841754
-0.00019783083847821348
-6.527113859342015e-05
6.490625585373055e-05
0.00019748305644542996
-0.00017714366191573516
-5.843363556451431e-05
5.8125884040499676e-05
0.00017682482823186407
-0.0001511663632093596
-4.945498328209896e-05
5.045796677985437e-05
0.0001522501573285595
-0.00012102908856520544
-4.003092391227647e-05
3.9498399739906764e-05
0.00012051708820068341
-8.894524120142688e-05
-2.9344445652584872e-05
2.9165317348478492e-05
8.880297126695469e-05
-5.839485514970433e-05
-1.9165905953591467e-05
1.930264687048655e-05
5.853505674578707e-05
-3.2092460314964155e-05
-1.0347143263519931e-05
1.0921991832196776e-05
3.2667269404033916e-05
-1.8275264288214466e-05
-6.2512883130735886e-06
5.446029154539123e-06
1.7398533566054253e-05
SCALARS strain23 float
LOOKUP_TABLE default
-3.4117441306547036e-06
-3.434505376764818e-06
3.390116839738222e-06
3.3999102495574363e-06
-3.3277382804897115e-06
-3.3227103939381664e-06
3.4405187034763918e-06
3.4497125667165562e-06
-4.613948992759909e-06
-1.0968091011642755e-05
-1.9708713328348004e-05
-2.9696921758803896e-05
-3.986999110050515e-05
-4.919679532489063e-05
-5.706559551243995e-05
-6.288482876548596e-05
-6.661623609938161e-05
-6.775600090147549e-05
-6.666171544222887e-05
-6.299239053908501e-05
-5.705533965405518e-05
-4.919527399360746e-05
-3.985211223833662e-05
-2.9759013095875808e-05
-1.97018631294954e-05
-1.0977892606622852e-05
-4.640665630328833e-06
1.2569411322882473e-07
7.485147963670613e-07
8.682923250402652e-07
1.0542575193950299e-06
1.025453520708819e-06
8.592222389136595e-07
6.838994257574171e-07
4.827900494386306e-07
2.6538561065381217e-07
-3.7791825169275484e-08
-1.8146984492872775e-07
-4.5261831604914704e-07
-6.774687824062653e-07
-8.836046398730257e-07
-9.428004316414107e-07
-8.697980651839465e-07
-9.218595709153954e-07
-7.226154142350727e-07
-1.718718893248261e-07
4.649048922809179e-06
1.097028849574716e-05
1.9669658373147603e-05
2.9644878498297222e-05
3.971576688474587e-05
4.909935874297666e-05
5.700670969016608e-05
6.290517748430702e-05
6.654477781997681e-05
6.76923467252677e-05
6.649949188441973e-05
6.295976783177171e-05
5.696188045417605e-05
4.909730567337345e-05
3.987836968760705e-05
2.970065196850058e-05
1.9628337698196496e-05
1.0902095975762194e-05
4.570741568454828e-06
-1.680316983332375e-07
-6.635116096553872e-07
-9.079063053585301e-07
-8.932249652149338e-07
-9.698897683874108e-07
-9.062102551693485e-07
-6.841916234678891e-07
-5.016192613505055e-07
-1.2721647735247643e-07
1.4121766467312113e-07
3.0127720684891557e-07
5.949277729344615e-07
7.327154724068308e-07
9.165529348820201e-07
9.715339248650423e-07
9.441563993961566e-07
9.069097620661992e-07
7.949745011170961e-07
1.6526208368450312e-07
-4.566717597409564e-06
-1.0949202008059267e-05
-1.967551673875967e-05
-2.9806670823528947e-05
-3.988443093672078e-05
-4.922406159468817e-05
-5.709855255342511e-05
-6.28803635415176e-05
-6.651945409241744e-05
-6.771468550537119e-05
-6.66502527493229e-05
-6.29261225845168e-05
-5.7073066633495095e-05
-4.925363259400406e-05
-3.993414863379119e-05
-2.9752131006421934e-05
-1.9792649362249115e-05
-1.1076876609616981e-05
-4.687319212992591e-06
1.519272234684621e-07
8.075895882031503e-07
9.627136948742177e-07
1.021769093556557e-06
9.37572422865518e-07
7.921410115074856e-07
6.336032231657462e-07
3.8244867600623067e-07
2.5440539158649855e-07
1.6328817742383706e-09
-2.4441676110820154e-07
-4.486991305729937e-07
-7.026516692099083e-07
-8.945512768587793e-07
-9.228844715103435e-07
-9.215837027676255e-07
-9.625612997082866e-07
-8.070373864604852e-07
-1.711234029477815e-07
4.684495594105276e-06
1.0950071926044136e-05
1.9718476469227086e-05
2.9870035580803478e-05
3.97800848780383e-05
4.924258259908498e-05
5.708956568106771e-05
6.293323585881971e-05
6.65424978379403e-05
6.768487364022802e-05
6.655106317221549e-05
6.300326184205396e-05
5.700866608415733e-05
4.9058355560349654e-05
3.9837698823042e-05
2.9751454594051374e-05
1.9791446340677865e-05
1.095663572936445e-05
4.611669918386241e-06
-2.2012134714977094e-07
-7.756082014420684e-07
-9.321921621285867e-07
-1.0186458012650945e-06
-9.789554520356347e-07
-8.464519987150254e-07
-6.300715189588857e-07
-4.436112005512527e-07
-1.0118961768501578e-07
5.547824177831728e-08
3.348507200406914e-07
5.890141533404503e-07
7.163009144717236e-07
9.693320186521248e-07
9.710335996393482e-07
9.82834962526269e-07
1.0333301952991647e-06
8.110136819894365e-07
2.4988641977863324e-07
-3.393081580482793e-06
-3.3755567891979865e-06
-3.3588732185618753e-06
-3.3429395225326175e-06
-3.41000607395614e-06
-3.386735463961621e-06
-3.3643828948326515e-06
-3.3430366950248924e-06
3.397718526389898e-06
3.406568622209283e-06
3.41656329925534e-06
3.4278209892161376e-06
3.407435290370131e-06
3.416188421589972e-06
3.4260678846154136e-06
3.4371678094835545e-06
1.4035872680784323e-06
4.169400066755813e-06
4.6298421612078755e-06
5.262106327008631e-06
4.919002318914956e-06
4.354681466645083e-06
3.5594132198335515e-06
2.4508281306623303e-06
1.2382602461169512e-06
-4.135954800865704e-08
-1.2459660684305263e-06
-2.3992346719348134e-06
-3.502674952859941e-06
-4.41454040156497e-06
-4.951698189703535e-06
-5.1859522792740975e-06
-4.624246623396999e-06
-4.189509851482143e-06
-1.426554954719883e-06
-1.9676057327888685e-06
2.1784167638649876e-06
9.967576445335524e-07
1.9677753749780535e-06
1.93392548297755e-06
1.8913369470574537e-06
1.5123800437555346e-06
1.1174483309783767e-06
5.486508259933132e-07
4.2289594825994925e-08
-5.819947184182439e-07
-1.1907193770976932e-06
-1.5604625337450884e-06
-1.867254904364124e-06
-1.9525026965228065e-06
-1.9858728255162106e-06
-1.0019310181519359e-06
-2.190523976430825e-06
1.988905694805254e-06
-4.610511843972098e-06
3.0583298906705636e-06
2.9855222882790855e-07
2.0975592741612203e-06
1.980553946956398e-06
2.1629793255373286e-06
1.8341392414855662e-06
1.3731796575378041e-06
7.324189074120468e-07
-2.433694801240449e-09
-7.331584161995863e-07
-1.3412158660353057e-06
-1.9073316487316916e-06
-2.1217892028913e-06
-2.0168587958613315e-06
-2.092589849844728e-06
-3.1209191364567346e-07
-3.0598811632254197e-06
4.580403427323354e-06
-7.821501134430697e-06
3.496293713656229e-06
-1.310854871316991e-06
1.1536592890992736e-06
1.092518042478119e-06
1.755137489234393e-06
1.6944288099285387e-06
1.37168022429357e-06
6.828434828687335e-07
-1.4786445734493725e-08
-7.136818602759831e-07
-1.3366614930454546e-06
-1.6874785250253765e-06
-1.7634148841150221e-06
-1.0808794318473147e-06
-1.100687016919455e-06
1.2886127054301255e-06
-3.432287074389695e-06
7.746026001897999e-06
-1.0719572720141457e-05
4.169319947733285e-06
-2.6066739866603683e-06
2.027007517391155e-07
-2.339567691800326e-07
1.2802374721454512e-06
1.7716028875014445e-06
1.508777521253002e-06
9.141725632044739e-07
2.1819370976672303e-08
-8.711015745399564e-07
-1.5382100547745026e-06
-1.726849467642566e-06
-1.2819895429672101e-06
2.0904995540194093e-07
-1.968682837860669e-07
2.5932622628177526e-06
-4.204547924602231e-06
1.0695740215949101e-05
-1.3188023854637798e-05
4.924381007964662e-06
-3.7761746969344756e-06
-5.164752403530315e-07
-1.760578553944292e-06
-5.754279166492182e-07
1.6895129137939335e-06
2.020321757223442e-06
1.270686826204681e-06
2.0336121675512686e-08
-1.3170400935402782e-06
-2.035461799498872e-06
-1.642819169367371e-06
4.957237272895654e-07
1.7851037450444807e-06
5.023102387924361e-07
3.7855033073186384e-06
-4.868900194077153e-06
1.3232418475339625e-05
-1.527570026360614e-05
5.516964342922037e-06
-4.5993534334431985e-06
-1.1131495257776791e-06
-2.7334071134310634e-06
-2.881779817331953e-06
-1.7506788622112524e-06
3.909802353985192e-06
1.6773004245518308e-06
2.6731466040708085e-08
-1.6969617868123343e-06
-3.818449482995145e-06
1.6805810665321275e-06
2.893235418466311e-06
2.6781586918156464e-06
1.1288121439245735e-06
4.647075341757123e-06
-5.484489820406502e-06
1.52277962484626e-05
-1.6721282637965906e-05
6.048447456330486e-06
-5.197553044178349e-06
-1.4192828398096324e-06
-3.4834174927889094e-06
-3.2137447647517803e-06
-6.303236203097917e-06
-3.915414058086597e-06
9.977480268208438e-06
-5.2093706182088084e-08
-1.00505568548237e-05
3.911915423981949e-06
6.363364406625216e-06
3.1778683779459804e-06
3.5470750285870878e-06
1.365699867528214e-06
5.156188979560383e-06
-6.070939206181958e-06
1.6647678154402268e-05
-1.7592547830624916e-05
6.365365434302106e-06
-5.430098646841408e-06
-1.605371482749085e-06
-3.612513551520813e-06
-4.944269119899758e-06
-2.5171532668233354e-06
-1.6474883735573265e-05
-5.14538355755878e-06
-5.819052517619383e-09
5.1677195255228625e-06
1.646440618929823e-05
2.5266609816609886e-06
4.908222206556623e-06
3.640963025908217e-06
1.616307366059111e-06
5.5370372722962635e-06
-6.388594131323533e-06
1.7550941539823395e-05
-1.7921927065289722e-05
6.609692339010209e-06
-5.684056401666915e-06
-1.2578307979627112e-06
-5.0531264793596264e-06
-4.774366093585058e-07
-1.7920866420051418e-05
2.7532264239960025e-05
-0.00010131835802401623
1.8565698978179057e-08
0.00010128767205724865
-2.756531936098927e-05
1.7891479509257735e-05
4.3796307630517006e-07
5.020863304505685e-06
1.2972672726596635e-06
5.757869864675413e-06
-6.507575783243347e-06
1.7851951259528764e-05
-1.753312031105292e-05
6.415048887098429e-06
-5.498472377851726e-06
-1.6092582109106246e-06
-3.6302875283666936e-06
-4.931911862626759e-06
-2.5239024592504933e-06
-1.651510366212916e-05
-5.143959240005991e-06
3.1140033884824447e-09
5.138209294486273e-06
1.6500828002086187e-05
2.4743631324430915e-06
4.912618172092653e-06
3.6524948210936437e-06
1.602608335815603e-06
5.485921479086997e-06
-6.403149400979746e-06
1.754825273631022e-05
-1.668023470158264e-05
6.017372362610018e-06
-5.139698829204065e-06
-1.418443649647827e-06
-3.520326529171669e-06
-3.1795996706662777e-06
-6.347891526259364e-06
-3.939709089628707e-06
1.00434775934799e-05
-1.1385940135166805e-08
-9.94835202766664e-06
3.916785585478255e-06
6.334175655320351e-06
3.1942054679046095e-06
3.5748905162780176e-06
1.34717692357178e-06
5.2165359360478725e-06
-6.053810453460207e-06
1.670879649490198e-05
-1.527346314145195e-05
5.527465647414687e-06
-4.582943953779228e-06
-1.0598615401979927e-06
-2.7463922230297477e-06
-2.914491491812221e-06
-1.7269851181889173e-06
3.888204379742799e-06
1.6784332425023862e-06
4.9684111991243896e-08
-1.6630793813199318e-06
-3.845211652919733e-06
1.703286583554231e-06
2.9034974762809362e-06
2.6994018137438403e-06
1.0692752406005201e-06
4.596570886195028e-06
-5.564171792371564e-06
1.5219136697691704e-05
-1.321393273800986e-05
4.9614902061234645e-06
-3.7571949497161583e-06
-5.461429117836758e-07
-1.8368515721789436e-06
-5.261640702025616e-07
1.6737884792616953e-06
2.0481950888107114e-06
1.2606757738287122e-06
2.3385915370877086e-08
-1.2551862150211868e-06
-2.066369577224947e-06
-1.7057736381720368e-06
5.261967448155769e-07
1.7590779735898732e-06
5.803610486354582e-07
3.805292931424731e-06
-4.8692697297569865e-06
1.3203139290679511e-05
-1.060179593836974e-05
4.19160693598819e-06
-2.6391946135184696e-06
2.621992153395425e-07
-1.3304910473355136e-07
1.2788208220704256e-06
1.703707463829307e-06
1.5439254072435737e-06
9.110786158283979e-07
8.419293207051481e-09
-9.14896887971306e-07
-1.519857676657299e-06
-1.72331580500229e-06
-1.2876001589112729e-06
1.423012457590911e-07
-3.147272567560755e-07
2.6605744651297947e-06
-4.20398732078886e-06
1.06837311371899e-05
-7.761518851512328e-06
3.4817458245406385e-06
-1.3219480237136594e-06
1.0671768939096715e-06
1.061001951518925e-06
1.740609433309448e-06
1.7373307577006614e-06
1.3050301050920865e-06
7.039175548007037e-07
1.3235796958444013e-08
-7.581616326968188e-07
-1.3904932000818881e-06
-1.6782801942338832e-06
-1.7763029201145475e-06
-1.0783024904092997e-06
-1.1143495685372873e-06
1.3877186799682306e-06
-3.4545194346757846e-06
7.815347312284393e-06
-4.5898925568055304e-06
3.062115056517989e-06
2.9019514435901783e-07
2.033748630503318e-06
1.938347078844771e-06
2.1662408389855337e-06
1.8900596002735526e-06
1.328120511234765e-06
7.50201947175011e-07
-6.563442700446842e-08
-6.7114233037735e-07
-1.3882313764645993e-06
-1.86737232066303e-06
-2.2140489982502842e-06
-1.9765879493705008e-06
-2.0696804848008288e-06
-2.9975362046685827e-07
-3.0666446075300335e-06
4.593995017787567e-06
-1.9487933748951747e-06
2.2087427757888634e-06
1.0076980397899504e-06
2.0322360871904976e-06
1.9427540970951007e-06
1.9194489605522946e-06
1.518425866042783e-06
1.1501143099001965e-06
6.172877082266659e-07
3.856124586310017e-09
-5.610126223576373e-07
-1.1374488998461274e-06
-1.5987049632459893e-06
-1.9125701864186606e-06
-1.9413669032630754e-06
-2.011443082039488e-06
-1.057260635844992e-06
-2.185020090569867e-06
1.994783605158146e-06
1.4357187110292102e-06
4.1774745612732644e-06
4.6508832386438215e-06
5.171233402656572e-06
5.016687378067708e-06
4.379610153926183e-06
3.4863445281807515e-06
2.4682818808297036e-06
1.2286898488089726e-06
-4.214653970269211e-08
-1.244949866696654e-06
-2.40269798870707e-06
-3.505062744213472e-06
-4.374541456769743e-06
-4.94783733337445e-06
-5.214501837588759e-06
-4.655951976559325e-06
-4.112297532471443e-06
-1.4567459343597933e-06
1.543928328073818e-06
4.1296874895291324e-06
4.620045179426491e-06
5.174700348997696e-06
4.977425580143802e-06
4.382866342966807e-06
3.5021146900238165e-06
2.418508451507151e-06
1.2148425068136959e-06
-1.520593317927421e-08
-1.2627704422119024e-06
-2.4289398966592657e-06
-3.502069124361462e-06
-4.360159656435769e-06
-4.936412229872289e-06
-5.224157199945623e-06
-4.598755795837128e-06
-4.166761294110977e-06
-1.4107852099876084e-06
-1.933146886790027e-06
2.150881569074059e-06
1.010171702509055e-06
1.977206432801637e-06
1.8743621307271141e-06
1.9012959915354344e-06
1.5908328960811957e-06
1.1348352850770738e-06
5.807114483724618e-07
8.44513758924137e-09
-5.866600625292762e-07
-1.107865481464465e-06
-1.617211573989863e-06
-1.867338516148287e-06
-1.9210049300166787e-06
-1.960188246163952e-06
-9.70463951532885e-07
-2.176107724571885e-06
1.9360176537475127e-06
-4.599704415575445e-06
3.0351896574964954e-06
2.873138607029091e-07
2.020315700956843e-06
1.9461493675487773e-06
2.197951250226815e-06
1.8757515521938828e-06
1.3671261895886744e-06
7.667433572500215e-07
-4.910644779698714e-09
-6.877717116937632e-07
-1.410426088366279e-06
-1.8859821339090033e-06
-2.192960629643359e-06
-1.924596100932874e-06
-2.052984470424235e-06
-2.6829138533024377e-07
-3.053078695192113e-06
4.709491309928815e-06
-7.807932089543002e-06
3.4833080637675096e-06
-1.3403373522180573e-06
1.0872810346507222e-06
1.0124512829223775e-06
1.7450295489718215e-06
1.7054969579932688e-06
1.3147421599191134e-06
7.482200274910866e-07
5.5926342557022224e-08
-7.187462444102621e-07
-1.3448639972768461e-06
-1.626683274524865e-06
-1.7474282946183806e-06
-1.040643585747958e-06
-1.1169510965025609e-06
1.397719493700933e-06
-3.4776906602251856e-06
7.73217056626585e-06
-1.0708979883089498e-05
4.240213305362062e-06
-2.6313861284377182e-06
2.2581162661960974e-07
-1.554520880908683e-07
1.2440203258634597e-06
1.7742953400956551e-06
1.5091495935148913e-06
8.919525222861324e-07
-8.922502292563195e-09
-9.177925177628055e-07
-1.606084876759617e-06
-1.7818153212889598e-06
-1.2652428151849193e-06
2.0195311389858972e-07
-2.0503415376627032e-07
2.6619044015130378e-06
-4.19331369311271e-06
1.0722055939049735e-05
-1.3236163998842088e-05
4.87276721505836e-06
-3.7855384648066703e-06
-5.456450091756437e-07
-1.7978474443625103e-06
-4.801449645652767e-07
1.6768153685564613e-06
2.048010244948273e-06
1.310363036965967e-06
-2.4640257501040708e-08
-1.2782254728560538e-06
-2.0437919854843223e-06
-1.6494175161807512e-06
5.569139192584949e-07
1.7224218566425087e-06
5.546643932485829e-07
3.742874057244272e-06
-4.907043758939356e-06
1.3294222613646767e-05
-1.533647881490907e-05
5.574842536049118e-06
-4.583232282251437e-06
-1.058696034950124e-06
-2.741835753550248e-06
-2.8940351101125472e-06
-1.743241411555907e-06
3.710669094769692e-06
1.8543537541049204e-06
1.2545667615881939e-08
-1.8300536562265712e-06
-3.7698673038821795e-06
1.7216547039677899e-06
2.9743239883806005e-06
2.7025903158728326e-06
1.0805081672726757e-06
4.535714466402663e-06
-5.521178287060113e-06
1.5241182407088605e-05
-1.668877258531598e-05
6.0953318602452455e-06
-5.2090337142596255e-06
-1.3497225105352229e-06
-3.5966610220095063e-06
-3.208733675319486e-06
-6.4023206370888985e-06
-3.6071858546815605e-06
9.357169804102838e-06
3.40341269611244e-08
-9.408728448290216e-06
3.6443397394836374e-06
6.416437964007482e-06
3.1754157250318826e-06
3.5629625206867743e-06
1.4251322510983044e-06
5.147329188215366e-06
-6.059984794415385e-06
1.6747505920344796e-05
-1.7546801512113852e-05
6.383896900774566e-06
-5.497905621099086e-06
-1.5988612767081634e-06
-3.5468203954946986e-06
-5.063629084145482e-06
-2.0005037792980573e-06
-1.7988039520966392e-05
-1.622280083934946e-06
-2.3392855375004018e-08
1.625235441005124e-06
1.8038837195755164e-05
2.0328893478027688e-06
5.0859750981846474e-06
3.560129857027583e-06
1.5818976568660048e-06
5.463372713676584e-06
-6.402498623159225e-06
1.7600143514429067e-05
-1.790725072470245e-05
6.5156640474128835e-06
-5.701247673961518e-06
-1.1992391458770513e-06
-5.372763264288594e-06
5.578912261050561e-07
-2.1313960014535116e-05
3.793630940407411e-05
-0.00012741801073551384
-3.5783823959523176e-08
0.00012746492351212169
-3.7928508613171985e-05
2.1369542350935244e-05
-6.148246335380136e-07
5.374998753526761e-06
1.196581704832056e-06
5.72165939616287e-06
-6.536680493496316e-06
1.7824799421306547e-05
-1.756694967558481e-05
6.380410228823408e-06
-5.446492222671573e-06
-1.5870326433020665e-06
-3.6255420045039344e-06
-5.064897968531934e-06
-2.012969122111574e-06
-1.8052274107116517e-05
-1.635966681068357e-06
1.9085967362109102e-08
1.6324047973914624e-06
1.8062157297382697e-05
2.0294068966419943e-06
5.086490709849123e-06
3.5794234964914295e-06
1.5933582561689086e-06
5.4961644425088885e-06
-6.425335702164858e-06
1.7629123758577947e-05
-1.6730642894646763e-05
6.012877425631835e-06
-5.158813988770383e-06
-1.4167819172294926e-06
-3.57666725558925e-06
-3.1793905583277215e-06
-6.360285382811526e-06
-3.6248527336968372e-06
9.343253280225117e-06
-9.014649027250243e-09
-9.395453464122738e-06
3.6158616296133594e-06
6.364569923145158e-06
3.204888615382373e-06
3.5058963602230264e-06
1.4239355193845782e-06
5.169388049786061e-06
-6.059612220582489e-06
1.6673341483475212e-05
-1.5258512595206497e-05
5.541714762191674e-06
-4.615506092875421e-06
-1.0846382828555434e-06
-2.6649379940568707e-06
-2.9641182729411852e-06
-1.7353344222148515e-06
3.7951536016600507e-06
1.8708195413941198e-06
-3.8105048172365485e-08
-1.8695745603314329e-06
-3.8127059358017412e-06
1.7650449590234096e-06
2.868234903641298e-06
2.772346433477235e-06
1.0709294829269744e-06
4.6223532742251106e-06
-5.568656548604611e-06
1.5275153301907984e-05
-1.3323865433734206e-05
4.851155156360143e-06
-3.77569290266333e-06
-5.893957352176571e-07
-1.7863833495224135e-06
-5.412416246297624e-07
1.6537009105421774e-06
2.051070708941616e-06
1.3287830213370988e-06
-2.0011432289024356e-08
-1.2991944057794136e-06
-2.080473816779005e-06
-1.6143666945467317e-06
5.40428945483562e-07
1.7332756621912804e-06
5.457873324399287e-07
3.7589381805813726e-06
-4.841835533092587e-06
1.3304023509408403e-05
-1.0814817776760854e-05
4.154029951686233e-06
-2.6287663981161558e-06
1.936915375866377e-07
-1.3958672828717766e-07
1.299204438087731e-06
1.7840865723095511e-06
1.596635502365551e-06
8.644769600163471e-07
2.173001611982528e-08
-9.303322032749861e-07
-1.536173917515704e-06
-1.7276746683836386e-06
-1.2943395216180598e-06
2.1820522033699774e-07
-1.7438080168741266e-07
2.6126217414490505e-06
-4.131880882662919e-06
1.0688204364506237e-05
-7.781682425433978e-06
3.4529533154969982e-06
-1.3361800689226655e-06
1.0813978275070468e-06
1.0448866955004021e-06
1.7712474281728063e-06
1.6577828721442422e-06
1.3998244619561895e-06
7.535005823178231e-07
-3.3785222952609217e-09
-6.869142067933431e-07
-1.3366751623333784e-06
-1.6837121136481503e-06
-1.7264121414395373e-06
-1.027288965366191e-06
-1.0984772693400924e-06
1.3139630634928512e-06
-3.463929982905345e-06
7.83702983704615e-06
-4.627667428924731e-06
3.048874361533116e-06
2.482982022211644e-07
2.0984420124325887e-06
1.940089096319486e-06
2.1687183903718044e-06
1.8204178752756484e-06
1.408968989535797e-06
7.413762950214675e-07
-6.999158752574175e-09
-7.185010297838801e-07
-1.406404055714905e-06
-1.861740277470103e-06
-2.1397298982650526e-06
-1.952252267761745e-06
-1.9936414772103728e-06
-2.989816836607151e-07
-3.052508228379436e-06
4.6136900898330335e-06
-1.9743136980832077e-06
2.1735869722983026e-06
9.79791181854317e-07
1.9849283402484375e-06
1.8781440173087915e-06
1.8825086496865318e-06
1.5313677425576877e-06
1.1639212330050164e-06
5.631853631227202e-07
5.02260823487255e-08
-6.07218711923263e-07
-1.1071691248809579e-06
-1.6160213959781622e-06
-1.902683465920818e-06
-1.8137441635812657e-06
-2.0501996427779723e-06
-9.272300929563659e-07
-2.1684078525818773e-06
1.992205430165206e-06
1.4516640782780144e-06
4.1516753074288815e-06
4.598126638666322e-06
5.187157627872807e-06
4.933880367596899e-06
4.412300842637773e-06
3.528405394859213e-06
2.4159681381585862e-06
1.286624055629737e-06
-4.9827109105393674e-08
-1.2334539234992725e-06
-2.402009793622817e-06
-3.5155301107703263e-06
-4.406528060274528e-06
-4.968633648128051e-06
-5.214941959832964e-06
-4.577095346042226e-06
-4.134774766129112e-06
-1.5090131329220657e-06
-4.6208119907076295e-06
-4.620074623207238e-06
-4.610840189767096e-06
-4.592921971191544e-06
-1.0850636218528997e-05
-1.079004492954283e-05
-1.0786305504106863e-05
-1.0839466959233768e-05
-1.9423947747898573e-05
-1.9277816321161545e-05
-1.927118545808071e-05
-1.940398465227755e-05
-2.926594826069273e-05
-2.9060444939110752e-05
-2.9082200739383168e-05
-2.933130382842819e-05
-3.9258911239348215e-05
-3.895366430550773e-05
-3.895655551522381e-05
-3.9267392331843176e-05
-4.8452848282032335e-05
-4.808219512453249e-05
-4.808754603435883e-05
-4.8468929537359706e-05
-5.621571804392822e-05
-5.5792488566908105e-05
-5.579897128582534e-05
-5.6235205957877454e-05
-6.19558340616555e-05
-6.148936677519146e-05
-6.148853999365933e-05
-6.195316976376208e-05
-6.562330774928515e-05
-6.511567270472973e-05
-6.509653262398718e-05
-6.556556902204136e-05
-6.676223825330396e-05
-6.625969221829564e-05
-6.625158878736936e-05
-6.673769296938747e-05
-6.568395944117622e-05
-6.519223791401352e-05
-6.518995876658717e-05
-6.56770520103267e-05
-6.204920605401565e-05
-6.156951212055173e-05
-6.155640508109794e-05
-6.200962896663054e-05
-5.6203080618488777e-05
-5.5777183050276236e-05
-5.578066628486589e-05
-5.621353978402244e-05
-4.845564619460063e-05
-4.8090119655008756e-05
-4.810157871237841e-05
-4.8490120032829154e-05
-3.92535181682474e-05
-3.8961030938478025e-05
-3.897714784528716e-05
-3.930204931235082e-05
-2.9304970188936963e-05
-2.9076381698134313e-05
-2.9074937984541194e-05
-2.9300575249524563e-05
-1.943957547678732e-05
-1.9316823842041586e-05
-1.9334709026486152e-05
-1.949352083918665e-05
-1.0882448595150862e-05
-1.0844282364752544e-05
-1.0863804847938141e-05
-1.0941296967770242e-05
-4.663489020506617e-06
-4.679780182703652e-06
-4.689025405957281e-06
-4.691321488614619e-06
5.21200521630405e-08
1.765911183948532e-08
2.2819011347152696e-08
6.770666494126942e-08
5.728938913263093e-07
4.904140910033661e-07
5.021550901762595e-07
6.081868643148525e-07
6.430406238600028e-07
5.392010913318757e-07
5.579402850841575e-07
6.994256703807267e-07
7.705534432744798e-07
6.250128216644946e-07
6.185857290841312e-07
7.513071787479397e-07
7.299079721745372e-07
5.730580400764573e-07
5.556583760335521e-07
6.776366830441027e-07
5.950127064391353e-07
4.5588940300600456e-07
4.4258682579956243e-07
5.550648692342897e-07
4.6874694736853684e-07
3.559822325249762e-07
3.460854728909446e-07
4.3890747852826095e-07
3.1782063986129927e-07
2.2530090199035513e-07
2.054379373284121e-07
2.580563745469e-07
1.8748448210592628e-07
1.4734341641231552e-07
1.4510939799761147e-07
1.809132291752391e-07
-2.9277136492922295e-08
-2.108126145872191e-08
-1.3204039139846913e-08
-5.629843480292607e-09
-1.2045560010554013e-07
-9.604559825238113e-08
-1.0853321807946514e-07
-1.5803725783580802e-07
-3.082519496599989e-07
-2.3545808980340865e-07
-2.3468526555436853e-07
-3.0592348621016896e-07
-4.7675698042204395e-07
-3.7851393699939173e-07
-3.835067722279817e-07
-4.917904441459342e-07
-6.328275529432492e-07
-5.080254066869294e-07
-5.101734735224461e-07
-6.39341754121725e-07
-6.622842249337513e-07
-5.195640374322519e-07
-5.155872528361805e-07
-6.504200730228504e-07
-6.072189369515923e-07
-4.805188263123927e-07
-4.907423991618032e-07
-6.381264785193519e-07
-6.84590354654846e-07
-5.693929248790086e-07
-5.774458805146709e-07
-7.088706873437101e-07
-5.532988640033487e-07
-4.7648132998900916e-07
-4.932269261070932e-07
-6.036961250066586e-07
-9.145501464122296e-08
-5.096446835037294e-08
-5.088248443765875e-08
-9.109215807004412e-08
4.668607100438704e-06
4.682148271612646e-06
4.689194029707661e-06
4.689768230980995e-06
1.0852125231129717e-05
1.0790917131096867e-05
1.0786870177345587e-05
1.0839937241498288e-05
1.940059212114653e-05
1.9270375480315294e-05
1.928003005836898e-05
1.9429525629652278e-05
2.9234634105493318e-05
2.905081161741485e-05
2.9095390101832597e-05
2.9368795986597918e-05
3.911935945544176e-05
3.882634305490962e-05
3.8838985065237086e-05
3.91574175748477e-05
4.837966748583167e-05
4.803250583595986e-05
4.806083338992906e-05
4.846485171372539e-05
5.6167683713914673e-05
5.57547353969845e-05
5.5771047735020396e-05
5.621679528738932e-05
6.198272380347758e-05
6.152257557148766e-05
6.152808362916429e-05
6.199921888866422e-05
6.557219059433184e-05
6.508398928845027e-05
6.50834825824953e-05
6.557068929757826e-05
6.670817146742225e-05
6.621368795972637e-05
6.621219675512213e-05
6.670360675531395e-05
6.553881249077298e-05
6.506176963805288e-05
6.507189047055828e-05
6.556926940548546e-05
6.203760860046259e-05
6.157912860604853e-05
6.158771296443932e-05
6.206337673358986e-05
5.61177081675468e-05
5.569877693345493e-05
5.570806067844991e-05
5.614555950278488e-05
4.8343788719762415e-05
4.796182968530571e-05
4.795403049712155e-05
4.832026441364823e-05
3.925641278179626e-05
3.894033233886596e-05
3.8932283726367256e-05
3.923201210853655e-05
2.9257655093040125e-05
2.904032877676377e-05
2.905039877543203e-05
2.928783520256273e-05
1.938083055319506e-05
1.9272464846120663e-05
1.9304679061526997e-05
1.9477736283080027e-05
1.0799990333376641e-05
1.0754171490212627e-05
1.0764977517507823e-05
1.08324532208659e-05
4.5946198233837166e-06
4.610818920669502e-06
4.618919074661498e-06
4.6189720857015e-06
-9.718603277697468e-08
-6.674156827202182e-08
-7.714314664841737e-08
-1.2838904617229474e-07
-5.010323017584639e-07
-4.303972419572588e-07
-4.526206823785017e-07
-5.679636033706359e-07
-6.684560315273202e-07
-5.505170523889547e-07
-5.552880213421929e-07
-6.82842018817631e-07
-6.44496559232266e-07
-5.318759428440956e-07
-5.566297928139008e-07
-7.19226373457893e-07
-6.951663977794453e-07
-5.58194322208827e-07
-5.599499718345058e-07
-7.005962211481531e-07
-6.428362989696623e-07
-5.049061709838654e-07
-4.931201956770437e-07
-6.073406692008732e-07
-4.689232641075236e-07
-3.556585986830285e-07
-3.4497196066407554e-07
-4.367543534611329e-07
-3.454398721514096e-07
-2.6146911691338204e-07
-2.4999790670943156e-07
-3.10966374872379e-07
-5.166473915352299e-08
-1.1244308928404223e-08
-6.098366367446317e-09
-3.617934341004769e-08
1.2125097326176615e-07
1.0279947959546121e-07
8.57627928674276e-08
7.006416435917373e-08
2.319337857326076e-07
2.0046015958286034e-07
2.0713431803098814e-07
2.5204174469717344e-07
4.450109298836935e-07
3.692512402508896e-07
3.681148205147977e-07
4.415741372554294e-07
5.237248661416061e-07
4.172848631078807e-07
4.1405981476838605e-07
5.140027330430286e-07
6.735332999108223e-07
5.56771201809525e-07
5.672568461623229e-07
7.050877368630637e-07
6.951225767215519e-07
5.563637881511596e-07
5.56188023526083e-07
6.947711687077529e-07
6.772339670169103e-07
5.470989123956826e-07
5.548012654843504e-07
7.003832942498178e-07
6.860128777264052e-07
5.87483090397356e-07
6.125357479014326e-07
7.614746933004568e-07
6.108385413039485e-07
5.197967841708007e-07
5.229615812618604e-07
6.203418293493357e-07
1.0075364154094046e-07
7.648040933894151e-08
9.317305882383664e-08
1.5101730788114054e-07
1.1056135525988608e-06
9.680511541265702e-07
9.953968100884225e-07
1.188398504603505e-06
3.2804107508166425e-06
2.827118636639092e-06
2.8192144659877627e-06
3.256718721478258e-06
3.5088414491735165e-06
2.941667347600152e-06
2.9397325757019033e-06
3.5030798722912593e-06
3.9645587317505004e-06
3.300854629961769e-06
3.2836707546390898e-06
3.912761769364614e-06
3.6541259198497045e-06
3.021091699695333e-06
3.032578181016987e-06
3.6888953696134763e-06
3.1989821628330972e-06
2.618099995244094e-06
2.6235495939053166e-06
3.2154924203275925e-06
2.5933076656103893e-06
2.100082050482399e-06
2.0887478360265277e-06
2.559215907416146e-06
1.7716184137483992e-06
1.4258078425699594e-06
1.4195388576832002e-06
1.7526364238795722e-06
8.913218464412509e-07
7.140001344607683e-07
7.093940644908869e-07
8.774595910976402e-07
-3.448625607305189e-08
-2.8374957716792437e-08
-2.315071201408614e-08
-1.87916349148054e-08
-9.040023153383814e-07
-7.330679587802535e-07
-7.364349183802688e-07
-9.140736761947821e-07
-1.736353139936142e-06
-1.4047770884317856e-06
-1.4107443478961201e-06
-1.7542633343747838e-06
-2.55063641574349e-06
-2.0701108606191454e-06
-2.0700480376500963e-06
-2.5504505224427376e-06
-3.2415639624749915e-06
-2.6442933941384084e-06
-2.6336865842635504e-06
-3.2095168008838826e-06
-3.6735014505850927e-06
-3.026634214586821e-06
-3.02361629811454e-06
-3.664449730766961e-06
-3.917978356526852e-06
-3.2811506525121104e-06
-3.2885440450769465e-06
-3.940490970300026e-06
-3.504113403995923e-06
-2.93587092459191e-06
-2.930873614581664e-06
-3.4890378046714687e-06
-3.3023240915142082e-06
-2.8516687293755894e-06
-2.847201414524214e-06
-3.2888711485323796e-06
-1.1036715912293715e-06
-9.388633789297884e-07
-9.357711643342981e-07
-1.0943748939284959e-06
-1.6283513253334547e-06
-1.45369718917987e-06
-1.4471061827725507e-06
-1.6082260508865076e-06
1.787728261093413e-06
1.587528525748283e-06
1.5821645947822205e-06
1.7715732623102554e-06
5.194927069629429e-07
2.8045044353497417e-07
2.8314589717304273e-07
5.277272585590964e-07
1.2515987148908891e-06
8.915137904574877e-07
8.934452558895245e-07
1.2574222988392947e-06
1.110372385704217e-06
6.896335724704272e-07
6.779479021501444e-07
1.0751330076219645e-06
1.0725438769343398e-06
6.607434335226259e-07
6.625700947893165e-07
1.0782866318725937e-06
8.099971113839644e-07
4.6344397874875654e-07
4.787217012802714e-07
8.563052845689256e-07
5.904043148818872e-07
3.264300896255179e-07
3.297530721813047e-07
6.005744503934096e-07
2.771520729583088e-07
1.4345303922524977e-07
1.4975538464856442e-07
2.9618890484695015e-07
3.4194960418787446e-08
2.689627232044245e-08
2.030731893754023e-08
1.419884620990075e-08
-3.006462856447456e-07
-1.594460384835017e-07
-1.6045031792089048e-07
-3.0361881653284684e-07
-6.39243418198987e-07
-3.534427730489398e-07
-3.3720245018464823e-07
-5.901877218050799e-07
-8.487982590121845e-07
-4.95639944309012e-07
-5.068390757090313e-07
-8.82550900582757e-07
-1.0473831059121252e-06
-6.342061392716758e-07
-6.342172663709178e-07
-1.04748681351019e-06
-1.1323764801396408e-06
-7.161212245421211e-07
-7.100328848208548e-07
-1.1139987613484337e-06
-1.2626031702378526e-06
-8.956474319976593e-07
-8.90723244273417e-07
-1.2477195143745234e-06
-5.172673250841697e-07
-2.70164789872851e-07
-2.640967765588087e-07
-4.988822300822093e-07
-1.800699377052517e-06
-1.6021494863016628e-06
-1.599333809720882e-06
-1.792244007758903e-06
1.6430039423420695e-06
1.4628674617211956e-06
1.4523253312193063e-06
1.6112522727151912e-06
-3.5095170148879973e-06
-2.952550310575397e-06
-2.9505489608228075e-06
-3.503257683390437e-06
3.1193429015363705e-06
3.1464313607898475e-06
3.141930149164196e-06
3.1057928986388816e-06
4.6773116602061293e-07
5.520081792775855e-07
5.499938129371884e-07
4.6151035970609655e-07
1.941723890008795e-06
1.855268964567891e-06
1.8401595442973928e-06
1.896136480383781e-06
1.652970162413503e-06
1.4842247139101872e-06
1.4775295349434003e-06
1.63276326170525e-06
1.6993076210614078e-06
1.4685503758604668e-06
1.4754501896918626e-06
1.7201070428018994e-06
1.3495907608129798e-06
1.1090165024096876e-06
1.1171352555239267e-06
1.37416258982892e-06
9.665350132470607e-07
7.607094997252872e-07
7.59382304482692e-07
9.627058159544788e-07
5.090419603615004e-07
3.9950811936417807e-07
4.06119443185915e-07
5.291264165707688e-07
-1.3206353788319802e-09
-9.382503662891395e-10
-1.3753331806753977e-09
-2.6771432848349264e-09
-4.951166486799607e-07
-3.7065361613297654e-07
-3.616679841167425e-07
-4.68066917447274e-07
-9.458942369366952e-07
-7.531918843062257e-07
-7.668602048926942e-07
-9.871298009000995e-07
-1.4046691856339777e-06
-1.1488809212867324e-06
-1.1445868146608973e-06
-1.3918272494528594e-06
-1.6671033612469799e-06
-1.4444147534709018e-06
-1.4584744415513384e-06
-1.7095041818793177e-06
-1.6768191497540386e-06
-1.4962704385501624e-06
-1.4782167369054022e-06
-1.6223222508715551e-06
-1.94036509448825e-06
-1.859391887348849e-06
-1.851760329962815e-06
-1.917241094329114e-06
-4.744184696203746e-07
-5.520595260932737e-07
-5.4355741385681e-07
-4.4873494131625336e-07
-3.1231834670686354e-06
-3.152944503592714e-06
-3.151604541673514e-06
-3.119284246122511e-06
3.503901613854943e-06
2.972341357931896e-06
2.9975473031518263e-06
3.580016556981036e-06
-5.91349435852262e-06
-4.948679830807379e-06
-4.945994776295315e-06
-5.9052872100062714e-06
4.022587795637911e-06
4.284187008485318e-06
4.281527416938324e-06
4.01472560818128e-06
-4.0121448208196853e-07
5.4414223460419464e-08
4.8721169543242127e-08
-4.184349289282352e-07
1.742932332682301e-06
2.0328644261269346e-06
2.0199721798563885e-06
1.7039243837002616e-06
1.4546014550642639e-06
1.628776608586513e-06
1.6130847406703452e-06
1.4072241726337253e-06
1.8064296730679885e-06
1.8304490775333804e-06
1.828353858868148e-06
1.8002530004501693e-06
1.5400989661351616e-06
1.46272845202855e-06
1.4648696925467775e-06
1.5466405824948737e-06
1.1412243619002282e-06
1.019248265454742e-06
1.0080802849143922e-06
1.1075352777112357e-06
5.469054962237152e-07
4.844543791682199e-07
4.973280189890517e-07
5.857175706669437e-07
-1.6271887171015464e-09
1.1804567989770476e-08
2.5705521378149854e-08
4.0355885411180736e-08
-5.655707762119988e-07
-4.912362648878954e-07
-4.922579840416219e-07
-5.686256269177292e-07
-1.1192078478439171e-06
-1.009887770964113e-06
-1.0113904803654705e-06
-1.1238737609442495e-06
-1.5247517954897205e-06
-1.4362341166362924e-06
-1.4242037186251721e-06
-1.4885762555927329e-06
-1.816222777506482e-06
-1.840598814806249e-06
-1.8375292287764466e-06
-1.8069232741169117e-06
-1.4518041987487962e-06
-1.6342678931247079e-06
-1.6263924307313715e-06
-1.428049787866037e-06
-1.7076798122794834e-06
-2.0143772936909166e-06
-2.01766902924172e-06
-1.7175619798082131e-06
3.938476583198458e-07
-4.6742105408448253e-08
-2.5412384863088278e-08
4.582308127387691e-07
-3.974028315312239e-06
-4.249224435870502e-06
-4.258258830824868e-06
-4.0012452325877135e-06
5.8428877625082976e-06
4.880500503845475e-06
4.8777280208800455e-06
5.834483264632873e-06
-8.079477056832651e-06
-6.745448915101981e-06
-6.7433770446490016e-06
-8.073149168508209e-06
5.0955338836145e-06
5.565946775587527e-06
5.579897631169395e-06
5.137680980871195e-06
-1.0116938949922272e-06
-2.1043815068289007e-07
-2.1530778127054617e-07
-1.0262925814741308e-06
1.5985511657712337e-06
2.303089863486818e-06
2.3076663281385024e-06
1.6124073443091191e-06
1.0597217828811623e-06
1.718421805962933e-06
1.7338919214848758e-06
1.106440285725263e-06
2.0909995191997766e-06
2.494806159214491e-06
2.487549211172002e-06
2.069320191533386e-06
2.1065607056502955e-06
2.274439892868685e-06
2.2749609591699027e-06
2.108221956564904e-06
1.550266199967787e-06
1.5704342553046757e-06
1.5705968994250696e-06
1.5506783802576862e-06
8.572043390664419e-07
8.259022274970107e-07
8.214979569931558e-07
8.439766880918853e-07
1.4205416176693575e-08
7.422936154632964e-09
1.3657220909735202e-09
-4.0475214291291195e-09
-8.285598324109245e-07
-8.110985971754303e-07
-8.202374000010337e-07
-8.561917003158115e-07
-1.5868862567325337e-06
-1.616948108407179e-06
-1.6301699101717304e-06
-1.6269599192320072e-06
-2.074918650396551e-06
-2.254461002992869e-06
-2.2653093173508054e-06
-2.107667243567146e-06
-2.0973658985123933e-06
-2.5055390339145944e-06
-2.5023246320032833e-06
-2.087618003576708e-06
-1.0699608455344567e-06
-1.7143267433405995e-06
-1.715680733038738e-06
-1.0741293986482603e-06
-1.5898786301926648e-06
-2.2915790362509902e-06
-2.2932389028840205e-06
-1.5949010683802278e-06
1.0075633384842853e-06
2.1505918523789802e-07
2.2841414049068476e-07
1.04795603683705e-06
-5.116250452130711e-06
-5.571553428729281e-06
-5.5694216307689e-06
-5.10982038698371e-06
8.06460746100024e-06
6.738596611488568e-06
6.743772885287047e-06
8.080109970165505e-06
-9.954864815919784e-06
-8.32701815967063e-06
-8.336427707700267e-06
-9.98324026513231e-06
6.108563204487716e-06
6.696400067895958e-06
6.686257341792512e-06
6.078015672872361e-06
-1.621799414874836e-06
-5.373394361685158e-07
-5.391711737079419e-07
-1.6272959842966728e-06
1.5514708446850989e-06
2.589130557839603e-06
2.583354911545044e-06
1.5341355873443874e-06
4.852256337839478e-07
1.6123758722619286e-06
1.604987571401928e-06
4.6305003098545683e-07
1.4242585862911383e-06
2.439950289478965e-06
2.4587348765869876e-06
1.4809229318402117e-06
2.8886448126819175e-06
3.489828262925876e-06
3.487283943726105e-06
2.881062637793974e-06
2.4727623423315137e-06
2.7018113535337562e-06
2.7073492674389854e-06
2.4893956213078994e-06
1.3807822543121517e-06
1.438951726107085e-06
1.446545420336065e-06
1.4038958456863426e-06
1.1281377942928827e-08
2.382077757268064e-09
-6.460770585192677e-09
-1.543260286229753e-08
-1.4104682348747843e-06
-1.4526377462575901e-06
-1.44474192853572e-06
-1.3869181219039461e-06
-2.4842224839449756e-06
-2.709502397835184e-06
-2.711151236012288e-06
-2.4892206200721745e-06
-2.8494531113532062e-06
-3.456451728389709e-06
-3.457845655641112e-06
-2.8536363625430994e-06
-1.4721404340001243e-06
-2.456933114236559e-06
-2.4450805043985113e-06
-1.4362157662040076e-06
-4.756620936574585e-07
-1.6200169352109661e-06
-1.6323825905439904e-06
-5.129902289624511e-07
-1.5588432298874189e-06
-2.5908255612550057e-06
-2.5804829076880864e-06
-1.5277086603537882e-06
1.6204580605139185e-06
5.256880629134209e-07
5.173714089923287e-07
1.595241191920671e-06
-6.071937904139624e-06
-6.67786072450216e-06
-6.685315806442826e-06
-6.094577833570813e-06
9.99988155059306e-06
8.37367435546632e-06
8.385828392520889e-06
1.0036425220849576e-05
-1.1577110239358035e-05
-9.715618593642006e-06
-9.72755413408688e-06
-1.1613130135423866e-05
6.902797684227302e-06
7.601995920092364e-06
7.613351954094405e-06
6.937102862814015e-06
-2.0491757483087625e-06
-7.630673142244859e-07
-7.599647660061493e-07
-2.039629314332103e-06
1.4581393916746066e-06
2.756999955111361e-06
2.767697184324902e-06
1.4904969076745544e-06
2.661808186088521e-07
1.7755330651292311e-06
1.7739343443068378e-06
2.6134757391549357e-07
3.97770070215131e-07
2.048089097095307e-06
2.0456658800238614e-06
3.905159439154815e-07
1.2010764812719898e-06
2.6882260030225424e-06
2.6898485306903197e-06
1.2058590469488095e-06
5.258844042677069e-06
5.916216040735556e-06
5.876939474180887e-06
5.140459678254494e-06
2.0765040681380853e-06
2.293401046182808e-06
2.328834856069051e-06
2.1827860365863927e-06
2.282104888395864e-08
1.941279548223207e-08
1.6563437232886002e-08
1.4268659087601776e-08
-2.086433529002729e-06
-2.294190136364893e-06
-2.320969950952989e-06
-2.1666006415621553e-06
-5.199957178625425e-06
-5.888014777521988e-06
-5.8782461813677855e-06
-5.170683375022023e-06
-1.2574156476596876e-06
-2.732980504016602e-06
-2.7250920177634974e-06
-1.233437922021352e-06
-3.7501864541544805e-07
-2.0133567346647396e-06
-1.997679303700206e-06
-3.274984403667247e-07
-3.1290830510011247e-07
-1.816402426857433e-06
-1.8116420626990148e-06
-2.985620726203564e-07
-1.4425298646703055e-06
-2.740788575650299e-06
-2.750221316516477e-06
-1.4711473931838803e-06
2.0760164882172027e-06
7.703187805407907e-07
7.485387457650816e-07
2.010117524375854e-06
-6.86920692427595e-06
-7.565840968282167e-06
-7.57297110071109e-06
-6.890915090151939e-06
1.1525116260624468e-05
9.656982329853125e-06
9.659559634445092e-06
1.1532913041789605e-05
-1.2686953854368355e-05
-1.0647067353208861e-05
-1.0640732777789097e-05
-1.2667669965438222e-05
7.529845943876623e-06
8.275620866027289e-06
8.28473980929445e-06
7.5575522978654774e-06
-2.4066120331012186e-06
-1.0019381881942735e-06
-1.0041872884336556e-06
-2.4133895799582916e-06
1.4480039395303734e-06
2.896969957588702e-06
2.9105716120580993e-06
1.489165378121271e-06
-5.482403020451443e-08
1.6600149658207997e-06
1.6376906758486243e-06
-1.220907004384486e-07
8.371373489968192e-07
2.876917691629899e-06
2.878126554750615e-06
8.405514204667952e-07
-1.3510191785304215e-06
1.134367862976049e-06
1.11474287634028e-06
-1.4101149287126802e-06
7.022967541958636e-07
3.0592422509689854e-06
3.1209639392848487e-06
8.874236234746036e-07
1.0968876380523795e-05
1.1399976866055539e-05
1.1275281343425814e-05
1.0595385622813591e-05
-3.152936839390108e-08
-1.2901453572133903e-08
4.030831779466837e-09
1.9566481657129486e-08
-1.1028350046626834e-05
-1.145074680813929e-05
-1.132206074655473e-05
-1.0642557290885257e-05
-6.966519762174883e-07
-3.0451125028752024e-06
-3.0988835146850136e-06
-8.577233360784753e-07
1.4001114392314662e-06
-1.0952759284532654e-06
-1.084707118792494e-06
1.4318799163026696e-06
-8.697053887618544e-07
-2.9076365902214185e-06
-2.908397151391018e-06
-8.7172919388534e-07
9.980208603987961e-08
-1.6340086916311058e-06
-1.6310245022355119e-06
1.0889558504922903e-07
-1.4755451481773818e-06
-2.899032762015974e-06
-2.8872770458931996e-06
-1.4401804727115497e-06
2.3629162888005872e-06
9.55286692916335e-07
9.536961245726339e-07
2.3579036391163655e-06
-7.5438456327847625e-06
-8.279852627524065e-06
-8.277660774880236e-06
-7.537389278333695e-06
1.2640779350592268e-05
1.0627301048282689e-05
1.064682800205885e-05
1.2699772527380304e-05
-1.3368438835814622e-05
-1.1231577518255875e-05
-1.1222693371726322e-05
-1.3341489398688289e-05
7.892072874771117e-06
8.65768780522469e-06
8.66129031895646e-06
7.903053715563324e-06
-2.5254485085390854e-06
-1.0689359531967924e-06
-1.082186149803377e-06
-2.5654973990762997e-06
1.390877161222548e-06
2.898500411463445e-06
2.8996682940318763e-06
1.394566408019493e-06
4.972959577465019e-08
1.899151350959194e-06
1.9122013251715586e-06
8.9009586923261e-08
-5.17560174828624e-07
1.698899818936006e-06
1.6752252447460592e-06
-5.887799725545761e-07
3.0821006502534942e-06
5.950594172521306e-06
6.053347070267279e-06
3.39098010537775e-06
-8.346004088555237e-06
-4.3942500557170305e-06
-4.694353216705416e-06
-9.248985791965314e-06
3.9513382390499174e-06
8.888494510639333e-06
9.595044194676827e-06
6.0693472649919755e-06
-7.63035673534418e-09
-1.030138757629473e-08
-1.3831524148244512e-08
-1.820869016677662e-08
-3.933456828808524e-06
-8.874878419273813e-06
-9.585396320344053e-06
-6.063265143518848e-06
8.346659731595096e-06
4.4063151071194184e-06
4.718368227130121e-06
9.285834712102758e-06
-3.0700901713087703e-06
-5.935273036994371e-06
-6.033660107651606e-06
-3.3656568318995994e-06
4.942318329037576e-07
-1.710216983974444e-06
-1.6750582531033231e-06
6.001067692773532e-07
-2.6480882875379308e-08
-1.8799229214438995e-06
-1.895888605274454e-06
-7.461500656225084e-08
-1.3863698711813477e-06
-2.8999265166418375e-06
-2.906598554397455e-06
-1.4066551733971089e-06
2.597406666471347e-06
1.1097908204638074e-06
1.0953569545835151e-06
2.5537494956484608e-06
-7.915068389374724e-06
-8.68006397275467e-06
-8.682738240339827e-06
-7.923240484486449e-06
1.334902669275495e-05
1.1232201507560546e-05
1.124176797523413e-05
1.3377936849079397e-05
-1.3641305791511904e-05
-1.1478825798216796e-05
-1.1476061242521318e-05
-1.3632731862722736e-05
8.121958973372756e-06
8.869476503914342e-06
8.851084010053079e-06
8.066376941506803e-06
-2.7231577585107303e-06
-1.2333803651731756e-06
-1.2366415031994649e-06
-2.733082712480517e-06
1.7715476228197247e-06
3.3009645356019135e-06
3.31271830378288e-06
1.806813627491799e-06
-1.333402776748649e-06
5.076284431693168e-07
4.4415386390994627e-07
-1.5243155329081048e-06
3.994806152984864e-06
6.345047406819404e-06
6.550623446899273e-06
4.613135956343939e-06
-1.1902414665698746e-05
-9.198194945880811e-06
-9.870336141026836e-06
-1.3925691116911665e-05
3.51754956145478e-05
4.001677205028864e-05
4.2072701291806514e-05
4.136934315629448e-05
-8.311609565703204e-05
-7.638052172725951e-05
-8.149604833629365e-05
-9.85704112268504e-05
8.72744487789845e-09
-1.5521156582209983e-09
-1.2351792477716117e-08
-2.375183688618776e-08
8.31001343136184e-05
7.637927941023248e-05
8.150992984401473e-05
9.860021291002719e-05
-3.520164533599157e-05
-4.003562711324404e-05
-4.208364481389504e-05
-4.137148131655444e-05
1.1888006974603016e-05
9.199419293393074e-06
9.88821322406297e-06
1.3961568676779113e-05
-4.031140608540262e-06
-6.381539583266704e-06
-6.590621262958507e-06
-4.65998183096783e-06
1.3111290350087401e-06
-5.215082464760101e-07
-4.5119474190169484e-07
1.522605525883236e-06
-1.7419196773338363e-06
-3.2802455985914136e-06
-3.3002310461105466e-06
-1.8020561615705866e-06
2.77818068100677e-06
1.2740802391442152e-06
1.2671038125411371e-06
2.756960829297661e-06
-8.049566901258132e-06
-8.823663635748602e-06
-8.829289382839e-06
-8.06666489089336e-06
1.3578224879406964e-05
1.1417948303282799e-05
1.1412560638246472e-05
1.3561974295306367e-05
-1.3327450322120349e-05
-1.1207384073674831e-05
-1.1214032929918183e-05
-1.3347450694034535e-05
7.92953142836339e-06
8.683916317142604e-06
8.677107538712647e-06
7.909042911147246e-06
-2.5686054926365998e-06
-1.0879509201311421e-06
-1.0777256034266713e-06
-2.5377024350792254e-06
1.3925992914387564e-06
2.9046491736295366e-06
2.9089937536586064e-06
1.405782870445016e-06
2.588604619546686e-08
1.8664417701375058e-06
1.8675117815503128e-06
2.9020050251737928e-08
-5.0761674830202e-07
1.7062894260289063e-06
1.6799201458805868e-06
-5.869634265298629e-07
3.0746129781045184e-06
5.94225735611742e-06
6.0439454038774265e-06
3.380234988192843e-06
-8.387052395864014e-06
-4.438001401319003e-06
-4.742813748348507e-06
-9.304284408873098e-06
3.950672360142349e-06
8.885320298801513e-06
9.588884945843645e-06
6.0596989051586725e-06
4.564822408958946e-09
6.8533342889587345e-09
1.0036217246156554e-08
1.4107634727089646e-08
-3.9564428858107625e-06
-8.89096274930834e-06
-9.59417396345641e-06
-6.064315160536626e-06
8.377966739636644e-06
4.4337285540763105e-06
4.7431942103437486e-06
9.309313984684486e-06
-3.108039530186346e-06
-5.961333309711936e-06
-6.050176096172866e-06
-3.3747300949849013e-06
4.996296291137625e-07
-1.7046222355321383e-06
-1.6701715032652054e-06
6.033190465548621e-07
-1.3956080402444115e-08
-1.866120029558882e-06
-1.8804999493693408e-06
-5.737890645951538e-08
-1.396164336975314e-06
-2.90543037173574e-06
-2.9072471422475488e-06
-1.4016932868843313e-06
2.5650009201627633e-06
1.094836108439523e-06
1.0968694484358998e-06
2.571064899259401e-06
-7.927577004018804e-06
-8.692324433901e-06
-8.696672495700497e-06
-7.940712758003343e-06
1.3351156572749545e-05
1.123994762730618e-05
1.1255898340278847e-05
1.3399160353810835e-05
-1.2662942132868338e-05
-1.0639561310199497e-05
-1.0649437250154214e-05
-1.2692752300202947e-05
7.494997154799954e-06
8.234063870737884e-06
8.233234545906853e-06
7.492473383718945e-06
-2.353079330608132e-06
-9.513741616729021e-07
-9.551513203698292e-07
-2.3644354850693716e-06
1.4381834247956249e-06
2.875450191397455e-06
2.875870461216401e-06
1.4393999757666975e-06
-7.867907070302493e-08
1.6483175281356566e-06
1.6373261197966116e-06
-1.1191997706383461e-07
8.701087773621552e-07
2.9088081421324574e-06
2.909028589070939e-06
8.706133614033718e-07
-1.3781122972789106e-06
1.1244327148829392e-06
1.1218242118582467e-06
-1.3857943316208932e-06
6.794516917429938e-07
3.0376955021949037e-06
3.1006411586043114e-06
8.683617940263844e-07
1.1015278802484207e-05
1.1428876876551364e-05
1.1288498614425713e-05
1.0594431046062613e-05
-1.0486398915876549e-08
-9.574515791310745e-09
-8.88302936763452e-09
-8.641763582506456e-09
-1.0952851456080825e-05
-1.1396919885831025e-05
-1.1285386008530462e-05
-1.0619148626878072e-05
-6.966141318232033e-07
-3.050687002736918e-06
-3.1109778165228086e-06
-8.774193673288799e-07
1.371567656838213e-06
-1.1257828581578977e-06
-1.119793484272158e-06
1.3896110624411762e-06
-8.513371014262638e-07
-2.886830057446943e-06
-2.8848187874630504e-06
-8.452309754880538e-07
1.0991698901063884e-07
-1.6406819928760363e-06
-1.654159838437863e-06
6.912079003607019e-08
-1.4906399740111098e-06
-2.9107749879853095e-06
-2.8956274679137195e-06
-1.4450746317895558e-06
2.411605997676425e-06
9.942739274682033e-07
9.849862360744588e-07
2.383560139762597e-06
-7.530225402202495e-06
-8.269553933348828e-06
-8.270665835613533e-06
-7.53362027067217e-06
1.2676621816531952e-05
1.0637425634202335e-05
1.0630328571181735e-05
1.2655310948850307e-05
-1.1562352325800163e-05
-9.68708575488364e-06
-9.683955601968997e-06
-1.155304875410934e-05
6.905185282235493e-06
7.596384576369353e-06
7.599394752477728e-06
6.91410939279713e-06
-2.041820012843587e-06
-7.648241524549348e-07
-7.711139621280338e-07
-2.060894662481161e-06
1.4962775145566098e-06
2.7799882481582827e-06
2.775192528114978e-06
1.4817434967895338e-06
2.705095544230929e-07
1.797144984216903e-06
1.8131427962919666e-06
3.1889084373126764e-07
3.6092813077148733e-07
2.0056177915672713e-06
1.995840241075797e-06
3.3151010042642426e-07
1.2208399819968463e-06
2.7044204844450803e-06
2.7028843370691114e-06
1.2161174740565883e-06
5.2567072506559676e-06
5.933929667856219e-06
5.915395748568031e-06
5.201021896883429e-06
2.0792762935872844e-06
2.2983880098026432e-06
2.3367740664692604e-06
2.1945329631845034e-06
3.010522964252971e-08
1.1943527333801995e-08
-5.193707686146354e-09
-2.174232033302914e-08
-2.0695468285758523e-06
-2.2927163679797857e-06
-2.3337196260464488e-06
-2.1928692175432474e-06
-5.224727386177186e-06
-5.913347454977735e-06
-5.906772891473011e-06
-5.205054151635746e-06
-1.2314446546368707e-06
-2.7032761137357753e-06
-2.6912176756543893e-06
-1.1949700308155897e-06
-3.8321683026865117e-07
-2.0417774382330833e-06
-2.0487938990898513e-06
-4.043477033754961e-07
-2.8512048017015346e-07
-1.7806013423160572e-06
-1.7662253119499205e-06
-2.418401592318986e-07
-1.4877900628151863e-06
-2.7742100646155343e-06
-2.77397749651187e-06
-1.4870402371969238e-06
2.052341478125941e-06
7.733091391126656e-07
7.785081172773101e-07
2.0678252305450506e-06
-6.936549607317044e-06
-7.623851013105476e-06
-7.624679641521359e-06
-6.939171658976173e-06
1.1525313003052373e-05
9.665509766526581e-06
9.676305697037257e-06
1.1558016438928398e-05
-9.989059788884092e-06
-8.37094213768097e-06
-8.392153099223698e-06
-1.005338000337197e-05
6.133284480958068e-06
6.709497888723881e-06
6.688019308032089e-06
6.068382331969602e-06
-1.605312378916146e-06
-5.228584091243604e-07
-5.263394273757882e-07
-1.6159186637665357e-06
1.521948465810219e-06
2.5584696395908324e-06
2.5500566632752353e-06
1.4965057281157712e-06
4.284303009582935e-07
1.5738776626972317e-06
1.5837736246915313e-06
4.5838735018843835e-07
1.4512306549252507e-06
2.445027376118958e-06
2.442031014682211e-06
1.4422500526634074e-06
2.8727568491260236e-06
3.473180340662907e-06
3.469204185535535e-06
2.860834604934137e-06
2.4931392035298927e-06
2.7159478261928882e-06
2.7165042738030998e-06
2.4948637343813473e-06
1.3749112257044338e-06
1.4379856753676812e-06
1.4512616833273206e-06
1.415094332601896e-06
1.3637706630653668e-08
4.614122750545846e-09
-3.841997497922023e-09
-1.199089061376668e-08
-1.3679401371091693e-06
-1.427730881631284e-06
-1.4360530758983359e-06
-1.3933828669765447e-06
-2.514335834757908e-06
-2.73975952080896e-06
-2.742558687152119e-06
-2.5227863778010118e-06
-2.8911928391384123e-06
-3.478061114059461e-06
-3.4601478493545557e-06
-2.8371341981858755e-06
-1.4517031271810144e-06
-2.445883020979478e-06
-2.4430658801533056e-06
-1.4433093801502483e-06
-4.941244673706269e-07
-1.631221215270262e-06
-1.6364142504665669e-06
-5.097321292557577e-07
-1.5017325947497273e-06
-2.5527441513684135e-06
-2.5596138889250053e-06
-1.5224291417537117e-06
1.6370368865481488e-06
5.40261058751268e-07
5.311615073610998e-07
1.6095199360244283e-06
-6.0634653170077435e-06
-6.658808085008294e-06
-6.653523241362258e-06
-6.047487075999669e-06
9.978736295684909e-06
8.360151912939484e-06
8.379744302122738e-06
1.0038017634800278e-05
-8.00850069582193e-06
-6.719033908919592e-06
-6.760504109970533e-06
-8.133962693723795e-06
5.099695421395545e-06
5.5508718630470355e-06
5.543783219708054e-06
5.078043778694585e-06
-1.035187826126105e-06
-2.259240039492738e-07
-2.2378675434975293e-07
-1.028770525435263e-06
1.6373815442394246e-06
2.32269151856368e-06
2.30927547362203e-06
1.5968727732351695e-06
1.1372607001125523e-06
1.775962861660929e-06
1.774669099174897e-06
1.1334246170502382e-06
2.101005428079006e-06
2.515992728435723e-06
2.5198739120879665e-06
2.1129165084787793e-06
2.057455119164331e-06
2.2422282087153356e-06
2.257992692988875e-06
2.1051170940311614e-06
1.589502185317393e-06
1.6164752501546253e-06
1.6266587976043745e-06
1.620458946416381e-06
8.502335884230661e-07
8.146088782412519e-07
8.053995703694028e-07
8.225074915602093e-07
8.177435451006687e-09
9.380660748181668e-09
1.2048935960073948e-08
1.6174711625627225e-08
-8.665047462330655e-07
-8.43141730211272e-07
-8.461899042022658e-07
-8.75683019929685e-07
-1.5633628501765529e-06
-1.5859865518108585e-06
-1.5891954092128735e-06
-1.5730780492106966e-06
-2.063010128894316e-06
-2.2335419259666978e-06
-2.23448578723362e-06
-2.0658314509036657e-06
-2.1061832379543066e-06
-2.5183060378408673e-06
-2.519778668663708e-06
-2.1105460323023184e-06
-1.1186192059864375e-06
-1.7461603637747292e-06
-1.7314499029530417e-06
-1.0740444347789868e-06
-1.6755425221448572e-06
-2.3466879925937434e-06
-2.3191029770164295e-06
-1.592328968763601e-06
1.04650804183537e-06
2.2855754169825993e-07
2.1908633179856807e-07
1.017847661044513e-06
-5.107246197316728e-06
-5.552601780062227e-06
-5.53862858782006e-06
-5.064926155651239e-06
8.051082481363991e-06
6.721917382990217e-06
6.722535968561871e-06
8.05310381665758e-06
-5.861224523506792e-06
-4.9033870594961115e-06
-4.907164818712673e-06
-5.872756102864862e-06
4.009345331401626e-06
4.27032508742986e-06
4.264815664289934e-06
3.992587616852283e-06
-4.0840267212516324e-07
5.066750574655998e-08
4.796975472398657e-08
-4.1656717719718017e-07
1.6780621501233384e-06
1.9864469002484064e-06
1.9892501725293776e-06
1.6865566291879297e-06
1.4379862227631435e-06
1.6257504841798998e-06
1.622555586222596e-06
1.428433526295958e-06
1.8018161166422075e-06
1.8348113138277888e-06
1.8407957341204373e-06
1.8199791386175335e-06
1.5668842683891349e-06
1.472631018017978e-06
1.456861187243419e-06
1.5194881850533193e-06
1.1035022176031362e-06
1.0104298238111653e-06
1.0288859056961641e-06
1.1594197247277727e-06
5.639937294965591e-07
4.979784731795611e-07
5.076612409893322e-07
5.933125321044841e-07
7.547600877622074e-09
3.0692079988625665e-09
-2.1696294760786827e-10
-2.3504699298015908e-09
-5.941354227489981e-07
-5.045484799959254e-07
-4.906223250444874e-07
-5.520462816321903e-07
-1.154995173835438e-06
-1.030746748564848e-06
-1.0201867264303388e-06
-1.1231349092977183e-06
-1.523647382400961e-06
-1.4457408115398085e-06
-1.4469201895517259e-06
-1.5271089448265496e-06
-1.8196511222534628e-06
-1.8361187174853466e-06
-1.8264475940277247e-06
-1.790403742901736e-06
-1.4469136823958006e-06
-1.62730512623388e-06
-1.6174519908707108e-06
-1.4170516568767777e-06
-1.715382397682319e-06
-2.0160614246089725e-06
-2.013095962899447e-06
-1.706322715788744e-06
4.5222201017214303e-07
-2.6206889880420192e-08
-4.068207790086653e-08
4.084808913895621e-07
-3.991204010511673e-06
-4.260363163532954e-06
-4.262323963666326e-06
-3.997042228115477e-06
5.910132878206298e-06
4.949902466550027e-06
4.953978634369971e-06
5.922475875802524e-06
-3.4977106627698262e-06
-2.9495632274390005e-06
-2.956866158254634e-06
-3.5197843348822033e-06
3.124280667288204e-06
3.153019916712907e-06
3.1505685045285503e-06
3.116856125529033e-06
4.5555640182382007e-07
5.349160062673164e-07
5.268093937749185e-07
4.3101075364315733e-07
1.905006530966702e-06
1.8458260693798856e-06
1.8586282161114909e-06
1.9436535614869577e-06
1.61947049859279e-06
1.4585464615524124e-06
1.458877465609909e-06
1.6205631822585609e-06
1.6961082588418108e-06
1.459007891335684e-06
1.4595283021612282e-06
1.6976633627208138e-06
1.3818066875725954e-06
1.1187544883273226e-06
1.1051008708129473e-06
1.3406415716454845e-06
9.361941763486037e-07
7.462243547529113e-07
7.620763193827429e-07
9.841141982436241e-07
5.170413937549689e-07
3.9852772665271985e-07
3.967191402054482e-07
5.116536560545448e-07
-5.052526758086984e-08
-3.7260703356079006e-08
-2.5738086328885856e-08
-1.5728819580118625e-08
-4.5347645905025047e-07
-3.4836840906438127e-07
-3.5781837925963345e-07
-4.818361392655568e-07
-9.807582495025002e-07
-7.770851569444126e-07
-7.807776619128681e-07
-9.918151167020994e-07
-1.3696856062395124e-06
-1.1181385597969218e-06
-1.117099139025246e-06
-1.3665607853929895e-06
-1.7260406408869944e-06
-1.4726943799170389e-06
-1.4582200285884195e-06
-1.682261729085699e-06
-1.6508708352847012e-06
-1.4842444503171404e-06
-1.479752188088268e-06
-1.637049839658955e-06
-1.915336581059801e-06
-1.829821649534935e-06
-1.8150238368097593e-06
-1.8705869100632544e-06
-4.6979523810053436e-07
-5.554240500166285e-07
-5.554332282581287e-07
-4.6968216693699105e-07
-3.127910551611879e-06
-3.155960322936968e-06
-3.1532003495343686e-06
-3.119678269408732e-06
3.4993233866131845e-06
2.948255088564e-06
2.9520659427934026e-06
3.5107624864333387e-06
-1.6200444954428406e-06
-1.4560561395482452e-06
-1.4608804718152513e-06
-1.6347657031401397e-06
1.8151485069450857e-06
1.6127406614607764e-06
1.6059483085584247e-06
1.7945613343117728e-06
5.22996107643614e-07
2.762763485764097e-07
2.7094415366857305e-07
5.068318101875136e-07
1.2991673437046103e-06
9.251295203238641e-07
9.158894822003383e-07
1.271359793497684e-06
1.1174014042381053e-06
6.953833471823323e-07
6.828121979496338e-07
1.079413764759618e-06
1.0923435949106164e-06
6.720069365973025e-07
6.647953139093943e-07
1.070598778463161e-06
8.074170992911078e-07
4.503967312996515e-07
4.529456749668981e-07
8.151495345387616e-07
6.192823646111734e-07
3.530949366781222e-07
3.5578074475406396e-07
6.274588453814012e-07
3.2165628116587186e-07
1.674337343771093e-07
1.5667574049249566e-07
2.8935205903524164e-07
1.0049448662119431e-08
1.751551326201195e-08
2.6565073363293834e-08
3.740496939963478e-08
-2.895708869909974e-07
-1.5726314311903522e-07
-1.663954289354841e-07
-3.170528511953208e-07
-5.999508127796371e-07
-3.2627524759742954e-07
-3.2036753611075497e-07
-5.821207269829376e-07
-8.798608506499495e-07
-5.19278733540629e-07
-5.226822484272198e-07
-8.90159697897186e-07
-1.0897108100316188e-06
-6.741129293386106e-07
-6.722264410952139e-07
-1.0839940738083254e-06
-1.1073315520915283e-06
-6.748803259570835e-07
-6.499257876324549e-07
-1.031949472624083e-06
-1.2944041315743338e-06
-9.368629400041684e-07
-9.447547106022913e-07
-1.3180197412088202e-06
-5.515503695568968e-07
-2.844672169766138e-07
-2.590302925487009e-07
-4.7476507890331643e-07
-1.7966981127048864e-06
-1.5987405305728508e-06
-1.5955248365839836e-06
-1.7869971279116381e-06
1.657590766548922e-06
1.4868291248471e-06
1.4862940077506326e-06
1.6559849247699265e-06
1.1177878537216301e-06
9.585340239315343e-07
9.617276853779444e-07
1.1273527458222077e-06
3.290528007071636e-06
2.8396937966634894e-06
2.8346115009680872e-06
3.275253913970211e-06
3.522656991439277e-06
2.947747298032155e-06
2.937403452363263e-06
3.491448800296837e-06
3.898350103004322e-06
3.2570822214306183e-06
3.2603567341471518e-06
3.908080793646462e-06
3.719766859311413e-06
3.0571980895177653e-06
3.041008214632601e-06
3.670966968349898e-06
3.221673727626939e-06
2.6403128955410082e-06
2.646878396461716e-06
3.2413376422901763e-06
2.5426742269463176e-06
2.070529189268644e-06
2.0789273012522536e-06
2.5679695785929546e-06
1.7840310859718045e-06
1.433760119573524e-06
1.4235557509456598e-06
1.7531816986493531e-06
8.912303997021809e-07
7.264258083949926e-07
7.377631424110298e-07
9.255132472074656e-07
-4.0573688298017885e-08
-4.0561420222573474e-08
-4.2202654426670705e-08
-4.532455855077444e-08
-8.958684709625686e-07
-7.184784627245477e-07
-7.160806564376898e-07
-8.888319209532369e-07
-1.7336390036593041e-06
-1.3958644681788535e-06
-1.395695819278453e-06
-1.7331905984296903e-06
-2.5547234345224545e-06
-2.075945435942028e-06
-2.077897390040384e-06
-2.5607665968541138e-06
-3.218023989309815e-06
-2.6372578654509926e-06
-2.643538996593975e-06
-3.2370350187271857e-06
-3.673800048648035e-06
-3.032605903757757e-06
-3.0368212687315044e-06
-3.6864068246877935e-06
-3.9350178233782396e-06
-3.2888957952059705e-06
-3.2890252575634715e-06
-3.935429206722296e-06
-3.5235625335111598e-06
-2.9440002710379165e-06
-2.9285213254820475e-06
-3.476819753642224e-06
-3.238597806147492e-06
-2.799043730995765e-06
-2.8034527419368294e-06
-3.2518988912835778e-06
-1.1433811615557676e-06
-9.89857613611922e-07
-1.0001352216404413e-06
-1.17439453870688e-06
SCALARS strain13 float
LOOKUP_TABLE default
-3.429838064450408e-06
3.4297203235222895e-06
3.45443305925508e-06
-3.5845921704247274e-06
-3.4295741438983285e-06
3.4362226394302198e-06
3.510854481164616e-06
-3.5249806490389446e-06
2.0940497169608108e-07
7.36881505147835e-07
8.849538766231291e-07
9.631652984065653e-07
9.512436818237546e-07
8.862667483233722e-07
8.256142928209087e-07
5.956767040737887e-07
1.7709322119863202e-07
7.723118045088739e-08
-2.79393006508144e-07
-5.260249599237099e-07
-7.062046846195713e-07
-7.980855536438014e-07
-9.53767145150941e-07
-9.82761867773796e-07
-8.325728210190064e-07
-7.412746798607373e-07
-1.8238720400631792e-07
4.719109365614038e-06
1.0916917451808672e-05
1.963918593239633e-05
2.9637440613461408e-05
3.977801266907832e-05
4.914245206583123e-05
5.6980334784018094e-05
6.29282933879427e-05
6.648239862350191e-05
6.775142183768068e-05
6.657319478026169e-05
6.28664414102642e-05
5.6973444967439724e-05
4.91906048598334e-05
3.983164151627472e-05
2.963635962875688e-05
1.9679681600437426e-05
1.0892164346007482e-05
4.588618649589704e-06
-2.545072865511866e-07
-6.306393856916892e-07
-8.417961504386673e-07
-9.02988354548051e-07
-8.862343913729198e-07
-7.986355961830949e-07
-7.619465086650123e-07
-4.646160536303512e-07
-3.0268123540899694e-07
4.627901506459864e-09
2.0954142249118846e-07
4.367490156198528e-07
7.052549081398851e-07
8.017423168693583e-07
9.933119156091408e-07
9.50059085735866e-07
8.158071435060421e-07
7.693010046772031e-07
1.0367323544091533e-07
-4.6456362686742025e-06
-1.099917059099731e-05
-1.9736632343447802e-05
-2.9711537109067265e-05
-3.982111313005632e-05
-4.913060124700497e-05
-5.69904513458841e-05
-6.291693522431085e-05
-6.656195957832622e-05
-6.773947907978695e-05
-6.651934246415525e-05
-6.283154307151761e-05
-5.703160349579406e-05
-4.92182711531175e-05
-3.97922679545859e-05
-2.9688688704121446e-05
-1.9587739577109353e-05
-1.0991422849770949e-05
-4.66342787275309e-06
1.576270963754567e-07
7.461786646345558e-07
8.757746947640754e-07
9.902624072966049e-07
8.888747318192003e-07
8.401540606550739e-07
7.390242164895255e-07
5.942745406883887e-07
2.498298138364774e-07
4.322314628435464e-08
-3.409895625861026e-07
-4.4306991831000175e-07
-7.117564726488723e-07
-7.925726895896545e-07
-9.432681398191534e-07
-1.0417219324931892e-06
-8.451703132905664e-07
-7.854694467068768e-07
-2.0870193850885954e-07
4.686473601300811e-06
1.1015451885199035e-05
1.9619956451610854e-05
2.9659584036056952e-05
3.97545777716668e-05
4.92036853089739e-05
5.699027402661372e-05
6.289060604924845e-05
6.654707927783443e-05
6.780231446695817e-05
6.664009893431189e-05
6.295511191914405e-05
5.699811103002106e-05
4.916916793878956e-05
3.9877998838616646e-05
2.9718230321898464e-05
1.970109426151223e-05
1.0977589410599009e-05
4.638360922792906e-06
-1.54809126601263e-07
-7.953557511208853e-07
-9.196575075504088e-07
-9.368024322387036e-07
-9.277826056586225e-07
-8.762748513746477e-07
-6.662341262841931e-07
-4.666522369356496e-07
-2.3327396631023234e-07
-3.901570150288691e-08
2.7283598358351924e-07
5.597843225624288e-07
7.27542224576716e-07
8.097589054845145e-07
8.718949442432233e-07
9.257082896341196e-07
7.997947256699334e-07
7.147063242340934e-07
1.5339082237719737e-07
-4.651933141475162e-06
-1.0943239246441472e-05
-1.9709517440458235e-05
-2.974094256491533e-05
-3.982444694539122e-05
-4.9165106201121134e-05
-5.7022831645325844e-05
-6.294570352760598e-05
-6.650139206920702e-05
-6.783869571325152e-05
-6.653749812679521e-05
-6.289327987307747e-05
-5.7056800853549916e-05
-4.9208888208140955e-05
-3.981346428982846e-05
-2.9695828019260517e-05
-1.9651879198279154e-05
-1.1011263412408212e-05
-4.69843057337993e-06
-3.426994344413181e-06
-3.425600022866071e-06
-3.4254748689788173e-06
-3.426761953084778e-06
3.428309394593043e-06
3.4283359384712497e-06
3.4296055383409296e-06
3.4321901901668284e-06
3.462584259983359e-06
3.4723383523366236e-06
3.483559791558899e-06
3.4963550623740014e-06
-3.5683596588675925e-06
-3.554416129203375e-06
-3.54250133394185e-06
-3.5327011699282096e-06
1.4612795027346692e-06
-1.9338480963249083e-06
-4.616468790685779e-06
-7.755384633711948e-06
-1.0714364323538561e-05
-1.3283737825386943e-05
-1.5221602021942005e-05
-1.668891281658702e-05
-1.7554703666378124e-05
-1.786145607218792e-05
-1.75911058877265e-05
-1.6681779536731334e-05
-1.5220274454108562e-05
-1.3245836592234994e-05
-1.066646017000572e-05
-7.766799970831961e-06
-4.656024796934055e-06
-1.934914383827646e-06
1.4976793830667745e-06
4.154086048702155e-06
2.221753420461603e-06
3.0691654817616154e-06
3.4956458728752082e-06
4.2151915259358574e-06
4.861608484008073e-06
5.514299039943715e-06
6.059852681317146e-06
6.396055169721748e-06
6.5154707029613235e-06
6.395630042010936e-06
6.061719224570439e-06
5.539111382790729e-06
4.935048005250131e-06
4.185976549275772e-06
3.457495573178093e-06
3.102088938389258e-06
2.189975184085924e-06
4.123051918658582e-06
4.667305639305397e-06
1.0039217697155323e-06
2.577145793436486e-07
-1.2609600608115556e-06
-2.6694527939241652e-06
-3.7811184888658644e-06
-4.569309092095075e-06
-5.198838734066236e-06
-5.507754473166315e-06
-5.695062355370872e-06
-5.463300181807185e-06
-5.164478570907072e-06
-4.643517713787126e-06
-3.7524704079583415e-06
-2.600736515812052e-06
-1.290106531937063e-06
3.6277325998756993e-07
9.567435551582903e-07
4.657640947258734e-06
5.2326014644554775e-06
1.9937649405887825e-06
2.038035111784353e-06
1.117437791631204e-06
2.0703922520848295e-07
-5.044602919834773e-07
-1.031776414750496e-06
-1.3932254657733623e-06
-1.5762245170192202e-06
-1.264066611716963e-06
-1.5832126816217595e-06
-1.3191891244934695e-06
-1.125265144619192e-06
-5.398451542459881e-07
2.5459255115212187e-07
1.0971544486815255e-06
2.0879951468932845e-06
1.961458777732794e-06
5.213809999016217e-06
4.974358939091594e-06
1.944985787316611e-06
1.9752862168154195e-06
1.0851988314630745e-06
-1.4557847149987424e-07
-1.75755358733376e-06
-2.7634008391563825e-06
-3.5395063169296748e-06
-3.6640399107001898e-06
-5.040197223693532e-06
-3.6530014358993057e-06
-3.5212376182647276e-06
-2.7358727414106276e-06
-1.7626822205185633e-06
-1.5776874956463516e-07
1.0491031227632952e-06
1.9929224752690544e-06
1.9079857991322058e-06
4.968053213150192e-06
4.396084516744558e-06
1.8953364908647075e-06
2.138565013076743e-06
1.7619400816126785e-06
1.2769666437595362e-06
-5.001769474155537e-07
-2.932979054737217e-06
-3.1769584685203967e-06
-4.908479013798761e-06
-4.043416104160258e-07
-4.890176840133265e-06
-3.2271128931893323e-06
-2.8787892177306595e-06
-5.631099050940058e-07
1.2339017181339784e-06
1.7682093095272577e-06
2.1853625599699278e-06
1.9141776716469217e-06
4.425482120817836e-06
3.5156813583681057e-06
1.604157811585516e-06
1.8750211336904243e-06
1.7060344881247858e-06
1.7166860479811419e-06
1.6593969095479721e-06
-1.7207141497221912e-06
-6.295475625917035e-06
-2.5954238742631475e-06
-1.797694351085566e-05
-2.537206124586522e-06
-6.340655814840446e-06
-1.7535622741648993e-06
1.6067620126070103e-06
1.7759746805956489e-06
1.641463476642624e-06
1.889357096773736e-06
1.59620345241418e-06
3.47272527889686e-06
2.409617611665027e-06
1.1428820742009904e-06
1.4108508320509472e-06
1.3446144419004824e-06
1.5657417938852447e-06
2.0261748282512926e-06
3.857420743935691e-06
-3.9137894982665955e-06
-1.6491297171239427e-05
2.7599589227988996e-05
-1.645700033003905e-05
-3.831901586426323e-06
3.8348834598966874e-06
2.0447168586623654e-06
1.5408458738375153e-06
1.3867795439215236e-06
1.3603038694909309e-06
1.0990225106644047e-06
2.39876895347102e-06
1.222341526774251e-06
5.505379163661672e-07
7.710339244848541e-07
7.268521504677494e-07
9.201636995692652e-07
1.3191026603243117e-06
1.6414054774260833e-06
9.972456080087344e-06
-5.182165075390266e-06
-0.00010130765148758103
-5.101342676838705e-06
1.0037692062536685e-05
1.6782881454013854e-06
1.3409170084854871e-06
8.516530105029396e-07
7.522226829204115e-07
6.842844270105175e-07
5.569146961925675e-07
1.2831165893678609e-06
-2.9560015990526267e-08
1.3799303477668445e-08
2.9828728376202207e-10
-1.1532155008708855e-08
-6.495574855769348e-09
2.1595124577444835e-09
9.034660797269112e-10
-4.660530017464026e-09
8.970276410558142e-09
2.574298180180179e-08
1.905127167134424e-09
-3.560569999949692e-08
-2.1419149232038137e-08
-1.6183721807117024e-08
6.164508181694117e-09
-6.19961143533132e-09
1.931927173792758e-09
1.164170476686266e-08
-1.7251957140640428e-08
-1.2794707368035674e-06
-6.240887424624475e-07
-7.10309702389722e-07
-7.644018911179273e-07
-8.822539980801736e-07
-1.2392873612321331e-06
-1.6450515867294513e-06
-1.001536629463562e-05
5.09347779326097e-06
0.00010139839375605808
5.144761610897941e-06
-9.992190218244268e-06
-1.6077701383010456e-06
-1.311749239119031e-06
-8.820464262315753e-07
-7.33266096453189e-07
-6.983895844969723e-07
-5.802674665766894e-07
-1.1700884740006856e-06
-2.3940961193513743e-06
-1.181083255419324e-06
-1.3740847145671253e-06
-1.3519547051865644e-06
-1.5447902617093945e-06
-1.9987794491194144e-06
-3.862022783851504e-06
3.8845367031914435e-06
1.643885458701977e-05
-2.754739318977517e-05
1.6446293732597095e-05
3.9279128741798175e-06
-3.904060430937051e-06
-2.030731127367069e-06
-1.4695218571447732e-06
-1.3755019642180955e-06
-1.4054645850192227e-06
-1.1345118698657952e-06
-2.422340523389188e-06
-3.5069202840576352e-06
-1.5849729588790495e-06
-1.8786794574454646e-06
-1.6685343982025813e-06
-1.7236955044963587e-06
-1.672285972198484e-06
1.715389503942344e-06
6.302593277496271e-06
2.494675539033153e-06
1.7906655816357642e-05
2.579622746912147e-06
6.294863501732362e-06
1.7448904102712604e-06
-1.6652196674349362e-06
-1.7780266042266568e-06
-1.6599367132774656e-06
-1.8686658345978824e-06
-1.5590982193336433e-06
-3.532893841556861e-06
-4.393897548027326e-06
-1.9047052924880958e-06
-2.2108814412558075e-06
-1.7715996963874048e-06
-1.2970095177866625e-06
5.376935296452778e-07
2.9000726353700657e-06
3.1502780390435525e-06
4.928653067781674e-06
4.557774842539608e-07
4.953018220898997e-06
3.2466532084995947e-06
2.901345854233739e-06
5.643575976543858e-07
-1.2923208980164524e-06
-1.659740851478464e-06
-2.205889787498805e-06
-1.857346384637193e-06
-4.415219294784389e-06
-5.004054627777421e-06
-1.9397816202193496e-06
-1.949590872296625e-06
-9.936711976576973e-07
2.162020603657666e-07
1.737911672183845e-06
2.685177808270378e-06
3.593629250620012e-06
3.6554565096547087e-06
5.078872639008303e-06
3.627029589226005e-06
3.5382024532459866e-06
2.700199045968521e-06
1.7893055060669294e-06
1.5746526010884665e-07
-1.0428754652902494e-06
-1.9810258612418252e-06
-1.8839626979016977e-06
-4.94809639303706e-06
-5.181974066292838e-06
-1.9972972142845435e-06
-2.1169321573477617e-06
-1.119468379495725e-06
-2.0757745722299603e-07
5.176915001126048e-07
1.0777696708985651e-06
1.3987537038628872e-06
1.5662872830946029e-06
1.2420015591541045e-06
1.592828930363499e-06
1.381732727845364e-06
1.0664858506870267e-06
5.401447615294153e-07
-2.1982059059122427e-07
-1.1245599593201483e-06
-2.044430611580772e-06
-2.024975573944321e-06
-5.197161343256651e-06
-4.637240938021314e-06
-9.887231247063255e-07
-2.458071677313711e-07
1.3146761952409491e-06
2.594627116436765e-06
3.754218701246259e-06
4.640213013717975e-06
5.2494884784093365e-06
5.4779370867730215e-06
5.673912889025967e-06
5.530142813958694e-06
5.228090839443089e-06
4.591638562867484e-06
3.755299390645339e-06
2.6205976686732857e-06
1.3391573875365381e-06
-2.943214428424712e-07
-1.003178968256302e-06
-4.6316144567959405e-06
-4.133183072685398e-06
-2.1697306993306853e-06
-3.09120160180143e-06
-3.4143544218601107e-06
-4.224436750466243e-06
-4.847943307295655e-06
-5.52714894269668e-06
-6.043325665061605e-06
-6.305917133242467e-06
-6.555527615859091e-06
-6.4144819936773345e-06
-6.099151728611307e-06
-5.5696539446592475e-06
-4.885411793414951e-06
-4.165869526229216e-06
-3.504495844214306e-06
-3.018594452328105e-06
-2.1811838691876417e-06
-4.185344812446257e-06
-1.4869805007311498e-06
1.950586718257874e-06
4.669940934509675e-06
7.732450829855964e-06
1.0687933280739692e-05
1.3224592229077459e-05
1.5229430463503668e-05
1.6637688296572417e-05
1.7581416745682255e-05
1.7915860379802417e-05
1.7537903521824827e-05
1.6721542020259328e-05
1.5186086029850276e-05
1.3227260841491839e-05
1.0727109364117027e-05
7.782979422513159e-06
4.641598941354519e-06
1.9565448035885336e-06
-1.4383862103894973e-06
1.4631271789689038e-06
-1.9742119471422015e-06
-4.6357559282395044e-06
-7.80603520456058e-06
-1.0716841066349403e-05
-1.3217074146365526e-05
-1.5261369110119993e-05
-1.6748718198456025e-05
-1.7563171182732873e-05
-1.7891001273362406e-05
-1.7563679980403535e-05
-1.675638961851078e-05
-1.5284059763920332e-05
-1.3288991653870319e-05
-1.07104525378654e-05
-7.816511111591318e-06
-4.639616969837057e-06
-2.000437284599421e-06
1.4694280566773799e-06
4.110663001988257e-06
2.1304067342464705e-06
3.054172118543974e-06
3.4276785950693167e-06
4.15625122307528e-06
4.910852819506317e-06
5.519521512287184e-06
6.035510979551795e-06
6.407540614428164e-06
6.549854915216535e-06
6.417944494740979e-06
6.07267536056888e-06
5.515107565634558e-06
4.894425469692543e-06
4.156200403948596e-06
3.445446467242874e-06
3.0337477462394347e-06
2.1598535693279075e-06
4.1899434257697266e-06
4.642763801410155e-06
9.480556271146412e-07
3.1451774362700746e-07
-1.3402606577894716e-06
-2.6166801836424725e-06
-3.772301645055265e-06
-4.641938817218083e-06
-5.14062691192585e-06
-5.46118124944428e-06
-5.74928802965502e-06
-5.478573654071894e-06
-5.181883802274356e-06
-4.6042024226533584e-06
-3.7449611158812957e-06
-2.6569396267550616e-06
-1.3022730515066527e-06
2.286746931812189e-07
9.866725989571279e-07
4.621220349276811e-06
5.159261690534933e-06
2.047139183058988e-06
2.056096618519021e-06
1.0671967272113392e-06
2.1979488196155472e-07
-6.270824041143541e-07
-1.100816631849355e-06
-1.3959542045638429e-06
-1.5994807937014244e-06
-1.1588069912527033e-06
-1.6175230097559279e-06
-1.4117879251207555e-06
-1.0815449201784233e-06
-5.446943057707543e-07
2.095161454884753e-07
1.0909605240305709e-06
2.0492138961825113e-06
1.96854255840595e-06
5.20875130577414e-06
4.989127727839104e-06
1.8033035603659542e-06
1.9973287415098184e-06
1.0272430479574268e-06
-1.9596716305247952e-07
-1.7662050820765884e-06
-2.664930681572919e-06
-3.547563732664294e-06
-3.597432967739067e-06
-5.41310603296985e-06
-3.595517207966026e-06
-3.5448662291104327e-06
-2.740128709710632e-06
-1.7734163593741137e-06
-2.1792306287293783e-07
1.0448291226650142e-06
1.9557453614371667e-06
1.9410986832890664e-06
4.9616302444377425e-06
4.374789269401269e-06
1.8381192665728463e-06
2.1715582425585467e-06
1.7532853543444915e-06
1.2077421597256333e-06
-5.363448147832628e-07
-2.9173770758061934e-06
-3.113921795194763e-06
-5.084914226682891e-06
6.151280174115925e-07
-5.096778311342032e-06
-3.1675406295117448e-06
-2.930703866810269e-06
-5.416713251826799e-07
1.2964967449069498e-06
1.746501179289428e-06
2.1427603263957096e-06
1.9039037575940831e-06
4.348220577210515e-06
3.4556503738514266e-06
1.5979061454007848e-06
1.8893093870486766e-06
1.6768815706003082e-06
1.7679553396821035e-06
1.6923878272123716e-06
-1.7341736896492321e-06
-6.348124064525784e-06
-2.0340459988554827e-06
-2.1301739802304098e-05
-1.9883690155486633e-06
-6.44752975020868e-06
-1.731210007183126e-06
1.710853532566059e-06
1.7345464199403082e-06
1.6719916329233087e-06
1.88602510164948e-06
1.5050453844311917e-06
3.478637541021179e-06
2.3941715445729983e-06
1.1504641040938068e-06
1.3821338455954901e-06
1.3130178287967809e-06
1.5431886579708731e-06
2.043866692336138e-06
3.786696101348852e-06
-3.6476349613012715e-06
-1.80474806281139e-05
3.789165075768208e-05
-1.806761662126455e-05
-3.668435781145618e-06
3.830141133254195e-06
2.04816479038028e-06
1.5343802036160703e-06
1.3756012773313842e-06
1.3569497172571943e-06
1.1120713124257442e-06
2.420879202491566e-06
1.3043826463388086e-06
6.141828188255261e-07
7.240397934538123e-07
7.449295909012221e-07
9.206297003627739e-07
1.2354586842455717e-06
1.8443180880289844e-06
9.391867866359593e-06
-1.6207768939735523e-06
-0.0001274577976923541
-1.719426898860732e-06
9.360278787118315e-06
1.7658277128296263e-06
1.314897747906052e-06
9.064632637278969e-07
7.177292314364259e-07
7.362826215939755e-07
5.536562799890454e-07
1.2301763721578318e-06
1.7044436417812392e-08
-3.9501640736183674e-08
-4.4523492670478504e-08
-2.556764844285908e-08
-7.959043979433034e-09
5.565283078823313e-08
-1.472512284328431e-08
1.0736537159328208e-08
3.006078408418489e-08
4.7497299815457694e-08
4.27525526092154e-09
-6.787362172300249e-09
4.773422435100372e-08
-2.3804884785594282e-08
-5.240728129241035e-09
1.9820485475108285e-08
4.66023847289776e-08
-7.539530777478376e-09
4.652554264072961e-08
-1.2003629702439511e-06
-5.749732302495758e-07
-7.355080440252237e-07
-6.612752835311042e-07
-9.267769057741404e-07
-1.2813278716383714e-06
-1.8290081300609273e-06
-9.386257308563462e-06
1.6101399969992158e-06
0.00012739053129617872
1.6461257998923173e-06
-9.378425239237043e-06
-1.870114607449569e-06
-1.286921389231921e-06
-9.043665517016741e-07
-7.497597916961141e-07
-7.231947848906906e-07
-6.055334412224944e-07
-1.249937699454584e-06
-2.415655420584528e-06
-1.0867502554523512e-06
-1.3441772787059492e-06
-1.3998146478622076e-06
-1.5618800535133204e-06
-2.0861820741457926e-06
-3.8779791842746825e-06
3.6857352800900856e-06
1.808638439432242e-05
-3.79659486392514e-05
1.8087996871529732e-05
3.6741278454099913e-06
-3.7517196210257175e-06
-2.0594755341107884e-06
-1.557787584927084e-06
-1.3876030929838024e-06
-1.3497814329022084e-06
-1.1697356377682322e-06
-2.4148673893054085e-06
-3.5222945703461406e-06
-1.5811466418380604e-06
-1.8195917920182936e-06
-1.6803638441809099e-06
-1.7513062906537868e-06
-1.692972168509943e-06
1.712508970463933e-06
6.458253803742764e-06
2.0072762582090675e-06
2.134654552210513e-05
1.9957451646290814e-06
6.3829914141444455e-06
1.712497392614143e-06
-1.704734207852443e-06
-1.7611382641113948e-06
-1.7049545882608097e-06
-1.8404905852975606e-06
-1.547450217964652e-06
-3.528646281919512e-06
-4.387178138554049e-06
-1.8742256192583184e-06
-2.1700295581572604e-06
-1.77087436081802e-06
-1.2532823079336453e-06
5.590915570508059e-07
2.9564970625006737e-06
3.165497541479656e-06
5.080655596290118e-06
-6.627014720317348e-07
5.070933100870256e-06
3.10396264791013e-06
2.925638263595598e-06
5.260528987138802e-07
-1.2937854125261161e-06
-1.7779093064440588e-06
-2.1771418249327823e-06
-1.9124293912098356e-06
-4.414379172035243e-06
-4.941757882459541e-06
-1.889310302649605e-06
-1.997349893256839e-06
-1.0459978254662161e-06
1.2571477708833712e-07
1.7750579194286686e-06
2.7386172748444793e-06
3.5423530256317726e-06
3.5969317136452794e-06
5.359334502463842e-06
3.5574734983945255e-06
3.5774900540852528e-06
2.725049902785326e-06
1.7350891700351756e-06
1.662394268353573e-07
-1.0766399375916613e-06
-1.9486884517139202e-06
-1.893928801371958e-06
-4.984772800531445e-06
-5.197748833896121e-06
-1.998957104398791e-06
-2.028252984120904e-06
-1.1028616236363753e-06
-1.716890856151565e-07
5.669121745932593e-07
1.0910002344322045e-06
1.3571143988033718e-06
1.603935165794823e-06
1.1962178382840527e-06
1.6168156791174226e-06
1.3785411087097188e-06
1.106234517711524e-06
5.290229879717501e-07
-2.2612069427996317e-07
-1.0753674515862066e-06
-2.0550106444028327e-06
-1.9758147302428863e-06
-5.160812575344398e-06
-4.7052228695498854e-06
-1.020785748262476e-06
-2.911171740338503e-07
1.3788535127567947e-06
2.6223460183327774e-06
3.7271390526671944e-06
4.596091181530149e-06
5.150636946227305e-06
5.523321696565553e-06
5.7615135161670494e-06
5.504759619801014e-06
5.1255552843132435e-06
4.582077278186825e-06
3.823856696810735e-06
2.639857126396361e-06
1.3292931898556404e-06
-2.5376800608101213e-07
-9.833163026329306e-07
-4.619504231889726e-06
-4.152746019614462e-06
-2.1043406523979513e-06
-3.0401103895405512e-06
-3.4843433991404993e-06
-4.090613637708351e-06
-4.84315029475324e-06
-5.526568456593051e-06
-6.037592221175281e-06
-6.4508101119131744e-06
-6.564492948002432e-06
-6.354287085064136e-06
-6.039104331112544e-06
-5.524628669345555e-06
-4.85581408227187e-06
-4.216442732046799e-06
-3.4028435776656263e-06
-3.0057104444952687e-06
-2.1314837888725124e-06
-4.205117729763619e-06
-1.4592455449546904e-06
1.9380788637279878e-06
4.616059668505201e-06
7.851693301641482e-06
1.0660432210429782e-05
1.3216522015913057e-05
1.5254083785387618e-05
1.6735447487703503e-05
1.7557954944791287e-05
1.7834496279511836e-05
1.7592783026987302e-05
1.6681108781085863e-05
1.528091866029313e-05
1.3203094668096105e-05
1.0723888485497657e-05
7.775829812456392e-06
4.593891024487484e-06
1.963343638833326e-06
-1.4807666912086681e-06
1.1782664033344048e-07
6.671933239221772e-08
5.6470619846926695e-08
8.697749809272182e-08
5.532935331009625e-07
4.6204162629237544e-07
4.6398909570033453e-07
5.590343923334018e-07
6.397512191114174e-07
5.157494109564453e-07
5.139450478530705e-07
6.343259574270732e-07
6.929341893613383e-07
5.599524094401787e-07
5.65304755895113e-07
7.091660325642124e-07
6.639395127017167e-07
5.136887170076321e-07
5.013225614636241e-07
6.268156421684878e-07
6.257776931084535e-07
4.906221245937203e-07
4.815235904453985e-07
5.984327602348571e-07
5.993774563339826e-07
4.774430639731264e-07
4.6034618250700987e-07
5.478583706697293e-07
4.4635425056060996e-07
3.712451025483787e-07
3.7094020854944176e-07
4.454703593781417e-07
1.1843302327729788e-07
9.611097240291855e-08
1.1045042425106288e-07
1.6172724703888974e-07
6.802478003109513e-08
6.009679764940046e-08
5.339356812239515e-08
4.781077356241781e-08
-2.14409840104679e-07
-1.8781796662370454e-07
-2.0003048872840878e-07
-2.511536609794973e-07
-3.6487715182609293e-07
-2.75937705573881e-07
-2.595055906828847e-07
-3.154314237585609e-07
-5.006300957122178e-07
-3.980776750456272e-07
-3.991955874749209e-07
-5.040515748122587e-07
-5.476364755008234e-07
-4.214752928888288e-07
-4.2044195347479274e-07
-5.444704623824848e-07
-6.744589076124186e-07
-5.333280664876483e-07
-5.31292933203531e-07
-6.683276314589648e-07
-7.173002093407987e-07
-5.897967269019588e-07
-6.014319758884668e-07
-7.524442654505137e-07
-5.929743847055136e-07
-4.737916216024374e-07
-4.76241391544896e-07
-6.003596707548908e-07
-5.638094108251224e-07
-4.789497543011834e-07
-4.876913165530183e-07
-5.901719628553792e-07
-1.0563177743616592e-07
-6.962090681739141e-08
-7.488706987857086e-08
-1.2140107508162856e-07
4.724770133357481e-06
4.724660071842024e-06
4.718124107072619e-06
4.705217698242059e-06
1.0823081458832817e-05
1.0785765469867314e-05
1.0805299467619989e-05
1.0881849923038978e-05
1.935798282515222e-05
1.921501765844713e-05
1.921118139425193e-05
1.9346393861585653e-05
2.9190890683150617e-05
2.8968980561705493e-05
2.897335882257046e-05
2.92039410965117e-05
3.916221980032608e-05
3.8850933883449734e-05
3.884626803635216e-05
3.9148064849947595e-05
4.840623593771465e-05
4.8042823525440426e-05
4.8054929991658835e-05
4.844262721964698e-05
5.6129285895656356e-05
5.570329233334226e-05
5.5705316265364235e-05
5.613522923908487e-05
6.199183050448198e-05
6.151834546314072e-05
6.151085081962382e-05
6.196927924750906e-05
6.552503165202506e-05
6.505103801962564e-05
6.506388812127506e-05
6.556353821635108e-05
6.677497406526456e-05
6.629010459735518e-05
6.630023473108704e-05
6.680533536901345e-05
6.561273154009895e-05
6.51373204925143e-05
6.515051751593282e-05
6.565243949729904e-05
6.1956752098552e-05
6.150903711821254e-05
6.152664105577021e-05
6.200959800545247e-05
5.612645679664574e-05
5.570390382733659e-05
5.570877455476908e-05
5.6141048332292165e-05
4.8437393857125866e-05
4.805737924060138e-05
4.805313604686057e-05
4.842450487499428e-05
3.922730481503711e-05
3.892863118157286e-05
3.8937896618740364e-05
3.925493291304094e-05
2.9201614049484403e-05
2.8991478545167815e-05
2.9007711222064914e-05
2.925034833682616e-05
1.940399888700206e-05
1.9267800612815522e-05
1.9272010288423624e-05
1.9416683059575446e-05
1.0795589208884016e-05
1.0755551893074089e-05
1.077245026868956e-05
1.0846429521121914e-05
4.614476663139522e-06
4.6325521561585425e-06
4.642399091203675e-06
4.644104652312686e-06
-1.5179780235574647e-07
-9.033920483902946e-08
-7.04983858235142e-08
-9.216546975610029e-08
-4.783690934692664e-07
-4.178999016626883e-07
-4.504745699240864e-07
-5.765127807436099e-07
-6.140216833594447e-07
-5.071847111598471e-07
-5.225310620998735e-07
-6.603236092500575e-07
-6.370912376540971e-07
-5.06990317006295e-07
-5.136924668414089e-07
-6.573499333750732e-07
-6.204788311203746e-07
-4.911443540478455e-07
-4.992884933829878e-07
-6.451891699787993e-07
-5.631270516837095e-07
-4.5258055722530166e-07
-4.67963542499783e-07
-6.094679813606341e-07
-5.356960354196971e-07
-4.1272571274508785e-07
-3.9367952664459693e-07
-4.784992364281759e-07
-3.205875105938283e-07
-2.485349483161148e-07
-2.4891032265883517e-07
-3.2179582878932855e-07
-2.1366059915761682e-07
-1.6220307497150088e-07
-1.484432528564561e-07
-1.7228458065732255e-07
-4.011635856837614e-09
-1.2723610942622088e-08
-2.1463192556581134e-08
-3.0208237078444e-08
1.4759686528531546e-07
1.2270176313888825e-07
1.3524317193924773e-07
1.8535776408201698e-07
3.165754890455119e-07
2.6829933641447923e-07
2.9264101369941287e-07
3.898765325027753e-07
5.042670321309117e-07
4.0554375074774995e-07
4.098931119522753e-07
5.174762814363909e-07
5.538649460179457e-07
4.3033622404431426e-07
4.319865951063484e-07
5.587847961563419e-07
6.932099736456365e-07
5.307571110391152e-07
5.066430329714322e-07
6.208196649537534e-07
6.710410020982494e-07
5.287159050570978e-07
5.239585536553903e-07
6.566962519882757e-07
5.71163877083336e-07
4.46853585800433e-07
4.437413295699244e-07
5.617753071618381e-07
5.716478745920739e-07
4.6695453803646814e-07
4.5614245169911527e-07
5.390925528203638e-07
3.378149759925009e-08
3.525863045972244e-09
1.341895883300026e-08
6.348081582618903e-08
-4.661314647047554e-06
-4.670107992210681e-06
-4.671361904740046e-06
-4.66515801655909e-06
-1.0873561690605271e-05
-1.0805113585643511e-05
-1.079398518843977e-05
-1.0840071956730313e-05
-1.945122209878747e-05
-1.9305416512294116e-05
-1.930002499506145e-05
-1.9434943026142015e-05
-2.9263842846960486e-05
-2.904208561127497e-05
-2.9047880668264803e-05
-2.9281240252032603e-05
-3.920893407671766e-05
-3.890201613410138e-05
-3.890257205929615e-05
-3.921062266698527e-05
-4.838865217937638e-05
-4.801964485456889e-05
-4.802639711043444e-05
-4.8408929487098185e-05
-5.614299676603984e-05
-5.5720972123474155e-05
-5.572738670422961e-05
-5.616218080084501e-05
-6.199312956256531e-05
-6.153244690099147e-05
-6.153815679166286e-05
-6.201021367846504e-05
-6.557821188302171e-05
-6.507870083494183e-05
-6.506668241990088e-05
-6.55419774564514e-05
-6.677278247946283e-05
-6.629751266451489e-05
-6.631715629679125e-05
-6.683188927447681e-05
-6.555191532586768e-05
-6.506834761565994e-05
-6.50719312531578e-05
-6.556267589830078e-05
-6.191685579326478e-05
-6.14639773546255e-05
-6.147621124863445e-05
-6.195359989014104e-05
-5.6181618756756535e-05
-5.575759033249472e-05
-5.5762564218131416e-05
-5.619651792698743e-05
-4.846631169930227e-05
-4.80881057109972e-05
-4.808628316821384e-05
-4.846066318464626e-05
-3.918399502855774e-05
-3.8880973931787466e-05
-3.888528444628836e-05
-3.919673565022652e-05
-2.923796116516275e-05
-2.9012461396193956e-05
-2.9013792026244545e-05
-2.924198877074513e-05
-1.9324851797786202e-05
-1.9199234495781425e-05
-1.921191221831986e-05
-1.9362934936206777e-05
-1.0880230358778498e-05
-1.0826468665792177e-05
-1.0830350936630317e-05
-1.0891980732008477e-05
-4.68312702739393e-06
-4.696724670627539e-06
-4.7036509880360455e-06
-4.704056014492863e-06
1.1386217597664228e-06
9.756744367983572e-07
9.761282719900066e-07
1.1398893795533382e-06
-1.6084220679779548e-06
-1.4476437912858131e-06
-1.4554944876010723e-06
-1.6321522108286857e-06
-3.5213894696850545e-06
-2.969927814344686e-06
-2.9735087627713597e-06
-3.5322967666395755e-06
-5.861495181558318e-06
-4.909820255138975e-06
-4.919662319857743e-06
-5.891175049899111e-06
-8.076703606252345e-06
-6.745124271678726e-06
-6.745609494318572e-06
-8.078080499851481e-06
-1.002551037398991e-05
-8.374070272210155e-06
-8.360942625795786e-06
-9.985871317064188e-06
-1.1523834948512501e-05
-9.660656083765318e-06
-9.66841724681089e-06
-1.1547216347551625e-05
-1.2672581566564034e-05
-1.0650478754703485e-05
-1.0662129300120782e-05
-1.270777748318963e-05
-1.334529799779105e-05
-1.122084330151818e-05
-1.1222433129787213e-05
-1.3350109064780291e-05
-1.3594502554448162e-05
-1.1443004788946887e-05
-1.1448754506759862e-05
-1.3611832200055574e-05
-1.3372451449278344e-05
-1.1239908720095393e-05
-1.1234428737960656e-05
-1.3355993010111256e-05
-1.2668008539384878e-05
-1.0648677473468204e-05
-1.06632783477556e-05
-1.2712107378409776e-05
-1.1526944629025593e-05
-9.66825828585538e-06
-9.680689777247231e-06
-1.1564476788739064e-05
-1.0008855998444588e-05
-8.378448974388775e-06
-8.386746254029909e-06
-1.0033988353197465e-05
-8.040961614441677e-06
-6.719313488279255e-06
-6.7278442720253295e-06
-8.066652892435577e-06
-5.871609910501618e-06
-4.919277749260154e-06
-4.92900692805609e-06
-5.900895277299867e-06
-3.5512209277666074e-06
-2.9915574329963945e-06
-2.9882803531666724e-06
-3.5412604957318905e-06
-1.6128907239787438e-06
-1.4563191519378904e-06
-1.4691690619628162e-06
-1.6517007025429464e-06
1.1666575552293779e-06
9.96502467320859e-07
9.908929419211177e-07
1.1498341987437044e-06
3.2666719264051736e-06
2.8141345569387965e-06
2.805749230172516e-06
3.2413082876603383e-06
1.8155802715691394e-06
1.6015478266906413e-06
1.58375879055761e-06
1.76177717303716e-06
3.130188260813682e-06
3.158148043969078e-06
3.1553650884363904e-06
3.121700470343214e-06
4.013931730884046e-06
4.2664866196640006e-06
4.25324807151739e-06
3.9739556556561695e-06
5.116739047017482e-06
5.562415575477431e-06
5.550972268841825e-06
5.0821214430119e-06
6.067901227702066e-06
6.6766072779334e-06
6.686317408965969e-06
6.097252895131966e-06
6.892602302799311e-06
7.58313436444169e-06
7.584252895709298e-06
6.895949695384651e-06
7.531418014572466e-06
8.265564774623257e-06
8.26086209382293e-06
7.517221509933947e-06
7.920359478719163e-06
8.684092046795655e-06
8.68635479600588e-06
7.927218880099396e-06
8.057113447312858e-06
8.831738600001415e-06
8.838589200754754e-06
8.077723792299096e-06
7.920276491102385e-06
8.685245257877838e-06
8.68960620636905e-06
7.933573588969622e-06
7.539169117554145e-06
8.279579038705798e-06
8.281728569592417e-06
7.5457508258436334e-06
6.910164993989554e-06
7.594292407153702e-06
7.589744434599588e-06
6.896318997307027e-06
6.116826077651183e-06
6.704627719456013e-06
6.696740326050943e-06
6.093030724407811e-06
5.094268863636842e-06
5.5460858031652904e-06
5.540325817676717e-06
5.076852587326819e-06
3.988368234120188e-06
4.25264566217276e-06
4.250385922777156e-06
3.981548309051064e-06
3.152386491733772e-06
3.169833749594453e-06
3.156570739126785e-06
3.1122722055076935e-06
1.7979134431245214e-06
1.596872545861494e-06
1.5911302237991976e-06
1.78046394017084e-06
3.2545031922737166e-06
2.8219707329801835e-06
2.83525356281622e-06
3.294503679862615e-06
3.5411559802245307e-06
2.9701052743913436e-06
2.9653905249116264e-06
3.5269309484053935e-06
5.140271432946264e-07
2.6194800539780516e-07
2.510650681797344e-07
4.811458261810841e-07
4.4037992308343377e-07
5.378436072067672e-07
5.490123738960406e-07
4.7420716442481137e-07
-3.642570887141261e-07
8.004845331033295e-08
6.453802647854445e-08
-4.111282473351352e-07
-1.0560532400782918e-06
-2.3796089854144498e-07
-2.2745628913689586e-07
-1.0244314287977119e-06
-1.6208292167307903e-06
-5.315811441031215e-07
-5.297390168745864e-07
-1.6153812862906847e-06
-2.0346019635741897e-06
-7.646408065609123e-07
-7.788394672525456e-07
-2.077453102988791e-06
-2.394746501321876e-06
-9.767544572047981e-07
-9.6529911886023e-07
-2.3601416224705574e-06
-2.577225116096038e-06
-1.0967885464285843e-06
-1.087658889398213e-06
-2.5496154959503414e-06
-2.737256120988185e-06
-1.2527639634551946e-06
-1.2634950251610988e-06
-2.7695347127876246e-06
-2.546101577349802e-06
-1.078282156452559e-06
-1.0812912429880583e-06
-2.5551175661941983e-06
-2.3740420673767915e-06
-9.701717711418922e-07
-9.735678817568427e-07
-2.3842735086265776e-06
-2.0842943475596343e-06
-7.913045453333822e-07
-7.835092802332966e-07
-2.060806859272013e-06
-1.5973691149806513e-06
-5.108333988035341e-07
-5.092149505392385e-07
-1.5926083697381799e-06
-1.0108012253873255e-06
-2.1501100899712355e-07
-2.2595132709302135e-07
-1.043886361129509e-06
-3.7960615584253787e-07
7.815174640768419e-08
7.58878890838588e-08
-3.8650362854664166e-07
5.071519803001578e-07
5.672180387605863e-07
5.410679856376888e-07
4.281176165799039e-07
4.855130392167339e-07
2.5113522372777197e-07
2.572148306567712e-07
5.037213874903301e-07
3.530858298850248e-06
2.9583174926406386e-06
2.9512520378638385e-06
3.509529570511205e-06
3.939827057042322e-06
3.2799796871874065e-06
3.2655808290815713e-06
3.896483133813966e-06
1.2833354013919163e-06
9.304260925047103e-07
9.410939930676321e-07
1.3154030427120489e-06
1.9007803067072615e-06
1.8327854734989657e-06
1.8363756077999227e-06
1.911633902396126e-06
1.71124094527908e-06
2.005006625505068e-06
1.9953131497052468e-06
1.6818409011021274e-06
1.601278946439244e-06
2.3040636950577564e-06
2.30667114020644e-06
1.609106078048761e-06
1.5475487231686458e-06
2.5683304222257064e-06
2.544284292249621e-06
1.4749661521040736e-06
1.5139219677884341e-06
2.788196789338393e-06
2.774777596803446e-06
1.4733134576783158e-06
1.4595234989478456e-06
2.8942814912502612e-06
2.89374578310575e-06
1.4579044693707743e-06
1.4138682377096146e-06
2.915519298762881e-06
2.9108319070658695e-06
1.3998813498394824e-06
1.7727618114582455e-06
3.3103400635114966e-06
3.331214031732088e-06
1.8356151475495963e-06
1.4056715764709793e-06
2.905835608246754e-06
2.89918198981276e-06
1.3854994599382664e-06
1.5132572083187412e-06
2.929278691499171e-06
2.9111524284530788e-06
1.4585188313764874e-06
1.4465190828483188e-06
2.7445481932675264e-06
2.753087246953889e-06
1.4723843761998978e-06
1.534207536013632e-06
2.5773852819765963e-06
2.5765064453064923e-06
1.5314985329917263e-06
1.6350980144297367e-06
2.3254578888631805e-06
2.316727525764062e-06
1.6086915327617746e-06
1.6988761469827196e-06
2.00083224588532e-06
1.9997467111676492e-06
1.6955424696485366e-06
1.9364204690841547e-06
1.8558817970748542e-06
1.848413358429557e-06
1.9138218466663304e-06
1.2450850507828015e-06
8.845302024718116e-07
8.858471928219203e-07
1.2492346545545097e-06
3.934102015767937e-06
3.2873904856622893e-06
3.286468655661068e-06
3.9313334161961144e-06
3.69789248977348e-06
3.0550165157627873e-06
3.0580980244776512e-06
3.707115127760119e-06
1.1071828759368074e-06
6.714475314639756e-07
6.436633055439955e-07
1.0233337794929298e-06
1.657441534685944e-06
1.4990871621822777e-06
1.5035526695905688e-06
1.6708547669885832e-06
1.4512294042035023e-06
1.629696023908167e-06
1.6184739393132475e-06
1.4172925781874568e-06
1.1170829469220322e-06
1.7479389536889656e-06
1.7382339789762113e-06
1.0876335359011335e-06
4.899172725281176e-07
1.6207803973378176e-06
1.6191587582925493e-06
4.850090344898916e-07
2.5564028716118514e-07
1.7850148925635523e-06
1.8044355976076787e-06
3.1422319868301685e-07
-8.948172114386921e-08
1.646210252892466e-06
1.64456542595115e-06
-9.438233261604978e-08
5.120107116063366e-09
1.858149784705887e-06
1.871412125376004e-06
4.4987322311840217e-08
-1.3305983370681673e-06
5.003342988807447e-07
4.2644456743623493e-07
-1.5529444633566314e-06
1.2009759187137092e-08
1.862160746379793e-06
1.873699905341475e-06
4.6639392126124335e-08
-7.581695649072628e-08
1.6562136999631605e-06
1.6516350719308903e-06
-8.964962461277537e-08
2.6576004141798393e-07
1.7765022765625638e-06
1.7756748321162696e-06
2.6331608027341247e-07
4.866025341554447e-07
1.6182242487117193e-06
1.6162364205318802e-06
4.805193795087703e-07
1.1072824550040217e-06
1.738309159227125e-06
1.7265681417910628e-06
1.0718317824398582e-06
1.4273068029146962e-06
1.6169856666969906e-06
1.6162817640386073e-06
1.425092951534701e-06
1.6629077447816165e-06
1.4926355733635432e-06
1.4853511496881744e-06
1.6409918990323291e-06
1.1008009297430732e-06
6.971679069600611e-07
7.036496508239232e-07
1.120505918050796e-06
3.688056395001471e-06
3.0411877683933497e-06
3.0399529967195527e-06
3.68435030312364e-06
3.228080803108213e-06
2.6365234579994734e-06
2.632464925711453e-06
3.215738536677115e-06
1.065855606441346e-06
6.425150961275605e-07
6.314262063211729e-07
1.0322896262238146e-06
1.6764296844051785e-06
1.4464132478408942e-06
1.4530183207739356e-06
1.6963078985909874e-06
1.8149810446788095e-06
1.8402330159705826e-06
1.8386546971616013e-06
1.81013986888523e-06
2.0831706938340133e-06
2.481684578836685e-06
2.4681257931868927e-06
2.0422519538820794e-06
1.470051451013532e-06
2.4583176467807277e-06
2.4512833001200107e-06
1.448769482936818e-06
3.53356354398926e-07
2.009766958077641e-06
2.0128169558875086e-06
3.626186184657598e-07
8.784445371112781e-07
2.925947702570042e-06
2.9384418214206676e-06
9.160632683524739e-07
-4.952252634637944e-07
1.7088574333357087e-06
1.6738623979106748e-06
-6.005223813776439e-07
4.0575897904959746e-06
6.401224429852803e-06
6.60383166295464e-06
4.666784975904115e-06
-4.829705056996758e-07
1.715233607535449e-06
1.674334529910837e-06
-6.060860303636062e-07
8.340642584370173e-07
2.884223102461725e-06
2.896079668968099e-06
8.697514671807127e-07
3.9349767916307954e-07
2.0363348381402524e-06
2.026077932315573e-06
3.6264626440685177e-07
1.4233844327082856e-06
2.425283610274498e-06
2.4294555840409515e-06
1.4360833090476532e-06
2.066861889471472e-06
2.4914356064331677e-06
2.5037770413072202e-06
2.1041042975733504e-06
1.8198027556537433e-06
1.8429380761464387e-06
1.8386317389151863e-06
1.8069021951450104e-06
1.7065433995933077e-06
1.4608033136465082e-06
1.4525180009328231e-06
1.6814826724886878e-06
1.0898466306086263e-06
6.735585100225983e-07
6.71735719937061e-07
1.08414594657269e-06
3.2481947772056152e-06
2.646513940829376e-06
2.63139126238654e-06
3.2025123866685767e-06
2.5523182043407644e-06
2.0604785957445415e-06
2.048896325601568e-06
2.517142053348742e-06
8.797416531924895e-07
5.142420468340347e-07
5.131524992707526e-07
8.763578799309002e-07
1.3810158590032984e-06
1.1332270881680984e-06
1.1361188876346517e-06
1.3897288765329918e-06
1.5463620156586089e-06
1.4624993517342588e-06
1.4567648168872793e-06
1.529103104358498e-06
2.064247893174276e-06
2.2430803237050156e-06
2.2530788544861124e-06
2.0945774343861245e-06
2.8672043144162274e-06
3.477157804687714e-06
3.4836028000029273e-06
2.886761043652264e-06
1.2244127366445312e-06
2.7061182366061587e-06
2.7035426481969438e-06
1.2166046883255177e-06
-1.3376693084321545e-06
1.15493394503563e-06
1.144379119133454e-06
-1.3692890721284101e-06
3.0180118282263635e-06
5.898001818493981e-06
6.009563752407132e-06
3.3534659529266264e-06
-1.19429638821833e-05
-9.22441953493669e-06
-9.88319620681688e-06
-1.3925835456063407e-05
3.069212539230648e-06
5.9444574810885165e-06
6.053600764832634e-06
3.397312775377248e-06
-1.3875353178094407e-06
1.0976584941535528e-06
1.0765540810475649e-06
-1.451099009175394e-06
1.2013424384726967e-06
2.691450987080124e-06
2.695929020357646e-06
1.2148174092230235e-06
2.832157275700631e-06
3.457683213747842e-06
3.4780090529817898e-06
2.8936805428481094e-06
2.1044580562068482e-06
2.2647057524305403e-06
2.2564117977408316e-06
2.079632569762513e-06
1.4968041816554312e-06
1.4262209390158986e-06
1.4322056593463195e-06
1.5149446507822795e-06
1.3910714022902226e-06
1.139443860598277e-06
1.1388578300963736e-06
1.3893211370241687e-06
8.60189203533146e-07
4.806457745698545e-07
4.6282115739870733e-07
8.063247307066312e-07
2.5249785485792486e-06
2.0472314107289336e-06
2.0484007994814313e-06
2.528616174446441e-06
1.7366972796528657e-06
1.3955838376045193e-06
1.392553562462595e-06
1.727565364983974e-06
6.106217981249884e-07
3.4307259655363964e-07
3.444741853986244e-07
6.14989341451988e-07
9.95582586593713e-07
7.83414253358039e-07
7.777933248576119e-07
9.786619096230353e-07
1.120442046809167e-06
1.0041264925098048e-06
9.979866923970349e-07
1.1018927645878307e-06
1.5992891043703494e-06
1.613069918304788e-06
1.60853316322207e-06
1.5857443004252403e-06
2.47503247008396e-06
2.7012670963388885e-06
2.704743818360278e-06
2.485583440403616e-06
5.2322144716843155e-06
5.914813757335047e-06
5.900730563612733e-06
5.18990459064117e-06
6.977719395617754e-07
3.047521128896058e-06
3.1009120817770963e-06
8.578056153174529e-07
-8.366234033219122e-06
-4.4204753940069175e-06
-4.728977359591546e-06
-9.294650453961495e-06
3.5219318032519986e-05
4.0038082243287754e-05
4.207207935980062e-05
4.1346881083592635e-05
-8.346005146930846e-06
-4.41230468073428e-06
-4.731276464220446e-06
-9.306233439643208e-06
7.532496725803917e-07
3.0801731659146903e-06
3.1137303387884785e-06
8.530655534744191e-07
5.222488025369287e-06
5.918085552558683e-06
5.917186443937794e-06
5.219744835804896e-06
2.491906795187848e-06
2.715765264171832e-06
2.7163291770326836e-06
2.4937444744743686e-06
1.5781903505152073e-06
1.5953793950918005e-06
1.5939392930541807e-06
1.574081891719814e-06
1.1611568639380287e-06
1.0460257603428502e-06
1.0439208407708733e-06
1.1547089416863443e-06
9.515894096590038e-07
7.451568265759434e-07
7.44529729257426e-07
9.497006266956376e-07
5.72328426595714e-07
3.0817556989637396e-07
3.1075265327640267e-07
5.800647394083036e-07
1.734146437892825e-06
1.4006829127111153e-06
1.4048913281605735e-06
1.747005922758671e-06
8.912728346466281e-07
7.318409837031581e-07
7.47773818310371e-07
9.395526204825089e-07
2.823038900423569e-07
1.5319670221281e-07
1.6563651084045006e-07
3.1993212501468804e-07
5.308169128692697e-07
4.0516244614874353e-07
3.9594729028813447e-07
5.029590517402482e-07
5.805211239495733e-07
5.083759793134135e-07
5.119914895379551e-07
5.913885189334778e-07
8.655303621596389e-07
8.376289531986103e-07
8.377780584822858e-07
8.659215604556181e-07
1.4019293906875063e-06
1.4345441375906987e-06
1.4179141341053025e-06
1.3519237385128946e-06
2.0471688376710873e-06
2.269865484016975e-06
2.3103885011810377e-06
2.1688073114090045e-06
1.0971322040698173e-05
1.141001331017577e-05
1.1293136716716834e-05
1.062141497726321e-05
3.9257298541928165e-06
8.87220920137155e-06
9.586300367292466e-06
6.0664853932523854e-06
-8.311439453156932e-05
-7.638796561049155e-05
-8.151320838328813e-05
-9.85982185798262e-05
3.971853309636675e-06
8.884006768239416e-06
9.563156230740777e-06
6.006812414194318e-06
1.1015922615043028e-05
1.1435281683069842e-05
1.1299724157531887e-05
1.0609272766026745e-05
2.0620037401997138e-06
2.262584500978271e-06
2.2804778431750883e-06
2.1152905686494528e-06
1.433223817293161e-06
1.4762144747715311e-06
1.471013526488374e-06
1.4176001828514195e-06
8.124217189542371e-07
7.974560780610318e-07
8.082312764057242e-07
8.449413033129183e-07
5.949740596311592e-07
5.121832635235357e-07
5.053913638697338e-07
5.744722897382815e-07
4.6803162112585284e-07
3.6398159997119706e-07
3.742007369522682e-07
4.989171717428853e-07
2.7765176435767813e-07
1.3661914149976084e-07
1.3593012959667305e-07
2.7564527937951055e-07
9.250043646047423e-07
7.391429016623263e-07
7.286342099677157e-07
8.934518462289098e-07
-2.042922619960308e-08
-1.1407591649081894e-08
-2.323891745703577e-09
7.09783587460322e-09
4.593260549690115e-09
-5.191410301641497e-09
-1.573862040693541e-08
-2.713181346258864e-08
-5.69605262956685e-09
-1.3008975341399776e-08
-2.181584335403386e-08
-3.227065126232276e-08
-1.0134597161481906e-08
-1.0820078055751026e-08
-1.3647574181874234e-08
-1.8610260221763042e-08
-6.2931063693483225e-09
-6.192602097776501e-09
-6.360861948273566e-09
-6.915759520609299e-09
7.957450809392697e-09
1.6087298826406027e-08
2.6708236178230038e-08
3.989558250427905e-08
-2.8718470934663287e-09
-6.346855485617198e-09
-9.491167907160758e-09
-1.230177176791969e-08
-9.007736223587415e-10
2.3974175977770074e-09
5.344184594857637e-09
8.074385937639761e-09
1.192156445783965e-08
1.5336639014318365e-08
1.9397477735161317e-08
2.4253724639766716e-08
2.5730857944328278e-08
2.784199781835639e-08
3.216871924394127e-08
3.87288029979338e-08
3.705154960620405e-09
4.9118268341530325e-09
5.462333252381768e-09
5.264233882140701e-09
-2.488389155841375e-08
-1.6591556850631406e-08
-1.0794280747017382e-08
-7.54525314450305e-09
-9.49083073242818e-09
3.3153869094526556e-09
1.7106339178507568e-08
3.190035446909434e-08
-1.6908253186453948e-08
-1.80433674112912e-08
-1.9582201860046666e-08
-2.1507505221229906e-08
3.5084890548375824e-09
1.0862902244390682e-09
-1.1198522109623354e-09
-3.2209188649545695e-09
-1.982073227768666e-09
2.6708579237144647e-09
7.800716350647718e-09
1.3508021923236413e-08
1.0041169729024801e-08
1.8398012224807303e-08
2.7174767935900235e-08
3.653895758182202e-08
9.287914048972112e-09
6.266495988782594e-09
2.5141440596065934e-09
-2.0643867171266095e-09
-5.496509858371468e-09
6.551523379361157e-09
1.9094899605942572e-08
3.2356639145803e-08
-9.182608314839413e-07
-7.284260875595194e-07
-7.128825160185315e-07
-8.713617775102378e-07
-3.309870431067452e-07
-1.788205902242268e-07
-1.6940042735225092e-07
-3.023143226865699e-07
-4.859861939543464e-07
-3.754610629069788e-07
-3.806157523600362e-07
-5.013508591611426e-07
-5.935634878051488e-07
-4.973577119038453e-07
-4.770439514523162e-07
-5.32314848533666e-07
-8.386612098121304e-07
-8.204891165375372e-07
-8.292493628436759e-07
-8.650602885129643e-07
-1.353204380105666e-06
-1.4134802806542446e-06
-1.4214911026044774e-06
-1.3776328845471753e-06
-2.048855213321321e-06
-2.2686676556804564e-06
-2.305366884614024e-06
-2.1590800285964384e-06
-1.1001091295870236e-05
-1.1428681007785713e-05
-1.1302444649863297e-05
-1.0622757699974006e-05
-3.993641337352027e-06
-8.922283614321014e-06
-9.621142080140643e-06
-6.088328424802558e-06
8.317022042320099e-05
7.641116516898805e-05
8.150546859259089e-05
9.856055668289176e-05
-3.949627035870762e-06
-8.883392045078153e-06
-9.585228443687033e-06
-6.053341232048481e-06
-1.0982732684738927e-05
-1.1414080461624732e-05
-1.1290741142255811e-05
-1.061324035805944e-05
-2.0259565262636947e-06
-2.260507481366414e-06
-2.3125993189876404e-06
-2.1826563556537337e-06
-1.4062000527892415e-06
-1.4502819483674934e-06
-1.4451836389817174e-06
-1.3910346974843613e-06
-8.358520380835621e-07
-8.14187621767104e-07
-8.18466251939487e-07
-8.489445366133275e-07
-5.850344972357924e-07
-5.115808493494356e-07
-5.147019236373396e-07
-5.945922250116809e-07
-4.7585317181075837e-07
-3.65954213765729e-07
-3.70760715628915e-07
-4.904597197263882e-07
-3.0173074844208614e-07
-1.6371734845588293e-07
-1.6853953144213563e-07
-3.1648115439431024e-07
-8.426255662108417e-07
-6.850599073016106e-07
-7.008273019692979e-07
-8.901167649066899e-07
-1.731124991355415e-06
-1.3987650777647076e-06
-1.4031502334477253e-06
-1.7442446004212186e-06
-6.307525052262619e-07
-3.445287564129984e-07
-3.2608598199423966e-07
-5.750398145432101e-07
-9.608386305481886e-07
-7.496410672214182e-07
-7.438356958155978e-07
-9.433044194651075e-07
-1.1373892160326804e-06
-1.033429249508444e-06
-1.0428643986148955e-06
-1.1658689440530168e-06
-1.586003840592376e-06
-1.6072975936864964e-06
-1.6104168502062421e-06
-1.5956914005688105e-06
-2.4622810849694865e-06
-2.7023598545006244e-06
-2.7193769029376647e-06
-2.513800650805198e-06
-5.2486221214786966e-06
-5.945363721004959e-06
-5.948257060850448e-06
-5.257589967222476e-06
-7.125117761352939e-07
-3.0486849980637665e-06
-3.0890340848577225e-06
-8.329791517103224e-07
8.334814243504685e-06
4.408314486004095e-06
4.734688050955782e-06
9.317238178596643e-06
-3.519324770112631e-05
-4.003728967233444e-05
-4.209611128330737e-05
-4.139580181650171e-05
8.340232598325059e-06
4.412236279838222e-06
4.737554423095425e-06
9.31936866482852e-06
-6.811559640773623e-07
-3.02864951695625e-06
-3.0798031769307954e-06
-8.342358908119962e-07
-5.260720697453092e-06
-5.926307725501179e-06
-5.8961174280725e-06
-5.169884888578391e-06
-2.4825690582708226e-06
-2.7112162751530278e-06
-2.7167485265322533e-06
-2.499409093192906e-06
-1.5273675044724655e-06
-1.5640180877074528e-06
-1.5812560236749817e-06
-1.5795399595508464e-06
-1.1518897868323386e-06
-1.0398265968269982e-06
-1.0420860152571265e-06
-1.1588880846624683e-06
-9.847494986114924e-07
-7.672143434722667e-07
-7.562502311597719e-07
-9.517216251753169e-07
-6.081942024172005e-07
-3.464492443483458e-07
-3.5345317578316937e-07
-6.29279994029952e-07
-1.7505967594977356e-06
-1.4107781657335394e-06
-1.4092344710892046e-06
-1.7460658910672944e-06
-2.556191960989551e-06
-2.077786201648557e-06
-2.080803110149354e-06
-2.5653821170701363e-06
-8.636954861307444e-07
-4.999307766651029e-07
-4.992456756891528e-07
-8.615858360094819e-07
-1.3728846591787303e-06
-1.1120376057771608e-06
-1.1004447100226855e-06
-1.3378835066468753e-06
-1.5177074125238832e-06
-1.4421817908782941e-06
-1.444452382148853e-06
-1.5246571519744734e-06
-2.0676063627877994e-06
-2.2422350889339526e-06
-2.247504456820426e-06
-2.0837244741334082e-06
-2.8792883929318336e-06
-3.487655132305978e-06
-3.4916597924650183e-06
-2.891497487778061e-06
-1.2300378490204267e-06
-2.7135588588911297e-06
-2.714300085471244e-06
-1.2321347759303158e-06
1.361456550830198e-06
-1.1130934830516637e-06
-1.082460392043405e-06
1.4538371980732379e-06
-3.0973471786821527e-06
-5.959579233216772e-06
-6.056766510054157e-06
-3.3892439508242944e-06
1.1896195642679963e-05
9.200555794064424e-06
9.881987057314134e-06
1.3947389318313963e-05
-3.035279682761516e-06
-5.918230135293356e-06
-6.034290346901283e-06
-3.38425348461735e-06
1.3438205477278586e-06
-1.1419038419835381e-06
-1.1243056328158474e-06
1.3966551408173267e-06
-1.2094494384329302e-06
-2.700128699073545e-06
-2.7064992378922348e-06
-1.2287095563778827e-06
-2.874998621116287e-06
-3.486524313922601e-06
-3.4941784397557463e-06
-2.8982927617882126e-06
-2.1075800104020104e-06
-2.2706562381458184e-06
-2.2671312461808313e-06
-2.0971994457164023e-06
-1.5139374402450834e-06
-1.4439175513303315e-06
-1.4526397321690254e-06
-1.5404039969690864e-06
-1.3677216160745687e-06
-1.112255808399798e-06
-1.1066592949804388e-06
-1.35096362396947e-06
-8.391611445168756e-07
-4.752763174131758e-07
-4.729931590563563e-07
-8.322996342680078e-07
-2.5771872247115635e-06
-2.0944274282952424e-06
-2.0936402694848866e-06
-2.5748068263886648e-06
-3.227846795628153e-06
-2.6386527453015063e-06
-2.6374673746110133e-06
-3.2241393893572834e-06
-1.0766296025810362e-06
-6.565700477745295e-07
-6.507360623686509e-07
-1.0589459578103089e-06
-1.7299351990907041e-06
-1.4833358781274342e-06
-1.4754073289768854e-06
-1.705962552667195e-06
-1.825574435732058e-06
-1.8519645514913918e-06
-1.851828900334418e-06
-1.8252172733213001e-06
-2.1060988006915693e-06
-2.5083379964763175e-06
-2.499647194564858e-06
-2.080009367910751e-06
-1.4395750945195296e-06
-2.4328338661949722e-06
-2.4287019102509078e-06
-1.4270678564409778e-06
-3.7333722707755257e-07
-2.016493309331402e-06
-2.005541447858139e-06
-3.4018640415744983e-07
-8.939528626794591e-07
-2.9284115062311322e-06
-2.925591224389734e-06
-8.853158317001508e-07
5.08206526361743e-07
-1.701930071984492e-06
-1.6717721429970744e-06
5.989004147610721e-07
-4.02650334857535e-06
-6.389712772281175e-06
-6.611605446960045e-06
-4.694088382883876e-06
5.263388258014423e-07
-1.6899348749266352e-06
-1.66624187492026e-06
5.973292822036846e-07
-8.271043723251381e-07
-2.8914320280848393e-06
-2.919519054844777e-06
-9.118621404624605e-07
-3.762667765139227e-07
-2.024394271771257e-06
-2.0195498008912516e-06
-3.617371081565679e-07
-1.4247317368654144e-06
-2.42950438225642e-06
-2.436934372601618e-06
-1.4473214717813931e-06
-2.1090504546128486e-06
-2.51934132369791e-06
-2.519380634474766e-06
-2.1095005443838577e-06
-1.7425505639823147e-06
-1.7946882013841758e-06
-1.8177407565544978e-06
-1.8123541443149094e-06
-1.7275447079800887e-06
-1.4832566569145111e-06
-1.477550899964264e-06
-1.710422420142521e-06
-1.048462362179814e-06
-6.460182424561367e-07
-6.568075504309601e-07
-1.0810788257376025e-06
-3.2494932323268166e-06
-2.6607346703400037e-06
-2.660407438070944e-06
-3.2487235963607475e-06
-3.710893198616283e-06
-3.052070205900037e-06
-3.039922091385705e-06
-3.6741867907030823e-06
-1.115576427568321e-06
-6.953806434006893e-07
-6.854860090665937e-07
-1.085789466781506e-06
-1.636518719649871e-06
-1.4830595690407122e-06
-1.4925524567388493e-06
-1.6651835837988571e-06
-1.387216101877975e-06
-1.5899069056302118e-06
-1.60017497263798e-06
-1.4182722424815886e-06
-1.0783953254267509e-06
-1.738648884808125e-06
-1.756457847168491e-06
-1.1321643316741792e-06
-5.046475065606515e-07
-1.6302953790847674e-06
-1.6230525768379245e-06
-4.82806588653073e-07
-3.056461543304856e-07
-1.806363590095561e-06
-1.7960194336197333e-06
-2.743224719603532e-07
1.279017059485632e-07
-1.6215245430273306e-06
-1.6316725385268072e-06
9.733038103254543e-08
-1.169191854444307e-08
-1.8627938220827644e-06
-1.8743425135303582e-06
-4.6512947937671356e-08
1.3514689139459968e-06
-4.971166406853023e-07
-4.412707020895468e-07
1.519279034523091e-06
-3.8850486661079486e-08
-1.8902710175461301e-06
-1.9038868544485332e-06
-8.001624973719146e-08
9.523987032356018e-08
-1.6339263125830783e-06
-1.6261352360769088e-06
1.1864300114572401e-07
-2.912912167030157e-07
-1.7950391117960152e-06
-1.7902799595015395e-06
-2.768535620756296e-07
-4.701380214855444e-07
-1.6129325382807647e-06
-1.623529669286805e-06
-5.022596655246403e-07
-1.1141075957621371e-06
-1.7530837254364773e-06
-1.7512017848608785e-06
-1.1086485658673428e-06
-1.4290234701119786e-06
-1.6261770567349565e-06
-1.6327507193214519e-06
-1.449023366018043e-06
-1.6534997315520439e-06
-1.4849113983417261e-06
-1.478569604307367e-06
-1.6343889971404124e-06
-1.0752630686117204e-06
-6.686027071989287e-07
-6.705000772100345e-07
-1.081130472591063e-06
-3.6779352184934666e-06
-3.0400697756671757e-06
-3.0472431404027223e-06
-3.699651938110504e-06
-3.9060493484122105e-06
-3.2630626802809815e-06
-3.2660679599727516e-06
-3.915279074950817e-06
-1.2753758974470841e-06
-9.114714969449267e-07
-9.117510482159474e-07
-1.2763163623752405e-06
-1.9562547370899352e-06
-1.8662305765193565e-06
-1.8488131170446565e-06
-1.9037586749259816e-06
-1.7203037161461765e-06
-2.0208367381147063e-06
-2.0177352678674154e-06
-1.7108450462988145e-06
-1.593263118437882e-06
-2.2871260708101637e-06
-2.2801860665722096e-06
-1.572294759832893e-06
-1.5465012969673175e-06
-2.5804952560326555e-06
-2.570874197249662e-06
-1.5175103255660183e-06
-1.4804534381740453e-06
-2.7662555340257633e-06
-2.763667286687088e-06
-1.4726805517839558e-06
-1.4636390981981329e-06
-2.9074366734715973e-06
-2.9155181427431565e-06
-1.4881566801627777e-06
-1.4217613172884391e-06
-2.9211328723133256e-06
-2.913760615008698e-06
-1.3995092116303454e-06
-1.7829657220636008e-06
-3.3089610943504155e-06
-3.3182509331930454e-06
-1.810745406727321e-06
-1.3994189881350039e-06
-2.9022135823453254e-06
-2.8975290417010413e-06
-1.3852691973514908e-06
-1.4710786989113878e-06
-2.906504251554143e-06
-2.9071442679828863e-06
-1.4730670820362057e-06
-1.4854756748283737e-06
-2.765598230203281e-06
-2.757814222376087e-06
-1.4619930784887103e-06
-1.5363617017760678e-06
-2.582229202158226e-06
-2.5843552849957874e-06
-1.5429345248951787e-06
-1.610968835358273e-06
-2.3114532080592554e-06
-2.312657846448296e-06
-1.614732012295006e-06
-1.7185028877431119e-06
-2.012333718465209e-06
-2.002712439747034e-06
-1.6894532294808862e-06
-1.9052523592688608e-06
-1.8355177700823955e-06
-1.8375921385649363e-06
-1.911566403250964e-06
-1.2942834610452092e-06
-9.211390258334617e-07
-9.114763071804699e-07
-1.2651694900611687e-06
-3.915849263486093e-06
-3.2652476863320734e-06
-3.258097217129219e-06
-3.894330844120275e-06
-3.528347424786027e-06
-2.9745711969120237e-06
-2.9877700714608935e-06
-3.568422409672145e-06
-5.132497790105717e-07
-2.7673929625660065e-07
-2.8302350596476344e-07
-5.322942988605917e-07
-4.275556824140381e-07
-5.235971175521215e-07
-5.326816745476748e-07
-4.5488865185738803e-07
4.0845429766234176e-07
-4.2169225333843485e-08
-2.9702596493486055e-08
4.461819450019e-07
1.0016804009582714e-06
2.0161416752761951e-07
2.068876674976572e-07
1.0177621461715525e-06
1.5961511205531131e-06
5.064026644130415e-07
5.010848528885781e-07
1.5800784066710705e-06
2.0809656609555027e-06
7.877329749605977e-07
7.792202617595834e-07
2.0550848148226386e-06
2.4314436555816776e-06
1.0026796603002097e-06
9.834060051283622e-07
2.3730437150870642e-06
2.5634394533735616e-06
1.0999543168521697e-06
1.1089627852678419e-06
2.590500100929649e-06
2.7237982734296118e-06
1.2463258801109767e-06
1.263528447648099e-06
2.7757077683543407e-06
2.5993493770748444e-06
1.1207039700145138e-06
1.1156751122953779e-06
2.584123381332848e-06
2.415178582321209e-06
9.885316192281834e-07
9.684115773733737e-07
2.35436099138564e-06
2.042710545352433e-06
7.578449397194209e-07
7.559692989100864e-07
2.0370093936905587e-06
1.6101726351691603e-06
5.359740791188727e-07
5.49405333588604e-07
1.6506814493888466e-06
1.0246254821266731e-06
2.2228824259062918e-07
2.260262563780202e-07
1.0359117879610302e-06
4.1920937685069326e-07
-4.537058073683653e-08
-4.73742059747817e-08
4.131520245920228e-07
-4.614816245807063e-07
-5.418992279765389e-07
-5.34062950488523e-07
-4.377682873285549e-07
-5.206930471512994e-07
-2.758879390635238e-07
-2.7217463588469215e-07
-5.09360401620973e-07
-3.5125498988597403e-06
-2.9460377997669873e-06
-2.9436038910118922e-06
-3.505299307524079e-06
-3.257059412065111e-06
-2.8160365322937864e-06
-2.8198609564045185e-06
-3.2686690389915896e-06
-1.7730414604288924e-06
-1.5661166670177806e-06
-1.5532109886029488e-06
-1.7342463968228472e-06
-3.1442390129310382e-06
-3.1646442998356505e-06
-3.1546018581796176e-06
-3.114123393488377e-06
-3.962500503273958e-06
-4.243393751601765e-06
-4.257342394786701e-06
-4.004488968700759e-06
-5.113330682648964e-06
-5.545278994101288e-06
-5.518923575476009e-06
-5.0339326367332404e-06
-6.046376012425192e-06
-6.646026640300118e-06
-6.645218725009894e-06
-6.04385977492905e-06
-6.905347338603818e-06
-7.595186200914927e-06
-7.595064840604238e-06
-6.90506878658903e-06
-7.521955797784585e-06
-8.261231850381634e-06
-8.259969127732969e-06
-7.518355534419374e-06
-7.860917502988674e-06
-8.652766499250841e-06
-8.681117070807876e-06
-7.946664967062311e-06
-8.09117047817498e-06
-8.860155942924663e-06
-8.861852273722715e-06
-8.09640985371951e-06
-7.92489705486732e-06
-8.674802446484442e-06
-8.66302775537342e-06
-7.889337499900062e-06
-7.559991614169981e-06
-8.285223747156456e-06
-8.273483163317996e-06
-7.524487393911761e-06
-6.932947177185067e-06
-7.611071248858625e-06
-7.602300012038432e-06
-6.906487600821798e-06
-6.076089005213614e-06
-6.669362016153979e-06
-6.66358929987676e-06
-6.058654479557113e-06
-5.088870396824374e-06
-5.555835101284101e-06
-5.565915957267409e-06
-5.119225000349559e-06
-4.015890603725758e-06
-4.26168017159112e-06
-4.241745676314412e-06
-3.955779023873118e-06
-3.086180775574432e-06
-3.1177465242282487e-06
-3.115436953679551e-06
-3.079068620501224e-06
-1.7884124846739846e-06
-1.5851208368250491e-06
-1.5754835401698974e-06
-1.759282518346006e-06
-3.3052781068590442e-06
-2.8621829242098107e-06
-2.865989792773249e-06
-3.316887430000748e-06
-1.156545118341512e-06
-9.867220956971678e-07
-9.812934954611663e-07
-1.1400778712200577e-06
1.6156271857026283e-06
1.445030814672954e-06
1.4425542356200083e-06
1.6081139039281211e-06
3.55837095145084e-06
2.9917768606946282e-06
2.9811873218932305e-06
3.526322411850913e-06
5.85149392345885e-06
4.913093784086886e-06
4.93658434985722e-06
5.922196921637202e-06
8.049327530457173e-06
6.714394349738306e-06
6.7089590923830045e-06
8.032907180322013e-06
9.981397543934456e-06
8.343104496211229e-06
8.341431848468694e-06
9.976390503596555e-06
1.152877607396574e-05
9.662659964715381e-06
9.667440215965772e-06
1.1543156086923911e-05
1.2631803853857537e-05
1.061878129243743e-05
1.0638076036906252e-05
1.2689854964831326e-05
1.336428783255128e-05
1.1232996041665722e-05
1.1228420447095822e-05
1.3350377413012815e-05
1.3624995725491917e-05
1.145091280913002e-05
1.1434909425567241e-05
1.3576684948779505e-05
1.3337294741178063e-05
1.1221738201783182e-05
1.1232419590667675e-05
1.336961793441116e-05
1.2687221670693027e-05
1.0646317168461206e-05
1.063817117782917e-05
1.2662739391960942e-05
1.1501279885722804e-05
9.649988300969303e-06
9.668631200360212e-06
1.1557441965515114e-05
9.98138028512896e-06
8.340217750341106e-06
8.335453238889068e-06
9.966904741448568e-06
8.089504856312324e-06
6.757346363905903e-06
6.7566793758300214e-06
8.087421400654327e-06
5.879459021099209e-06
4.917424429859429e-06
4.9159353261163385e-06
5.8749004556157836e-06
3.531129579639747e-06
2.9656373506520284e-06
2.956229369258101e-06
3.5026715357600047e-06
1.6230781276285744e-06
1.4549992716286764e-06
1.4562613983096218e-06
1.6269066599530757e-06
-1.1216558720994474e-06
-9.655677443570765e-07
-9.73979921242707e-07
-1.1469378466549829e-06
SCALARS strain12 float
LOOKUP_TABLE default
-2.8044123898118833e-07
2.8022290963700125e-07
-2.8074159434980303e-07
2.8063669270730895e-07
2.803684075528001e-07
-2.803070338792957e-07
2.7996616600673915e-07
-2.8024359551015454e-07
-3.607733136679059e-07
-5.516240999814404e-07
-6.732183265509284e-07
-7.196195370498537e-07
-6.970751044721446e-07
-6.176907430127665e-07
-4.960530157228915e-07
-3.453292722645218e-07
-1.768143852859394e-07
-5.937280875278894e-11
1.7671403069324798e-07
3.4522877365161797e-07
4.959893200214005e-07
6.178460928360496e-07
6.970658766418392e-07
7.195240159206528e-07
6.733664308228304e-07
5.517399682200552e-07
3.607593644927576e-07
3.6065049590500164e-07
5.516850961236053e-07
6.733782703279012e-07
7.193334688078423e-07
6.968263609324898e-07
6.177809747376362e-07
4.959975632781721e-07
3.45341087087947e-07
1.7668565667136593e-07
-5.734633254372845e-11
-1.7670417862790389e-07
-3.452231756833485e-07
-4.958997168701129e-07
-6.177715937867589e-07
-6.969800849807375e-07
-7.1960706894518e-07
-6.73322710014173e-07
-5.51808780163178e-07
-3.6076109810817894e-07
-3.607674992427926e-07
-5.518540037289556e-07
-6.733079629876564e-07
-7.195804457241911e-07
-6.968992851399611e-07
-6.17933501120653e-07
-4.960505221168754e-07
-3.453529952446993e-07
-1.769366147728879e-07
8.214777295900699e-11
1.766463906816007e-07
3.4534558313210895e-07
4.9608772679198e-07
6.178073169230136e-07
6.970573226093568e-07
7.197001433874306e-07
6.734834856608751e-07
5.519050730352915e-07
3.606605407761865e-07
3.608615520948877e-07
5.518692531153446e-07
6.732801523280652e-07
7.194433640014819e-07
6.969353806597633e-07
6.179455909714748e-07
4.96225136158851e-07
3.4521432325587686e-07
1.766399040023514e-07
-1.0486642804119484e-11
-1.766029870155228e-07
-3.452467449288621e-07
-4.95889667131294e-07
-6.176488268304359e-07
-6.971200769874397e-07
-7.195778042590195e-07
-6.732955681945652e-07
-5.517827274814646e-07
-3.607466977986751e-07
3.596695328303423e-07
5.503526652045343e-07
6.714214773675953e-07
7.171630632685222e-07
6.943948947686629e-07
6.152476160932452e-07
4.937364911569708e-07
3.434949790263875e-07
1.7568289943994952e-07
-9.062483402599852e-12
-1.7578204888901716e-07
-3.434008127578547e-07
-4.937886756289922e-07
-6.151021780358146e-07
-6.942019632368013e-07
-7.171136281076962e-07
-6.711967182465584e-07
-5.503411978878547e-07
-3.597187179481265e-07
-3.5980300740548476e-07
-5.50232062707795e-07
-6.714177373072505e-07
-7.174241963003869e-07
-6.946437420655982e-07
-6.151636246544412e-07
-4.937502571800145e-07
-3.437547119403833e-07
-1.7589803651997526e-07
-4.718071940079671e-11
1.7588775725295436e-07
3.4367549083501314e-07
4.938251071465172e-07
6.15224382705809e-07
6.943385625650042e-07
7.171325518764982e-07
6.711278086146515e-07
5.500832188651619e-07
3.597703230621887e-07
3.597332959002532e-07
5.50396353626555e-07
6.713045797965451e-07
7.17085064362577e-07
6.943658116456003e-07
6.150609217336206e-07
4.937673513845386e-07
3.4349306246746203e-07
1.757557782974123e-07
5.6704462306211845e-11
-1.7577127706461249e-07
-3.4361202619175024e-07
-4.938122444737847e-07
-6.152911155958563e-07
-6.942533467939327e-07
-7.171734317072687e-07
-6.712805471070782e-07
-5.501853872352802e-07
-3.5974857412815475e-07
-3.597480971277711e-07
-5.503182176208599e-07
-6.713782380388111e-07
-7.172432758481562e-07
-6.943360189859415e-07
-6.150864968225422e-07
-4.937433762328136e-07
-3.4357978234006437e-07
-1.7591653710472e-07
-1.3983884536439284e-10
1.7587797218610035e-07
3.435852222177793e-07
4.938211321942054e-07
6.153532162468667e-07
6.942976041521276e-07
7.170488346280868e-07
6.711920790825054e-07
5.50151580250291e-07
3.5970741043417354e-07
-1.6748476881073282e-07
-5.572001914033731e-08
5.564491082493683e-08
1.6741049995577795e-07
1.6732420722587182e-07
5.561602954562428e-08
-5.5693188533156857e-08
-1.6740373480830795e-07
-1.6780006421965483e-07
-5.605288345609215e-08
5.5291677313160266e-08
1.6703413751792667e-07
1.6766423961353527e-07
5.588445036938672e-08
-5.549451199959865e-08
-1.6727329099630595e-07
-7.846168269126652e-07
-1.3737281064421514e-06
-1.7378100018311526e-06
-1.8826375264673068e-06
-1.832936332817059e-06
-1.6262639484440622e-06
-1.3042263415329047e-06
-9.059650539697262e-07
-4.631917958144993e-07
3.5633343498098213e-11
4.6314003493072575e-07
9.060030928369212e-07
1.3042465655463409e-06
1.6261656785067358e-06
1.8329016378965113e-06
1.8826064541108134e-06
1.7378319100043449e-06
1.3735945226314716e-06
7.846469876858497e-07
-1.37376921193616e-06
-2.43583158498345e-06
-3.1364692071947364e-06
-3.463199849087356e-06
-3.4317473547353095e-06
-3.08934410271286e-06
-2.5052138402960333e-06
-1.7534671164116944e-06
-9.002263583815506e-07
-2.5492299243756733e-11
9.001634035110673e-07
1.7533493310538384e-06
2.505346751505849e-06
3.089442882749094e-06
3.4316683178645113e-06
3.4633428914014608e-06
3.136416323240576e-06
2.435816248116257e-06
1.3736734187641542e-06
-1.7378586413749342e-06
-3.136470076065684e-06
-4.135684656184774e-06
-4.690717003888456e-06
-4.7682336328479236e-06
-4.383996121622852e-06
-3.6112461848231137e-06
-2.5538039809466784e-06
-1.318581346495401e-06
3.127072559228061e-11
1.3186099773049298e-06
2.5539760233339592e-06
3.6113243500751624e-06
4.3841068157607355e-06
4.768210432153086e-06
4.6907963579014e-06
4.135543935777225e-06
3.136469727344632e-06
1.7377399262712145e-06
-1.8826058188863015e-06
-3.4631937209754493e-06
-4.690675657764015e-06
-5.504730191445428e-06
-5.804510027435095e-06
-5.509696029758898e-06
-4.64640292099916e-06
-3.3368038854196536e-06
-1.7369290556019934e-06
-1.0141570222499396e-10
1.7368767109698924e-06
3.3368538120276403e-06
4.646212990306459e-06
5.509619862280324e-06
5.804574923985034e-06
5.50471189806126e-06
4.690740175679331e-06
3.4632333684204986e-06
1.8826989011365425e-06
-1.833004442557129e-06
-3.4316905703490885e-06
-4.768320700336559e-06
-5.804481509465859e-06
-6.425315591911118e-06
-6.420812075014909e-06
-5.6363267518302895e-06
-4.152151562457351e-06
-2.1923707052666497e-06
5.7543855097597074e-11
2.192289042149409e-06
4.152218614092429e-06
5.63621630985181e-06
6.420880665453793e-06
6.425262874268367e-06
5.804594653630035e-06
4.768161901903822e-06
3.431748479814506e-06
1.8329881493681088e-06
-1.6262821350247758e-06
-3.0893600764941853e-06
-4.38401118876483e-06
-5.509822722422203e-06
-6.4207893396110716e-06
-6.91064301542102e-06
-6.5510579308585e-06
-5.074540931404581e-06
-2.7489141736052047e-06
-4.113966112218037e-11
2.7488736205685815e-06
5.0744779543573926e-06
6.5510671831379985e-06
6.9107605899648705e-06
6.420763778207383e-06
5.509643682493487e-06
4.383980417830419e-06
3.0893259957316677e-06
1.6262042404451005e-06
-1.3043167521493981e-06
-2.5051512761442574e-06
-3.6113479994666353e-06
-4.646261075505476e-06
-5.636233442404132e-06
-6.55117665424379e-06
-7.0360779493156e-06
-6.167718913319131e-06
-3.5368577187416816e-06
-1.666503393615848e-11
3.536860057783836e-06
6.167703162751614e-06
7.036127707645001e-06
6.551122251018809e-06
5.636340602153955e-06
4.646191525372462e-06
3.6113312085438165e-06
2.50530998040753e-06
1.3042842593822407e-06
-9.059482650106143e-07
-1.7534454392689747e-06
-2.553781212832895e-06
-3.336815752656014e-06
-4.152280414362192e-06
-5.0744841298758225e-06
-6.167658614851523e-06
-6.844081252108114e-06
-4.872481301838177e-06
7.277719746290323e-11
4.8725134130893355e-06
6.8441239191516234e-06
6.167765835188299e-06
5.074471302577571e-06
4.152187000521293e-06
3.3367905171773765e-06
2.5537608804755696e-06
1.7533539443895935e-06
9.060027305919649e-07
-4.63061276090998e-07
-9.00217833603445e-07
-1.318610793249464e-06
-1.736964212233072e-06
-2.1923744054422323e-06
-2.748821051411221e-06
-3.536909608147648e-06
-4.8725134917070034e-06
-5.822156542392709e-06
-3.4951326555177076e-11
5.8222045755014495e-06
4.872538589526659e-06
3.5369053419127133e-06
2.74886535692187e-06
2.192430268693757e-06
1.7369769137395852e-06
1.3186363117465016e-06
9.000790982920115e-07
4.631389170783873e-07
3.237892592933278e-11
7.421206010826964e-12
-3.269233495029056e-11
1.1082901957282232e-11
-3.062024245270578e-11
-4.2370534164559714e-11
5.063501701263462e-12
-2.531386905646471e-11
-5.767852861993106e-11
-2.233165041776175e-12
7.962193057653444e-11
-1.9678097692987784e-11
6.413412335926072e-11
-4.17926283857728e-11
-6.377080634389909e-11
-1.2470477775416988e-10
-5.124034703485325e-11
2.306738307311651e-11
-3.046090810143731e-11
4.6303192979130214e-07
9.000912151758966e-07
1.3186145180303643e-06
1.7369528165570025e-06
2.192392961515577e-06
2.748843676275009e-06
3.536776247505674e-06
4.872401853948938e-06
5.822245898561007e-06
5.690854731899009e-11
-5.822168730486993e-06
-4.872497181521163e-06
-3.536950455868687e-06
-2.7488874955444026e-06
-2.1924653685022333e-06
-1.7369093104607075e-06
-1.3187061693436392e-06
-9.001317509971241e-07
-4.630453116962613e-07
9.06046645394315e-07
1.7534069387536988e-06
2.5538436019129085e-06
3.3367745606513455e-06
4.152223781681008e-06
5.0744353733561676e-06
6.167723285498833e-06
6.844059797200819e-06
4.872414602372782e-06
3.1910907943855094e-11
-4.872411743895438e-06
-6.844082754349154e-06
-6.1678360750577754e-06
-5.074375402680173e-06
-4.1521656944498025e-06
-3.336671970386937e-06
-2.553832336434775e-06
-1.7533981633913176e-06
-9.060269841616037e-07
1.3042406209265445e-06
2.5053477311597072e-06
3.611357606868315e-06
4.646292868264873e-06
5.636377514228047e-06
6.551088981447684e-06
7.03608919969817e-06
6.167734816684561e-06
3.53694134234972e-06
-5.0428630021803755e-11
-3.536938919418073e-06
-6.1677930624018384e-06
-7.0360017409929615e-06
-6.5510305536226054e-06
-5.636276933385781e-06
-4.646424570676003e-06
-3.6113030294354642e-06
-2.5053255561166554e-06
-1.3043013620313987e-06
1.6262794031267347e-06
3.0893893188319033e-06
4.384059594693401e-06
5.509669529956546e-06
6.420834419918614e-06
6.910764709811695e-06
6.551020255467915e-06
5.074395298489132e-06
2.748935727341431e-06
7.714998778718396e-12
-2.748885885455604e-06
-5.074442709774099e-06
-6.551039445596568e-06
-6.910676507022873e-06
-6.420742820931538e-06
-5.509607188355914e-06
-4.384020481798187e-06
-3.089336336550147e-06
-1.6262627770373406e-06
1.833003185604254e-06
3.431621823951625e-06
4.768286985219056e-06
5.804501033865317e-06
6.425332477456164e-06
6.420760294320593e-06
5.636265358814618e-06
4.152124732068746e-06
2.1923117659843755e-06
3.7974309460842015e-11
-2.19230749003152e-06
-4.152218497062779e-06
-5.636347708387959e-06
-6.42072840028457e-06
-6.4254094350943425e-06
-5.804382880910883e-06
-4.768269061774209e-06
-3.431767272682809e-06
-1.8329330480808606e-06
1.8825697708259315e-06
3.463114135088957e-06
4.690780117048987e-06
5.504615276000213e-06
5.804473868158133e-06
5.509582080644865e-06
4.646394789406538e-06
3.3367220102342027e-06
1.7369239659389274e-06
-3.787187577430906e-11
-1.737011016708298e-06
-3.336771413448361e-06
-4.6463494969995606e-06
-5.509731463000309e-06
-5.804434317746576e-06
-5.504633509297897e-06
-4.690808296261423e-06
-3.463279327443544e-06
-1.8827597263034943e-06
1.7378222151934186e-06
3.1365041746334033e-06
4.1356193955927045e-06
4.690795410412785e-06
4.768183327275716e-06
4.3840308946267725e-06
3.6112818022765447e-06
2.553922140260609e-06
1.3185866928021317e-06
9.997582622878198e-12
-1.3185349501641797e-06
-2.5538484045278115e-06
-3.6112714289632253e-06
-4.384021035747435e-06
-4.768193417547216e-06
-4.690721148782953e-06
-4.135621452497698e-06
-3.1364484250006285e-06
-1.7379165746251451e-06
1.3736516236567686e-06
2.435888354846566e-06
3.136392625672363e-06
3.46326201753136e-06
3.4317143824819096e-06
3.089483436219398e-06
2.505139702870668e-06
1.7533449936241174e-06
9.002594096897687e-07
3.3959189627008612e-12
-9.001354828157976e-07
-1.7533954707396604e-06
-2.5052909894320713e-06
-3.0893957775552164e-06
-3.4317005826274213e-06
-3.4632842576031234e-06
-3.13646114533106e-06
-2.4358634067617353e-06
-1.3737501709429854e-06
7.846040532520637e-07
1.3737485629328194e-06
1.7378834701112233e-06
1.8826595786121392e-06
1.8330207694518263e-06
1.6262870287941933e-06
1.304186978655364e-06
9.058549474902367e-07
4.631088100729569e-07
8.431907949635331e-12
-4.631206996438819e-07
-9.060548030147275e-07
-1.304345401012194e-06
-1.6262886236113536e-06
-1.8328933040238568e-06
-1.882593544669936e-06
-1.7378479079252149e-06
-1.3736346073738546e-06
-7.846884868710144e-07
7.832450767408794e-07
1.3717013621003527e-06
1.7354400904667777e-06
1.8799520177387175e-06
1.8301125845887611e-06
1.6232874110490292e-06
1.3016572472275556e-06
9.040879189355089e-07
4.620320584770854e-07
3.2429087193364126e-11
-4.620383864326061e-07
-9.039660318274634e-07
-1.301738725378171e-06
-1.6232809082160349e-06
-1.8300330457549085e-06
-1.8798975184655675e-06
-1.7354431443399043e-06
-1.3716184079255733e-06
-7.831751714544588e-07
1.371735724529921e-06
2.4338000929532977e-06
3.1339457899279277e-06
3.460234664024592e-06
3.428407413363227e-06
3.0859006752738394e-06
2.50198296478793e-06
1.750915720126478e-06
8.987004127963827e-07
4.852265464427852e-11
-8.987001984678278e-07
-1.7508986557279727e-06
-2.5021145844301984e-06
-3.085996306231853e-06
-3.428394098677068e-06
-3.4602459437482747e-06
-3.133845142617997e-06
-2.4337350440113703e-06
-1.371709997002174e-06
1.735481188071264e-06
3.1338530240496154e-06
4.132532590746252e-06
4.687181387942607e-06
4.76409239746553e-06
4.379459623504722e-06
3.6068362980062885e-06
2.550116232263866e-06
1.3165064619742595e-06
-7.257731221566033e-11
-1.3165116166044544e-06
-2.5501423798549028e-06
-3.6068684449719335e-06
-4.379522916455464e-06
-4.764080297883777e-06
-4.687159333934682e-06
-4.13259849937897e-06
-3.133897177265421e-06
-1.7354273659370145e-06
1.8798956922354282e-06
3.4602654328391713e-06
4.687129278372476e-06
5.500198917349902e-06
5.7990638805405226e-06
5.5034726764852104e-06
4.639662432786434e-06
3.3309476235587887e-06
1.7335088570991086e-06
-1.4828450967119267e-11
-1.7334690925879803e-06
-3.330864282904966e-06
-4.639684199940486e-06
-5.5034380864564525e-06
-5.799024811382891e-06
-5.500270509318367e-06
-4.687215679317902e-06
-3.4602618992733702e-06
-1.8800324159476411e-06
1.8301277975099617e-06
3.4283572523698125e-06
4.764103434844874e-06
5.799048437206411e-06
6.418271511661466e-06
6.412196413750626e-06
5.626203594184809e-06
4.142889866887156e-06
2.185692919001725e-06
-3.014259328248947e-11
-2.1856323186957016e-06
-4.143046864156508e-06
-5.626163220053687e-06
-6.412150295714153e-06
-6.418346923244694e-06
-5.799098872980024e-06
-4.764028799803671e-06
-3.4283079839228514e-06
-1.8300559706044273e-06
1.6233060789877518e-06
3.0858526752150506e-06
4.379446153779387e-06
5.503536228856909e-06
6.412088096617585e-06
6.898876885694238e-06
6.536559953494725e-06
5.057104582623095e-06
2.7387552009108806e-06
2.7286669451731527e-11
-2.7386500836106e-06
-5.057015474888016e-06
-6.536656050402934e-06
-6.898942822405191e-06
-6.4120250738188e-06
-5.5034383712147805e-06
-4.379351439640078e-06
-3.085908518073166e-06
-1.6233221189244917e-06
1.3016900307014079e-06
2.5020654082393012e-06
3.6068954486837e-06
4.639704765524444e-06
5.62612066372023e-06
6.536612843697359e-06
7.014106648644408e-06
6.1420487887237085e-06
3.5012707612809557e-06
-1.1054702292456753e-11
-3.5012870789434547e-06
-6.141995572625514e-06
-7.014001216991417e-06
-6.5366773883898666e-06
-5.626141243057076e-06
-4.639633336203652e-06
-3.606807843330173e-06
-2.5020317962407e-06
-1.3016905636240722e-06
9.039490471429712e-07
1.7508711286536027e-06
2.5501292621257776e-06
3.3310468845262897e-06
4.142928578726446e-06
5.056963435973172e-06
6.142047282168411e-06
6.7879979282828296e-06
4.838139870861485e-06
-6.017817147374593e-11
-4.838069489053465e-06
-6.788084352945395e-06
-6.142052531892678e-06
-5.057071587072359e-06
-4.142963488849849e-06
-3.3309568093185804e-06
-2.5500833239888027e-06
-1.7508580024191284e-06
-9.040599474492705e-07
4.6196779786289444e-07
8.987609863425616e-07
1.3164139423677002e-06
1.7335409205239405e-06
2.1856645452018875e-06
2.73872583544596e-06
3.501336809763611e-06
4.838112237531833e-06
5.475643557170673e-06
-1.2948144292868058e-10
-5.4756499229431654e-06
-4.838126147408556e-06
-3.5012931842281353e-06
-2.7387242819039426e-06
-2.185775233570081e-06
-1.7335075900397345e-06
-1.3165120829172067e-06
-8.98711875729416e-07
-4.619791858385264e-07
2.5643414475196025e-11
9.69191463195962e-11
-6.274361585845156e-11
-1.0792408633442108e-13
1.3042558005826876e-10
-5.4307149055521364e-12
3.5450409968662555e-11
-1.6321704404687054e-11
3.262369888124006e-11
-2.2104998387284525e-11
-2.747243751932693e-11
-2.9933788087133095e-11
-1.121502682388531e-10
8.080503453855581e-11
7.636259159726766e-11
-7.017365855066515e-12
-3.1861114441200655e-11
-1.0957901253050295e-13
-7.78174972376755e-11
-4.6194115536218883e-07
-8.986766128829538e-07
-1.3164590310296709e-06
-1.7335689460294679e-06
-2.1857368639258135e-06
-2.7386158337437683e-06
-3.501288824692833e-06
-4.838069305512782e-06
-5.475679708519948e-06
-4.192983460438171e-11
5.475706527603361e-06
4.838159229343317e-06
3.5013403788287933e-06
2.7387778619158976e-06
2.1858513332834173e-06
1.7335187381551515e-06
1.316448820115959e-06
8.986541956065852e-07
4.620789094116756e-07
-9.040379225985773e-07
-1.7508938375647431e-06
-2.5500684205093105e-06
-3.3309362843271517e-06
-4.142931310999187e-06
-5.057001827690061e-06
-6.1420534007115835e-06
-6.7880342051879206e-06
-4.838075348005677e-06
-2.3536480056596254e-11
4.8380409881365605e-06
6.7880239063618925e-06
6.1420400570850325e-06
5.056904530764336e-06
4.142924364743117e-06
3.3308145889789087e-06
2.5501363452428566e-06
1.750945266186521e-06
9.039754418939394e-07
-1.3016005053108348e-06
-2.502118879210008e-06
-3.6069185309316187e-06
-4.639800556944379e-06
-5.626169373430107e-06
-6.536668154932118e-06
-7.014087402865826e-06
-6.1420093261828346e-06
-3.5013021844020054e-06
5.212596673742631e-11
3.501366486070162e-06
6.141967303016638e-06
7.0141560944737835e-06
6.536557828449793e-06
5.626155514752013e-06
4.6397680935426205e-06
3.606855140732279e-06
2.502036308426464e-06
1.3017149869485461e-06
-1.6233660905459746e-06
-3.086000012125084e-06
-4.379362909090467e-06
-5.503477180035521e-06
-6.412154372456569e-06
-6.898919977245399e-06
-6.536677345639341e-06
-5.057042102348669e-06
-2.7386785478780012e-06
2.8554700270966293e-11
2.738704202654915e-06
5.05709718155202e-06
6.5366015813556055e-06
6.898876503532922e-06
6.4120251511406295e-06
5.503353733060656e-06
4.3795420978150895e-06
3.085820341580149e-06
1.6233676807687197e-06
-1.8301214956030487e-06
-3.428403248555839e-06
-4.764119349014162e-06
-5.799017774029552e-06
-6.418343532436227e-06
-6.411941859855302e-06
-5.6262067608219e-06
-4.142812308205457e-06
-2.1857666845891133e-06
-2.047443464769927e-11
2.1857640818065405e-06
4.1428870897614045e-06
5.6261724560649484e-06
6.412062377524064e-06
6.418312891148109e-06
5.7990629036223235e-06
4.764004301749912e-06
3.428426832674872e-06
1.8300932999402303e-06
-1.8798278286005776e-06
-3.460062497920302e-06
-4.687136207968262e-06
-5.500184688277121e-06
-5.799036000883606e-06
-5.5034369974144015e-06
-4.639691422187592e-06
-3.3309054063429544e-06
-1.7334819529778167e-06
5.468212341264156e-11
1.7335081455380902e-06
3.3308691402764157e-06
4.6397898929503856e-06
5.50339143449638e-06
5.799013575250207e-06
5.500131452917424e-06
4.68729200932879e-06
3.460287838390544e-06
1.879937040882157e-06
-1.7354273083719507e-06
-3.1339182683387534e-06
-4.132716143013387e-06
-4.687285920013107e-06
-4.76406273614699e-06
-4.379381480519584e-06
-3.6068070742613367e-06
-2.5501924075087973e-06
-1.316482519164719e-06
-3.71905249652027e-11
1.316477528977636e-06
2.5501426593656923e-06
3.606803342633483e-06
4.379468417132007e-06
4.764045622710454e-06
4.687214922693972e-06
4.132645353392694e-06
3.13391372150449e-06
1.7355072290514e-06
-1.3717021833704879e-06
-2.433691996692189e-06
-3.133917710680667e-06
-3.4601975566518617e-06
-3.428349561730021e-06
-3.085874400576144e-06
-2.50194268518536e-06
-1.7509890088071578e-06
-8.986801976682002e-07
-2.7874889896306598e-11
8.988027432304396e-07
1.7508467729208943e-06
2.50192564129649e-06
3.0860608222684632e-06
3.428343372688554e-06
3.460135268720105e-06
3.1339998713699434e-06
2.433673984317611e-06
1.3717734652707921e-06
-7.831594268682684e-07
-1.3718719329425255e-06
-1.7355178955104356e-06
-1.8799452519563387e-06
-1.8300628197923108e-06
-1.6233803072120134e-06
-1.30167330187822e-06
-9.038922014516226e-07
-4.6204961370518993e-07
4.648231452519802e-11
4.6204400329374895e-07
9.040817419841973e-07
1.3018209959331228e-06
1.6232546741767884e-06
1.8300595031675582e-06
1.8799044561269504e-06
1.7355259024189398e-06
1.3717650592342916e-06
7.830814062477053e-07
-2.157566247815157e-07
-7.212910074771983e-08
7.103161780291911e-08
2.1465702539080755e-07
-3.3026797366386695e-07
-1.1035846152890327e-07
1.0906745973038312e-07
3.289834847250428e-07
-4.0320865703213915e-07
-1.3482643169276942e-07
1.3301139533544726e-07
4.013998200144697e-07
-4.310911130359085e-07
-1.4431892068900165e-07
1.4186337900234935e-07
4.2863528505049375e-07
-4.176015220708207e-07
-1.3989328585470306e-07
1.372211436458104e-07
4.149266740645363e-07
-3.7001724694646354e-07
-1.239741364081337e-07
1.2152249204144816e-07
3.675684557870318e-07
-2.9718468297010303e-07
-9.967962205301162e-08
9.736726003933827e-08
2.948708993644189e-07
-2.069099060905688e-07
-6.946944322919202e-08
6.764160117786466e-08
2.050798798593212e-07
-1.0597206259732594e-07
-3.564116037024778e-08
3.4517205784595495e-08
1.0484551676848142e-07
-4.788252780385527e-11
-3.718603897029382e-11
-2.7235592253704866e-11
-1.7890605663595238e-11
1.0587483832008582e-07
3.5545502045236654e-08
-3.461275564775601e-08
-1.0494238542047007e-07
2.0684772057688594e-07
6.944560208832495e-08
-6.762687812175705e-08
-2.0502589139631544e-07
2.9712551086538697e-07
9.962364594037765e-08
-9.742110823260375e-08
-2.949236074419048e-07
3.701650203476181e-07
1.2411686131988398e-07
-1.2138191913743657e-07
-3.674270797789092e-07
4.1763167252586997e-07
1.399629623623222e-07
-1.3711145388506374e-07
-4.1477603149667197e-07
4.310246653170535e-07
1.4428107706493387e-07
-1.418726043207752e-07
-4.2861551464989933e-07
4.0336391050194154e-07
1.349926067699403e-07
-1.3283006391681673e-07
-4.011989045253628e-07
3.3036096550725924e-07
1.1042972251559813e-07
-1.0901700646034906e-07
-3.289529725385154e-07
2.157381943611314e-07
7.21047991418533e-08
-7.106308062138078e-08
-2.1469678800414838e-07
2.156373536607581e-07
7.2010430882119e-08
-7.115255831746659e-08
-2.1478296517718487e-07
3.303387198991259e-07
1.1044004978588706e-07
-1.0897393810591072e-07
-3.2887690839047967e-07
4.033332959910152e-07
1.349181196694249e-07
-1.329506017257176e-07
-4.0136822526681826e-07
4.3081846354611764e-07
1.4405551520754734e-07
-1.4212176943639854e-07
-4.288929594670199e-07
4.1736068457504105e-07
1.396565505427938e-07
-1.374578049335995e-07
-4.151673795964317e-07
3.701024191872515e-07
1.2405599745732299e-07
-1.2144193660759695e-07
-3.674872027688292e-07
2.971404074181283e-07
9.964499912001878e-08
-9.73936863067626e-08
-2.948904580142575e-07
2.0687209961386954e-07
6.938012543297734e-08
-6.778481853077223e-08
-2.0527976077842902e-07
1.0583120154360193e-07
3.5485820717648386e-08
-3.468960182127778e-08
-1.050378423701065e-07
-5.531332336605743e-11
-5.329863633773968e-11
-5.12600569629873e-11
-4.925394120336435e-11
-1.05848164554459e-07
-3.5501211234634233e-08
3.467585073593793e-08
1.0502586422420079e-07
-2.067928601637986e-07
-6.933977480215459e-08
6.778590463593637e-08
2.0524106151935395e-07
-2.9704910624664405e-07
-9.955941489281361e-08
9.747448885717713e-08
2.9496764716863133e-07
-3.7008500344912904e-07
-1.2402951794082684e-07
1.2147867480688523e-07
3.6753540559597564e-07
-4.175397306238615e-07
-1.3986297616938592e-07
1.3722149724317012e-07
4.1489825930440816e-07
-4.3108799614634957e-07
-1.4432444879822204e-07
1.4184949483249387e-07
4.2861309900409095e-07
-4.0334380681673193e-07
-1.3499551009509003e-07
1.328047541885452e-07
4.0115165117092164e-07
-3.304625893906128e-07
-1.1056633129457455e-07
1.0884283239151818e-07
3.2873842503462064e-07
-2.1572814133739675e-07
-7.20836279438121e-08
7.10947688422215e-08
2.1473862390716282e-07
-2.1573906592491175e-07
-7.209991545220921e-08
7.10722064428443e-08
2.1470909081087097e-07
-3.3043864841922864e-07
-1.1047272502470382e-07
1.0900733997810767e-07
3.2897590034465345e-07
-4.0329934529199224e-07
-1.3492033601328682e-07
1.3291194203525133e-07
4.012926081201594e-07
-4.3107418836330763e-07
-1.4432449750231835e-07
1.418346619597166e-07
4.285825004222629e-07
-4.1747146690886833e-07
-1.3980639721258847e-07
1.3726739856410874e-07
4.1493433277153824e-07
-3.702409109452437e-07
-1.2418265262718192e-07
1.21325154864467e-07
3.673782968055886e-07
-2.971783308689663e-07
-9.966856574783467e-08
9.73838567269042e-08
2.948941716963971e-07
-2.0692860041617023e-07
-6.948361581937679e-08
6.763169985678219e-08
2.0507400703105583e-07
-1.06052243075902e-07
-3.5681096178380445e-08
3.4515949967964255e-08
1.0488182922499534e-07
7.49345273332036e-11
6.878989565473059e-11
6.369078354995228e-11
5.967311193788571e-11
1.0582254684511627e-07
3.550880511675458e-08
-3.463367365813541e-08
-1.049473997948025e-07
2.0690058103074727e-07
6.943439656743877e-08
-6.770293876912081e-08
-2.051684106548629e-07
2.971990541115327e-07
9.967298041611838e-08
-9.739566506940245e-08
-2.949223010112467e-07
3.701000902238405e-07
1.240242638624045e-07
-1.2150415654166302e-07
-3.6758129550590324e-07
4.1761493395700566e-07
1.399379995804806e-07
-1.3714477225396093e-07
-4.148180586457939e-07
4.3115375322755334e-07
1.4436361011477272e-07
-1.418366756024414e-07
-4.2862686113961934e-07
4.034420092724478e-07
1.350316174049404e-07
-1.328307937462081e-07
-4.0124046783371337e-07
3.305177126815273e-07
1.1058138546515828e-07
-1.0886712539445731e-07
-3.288016663660631e-07
2.1565494616113123e-07
7.203631650909426e-08
-7.11176518439216e-08
-2.1473847481440211e-07
2.1581223777836223e-07
7.215195378662553e-08
-7.104187412301788e-08
-2.1470095943471046e-07
3.3046658613755664e-07
1.1051298171374513e-07
-1.0895483481057622e-07
-3.289108674690844e-07
4.0326419552608184e-07
1.348767466879952e-07
-1.3296489585409854e-07
-4.013556604773316e-07
4.309391245203853e-07
1.441882798575156e-07
-1.4197522173534094e-07
-4.2873042813487694e-07
4.1750445360644317e-07
1.3983697736558165e-07
-1.372382270985184e-07
-4.149054651618467e-07
3.702463122930155e-07
1.2418081290349603e-07
-1.2133466659874914e-07
-3.6739578897909686e-07
2.973203819429948e-07
9.977946408348815e-08
-9.730283843933929e-08
-2.9484203765278716e-07
2.0680443522935743e-07
6.937174182319872e-08
-6.773330461437577e-08
-2.0516730291422758e-07
1.0579093401644202e-07
3.5450808025250247e-08
-3.4719356011708724e-08
-1.0506217437700194e-07
-3.425889086305922e-11
-5.883923556715409e-11
-8.451817024024422e-11
-1.1144697664722258e-10
-1.0576915877857918e-07
-3.544416388168159e-08
3.471091645362856e-08
1.0503868212718981e-07
-2.0682766608756675e-07
-6.938662840128007e-08
6.772594050505343e-08
2.0516666823788832e-07
-2.970420984425848e-07
-9.955502278113926e-08
9.747631334391937e-08
2.9496678833479395e-07
-3.6996582663748057e-07
-1.2391141183606957e-07
1.2159808560757712e-07
3.676584193201826e-07
-4.1765595113971155e-07
-1.3995757977558476e-07
1.3714650632171144e-07
4.1484102183270144e-07
-4.310800577889129e-07
-1.4433851630579753e-07
1.418128323452117e-07
4.2855322818918795e-07
-4.03311110737381e-07
-1.3495630814264192e-07
1.328514615817067e-07
4.0120676217392237e-07
-3.3042879684502813e-07
-1.1052440070102865e-07
1.0889330383234697e-07
3.287976991298014e-07
-2.1572925763130302e-07
-7.210018568987175e-08
7.106279313606745e-08
2.1469118895167671e-07
-4.708320488697182e-07
-1.573717036615352e-07
1.55982674117372e-07
4.694488608472658e-07
-8.250482822005911e-07
-2.7575749893954393e-07
2.737376947753445e-07
8.230261405867134e-07
-1.0437591138542923e-06
-3.488113651944902e-07
3.464377035869437e-07
1.0413867351857786e-06
-1.1306993938711707e-06
-3.778953748048708e-07
3.752001943926886e-07
1.1280074666275564e-06
-1.1007802178907011e-06
-3.679490002579666e-07
3.651103274923684e-07
1.0979466171963381e-06
-9.766455999690726e-07
-3.2659108322591335e-07
3.23610143876385e-07
9.73666058542988e-07
-7.832093570671328e-07
-2.6195859822303325e-07
2.5937240447082566e-07
7.806288673251061e-07
-5.440232792482125e-07
-1.819843395145515e-07
1.800892272460497e-07
5.42134169684988e-07
-2.7816232119753925e-07
-9.310775018686601e-08
9.195444618942394e-08
2.7700677868863766e-07
3.1678458467521153e-11
2.9438132487236146e-11
2.8958436343318184e-11
3.000531767494152e-11
2.7812128174098394e-07
9.307635023825256e-08
-9.197703278521208e-08
-2.7702115138611427e-07
5.440698884820461e-07
1.8204322585133048e-07
-1.8001386714941447e-07
-5.42037895099462e-07
7.832102670614349e-07
2.6194055710929143e-07
-2.594100873450078e-07
-7.806874393299912e-07
9.765687973666004e-07
3.2653536204477196e-07
-3.236452023880343e-07
-9.736804867134519e-07
1.1007663400265655e-06
3.6795630542138524e-07
-3.6508074315391714e-07
-1.0978931041863427e-06
1.1306822438293673e-06
3.77893439578586e-07
-3.7518534278316307e-07
-1.1279739136650646e-06
1.0437747318750579e-06
3.488211946928166e-07
-3.4643305072898367e-07
-1.0413863731455197e-06
8.249627238797463e-07
2.7571688537147976e-07
-2.737357056650791e-07
-8.229832496944867e-07
4.708689899587948e-07
1.574156864823928e-07
-1.559309632734318e-07
-4.69388610181698e-07
-8.250739200951762e-07
-2.7576846654137066e-07
2.737413056577709e-07
8.230446056564644e-07
-1.4636009069216027e-06
-4.888390752466609e-07
4.867745432776682e-07
1.4615475071866335e-06
-1.884646057798145e-06
-6.294398862995154e-07
6.269010344103765e-07
1.8821124051701665e-06
-2.0809172919973584e-06
-6.950333368317685e-07
6.920577924722504e-07
2.077945229540107e-06
-2.0619527030737994e-06
-6.888085843509417e-07
6.854582019454047e-07
2.058605821114723e-06
-1.8561653606190276e-06
-6.201869980938801e-07
6.16730051323372e-07
1.8527129056825076e-06
-1.5051799672309574e-06
-5.030414679009498e-07
4.998024900892961e-07
1.501943731184452e-06
-1.0535120698665357e-06
-3.52177796043851e-07
3.496190436672042e-07
1.0509557847246387e-06
-5.408879246160403e-07
-1.8087514606218713e-07
1.7936191159043102e-07
5.393703705856845e-07
-9.645471921171378e-12
5.478225512112189e-12
2.010659000406534e-11
3.4408639132399443e-11
5.408395450136327e-07
1.808400812673694e-07
-1.7938468978642708e-07
-5.393814891396786e-07
1.0534228214245656e-06
3.5211593177320033e-07
-3.496542645003986e-07
-1.0509648240286662e-06
1.5052569548902606e-06
5.030651975164446e-07
-4.99830525697853e-07
-1.5020231033738285e-06
1.8562211369088644e-06
6.202027087974515e-07
-6.167523958280907e-07
-1.852772028909655e-06
2.0618947047107428e-06
6.887703184500771e-07
-6.854780544747474e-07
-2.0586084941605354e-06
2.08102107138175e-06
6.951026964921447e-07
-6.920185481942842e-07
-2.077932552031758e-06
1.8846200039654426e-06
6.294421230242098e-07
-6.268686805512014e-07
-1.8820473778081992e-06
1.4635995176821848e-06
4.888520644535932e-07
-4.867460686210079e-07
-1.4615018712679784e-06
8.25003587837797e-07
2.757224136611114e-07
-2.7376355819092035e-07
-8.23043196991613e-07
-1.0437870604992905e-06
-3.488204068854972e-07
3.464461640137473e-07
1.0414117515220034e-06
-1.8846573185196669e-06
-6.294653509160419e-07
6.26857363579536e-07
1.8820463169588741e-06
-2.4851682007658027e-06
-8.299597115124513e-07
8.268186049188719e-07
2.4820233903780076e-06
-2.8186530526344566e-06
-9.413217377067518e-07
9.377745130781379e-07
2.815109754906314e-06
-2.86521027288017e-06
-9.57032106008171e-07
9.528737145818311e-07
2.861057653947424e-06
-2.634298618894859e-06
-8.801137227135158e-07
8.75573728621043e-07
2.6297597643699933e-06
-2.169954027759352e-06
-7.251782812404961e-07
7.207638660321203e-07
2.165541106720348e-06
-1.5345765506345754e-06
-5.130164011414584e-07
5.093249063996275e-07
1.530886317956115e-06
-7.923419668882936e-07
-2.6494033603108313e-07
2.6285180245930184e-07
7.902580183918873e-07
1.4527393177310444e-11
-3.982314478179205e-12
-2.451426561744796e-11
-4.7338771791416434e-11
7.923619686385497e-07
2.649528135119372e-07
-2.628459347293888e-07
-7.902579619231687e-07
1.5347003253542157e-06
5.130967934766084e-07
-5.092835037891208e-07
-1.5308801656691018e-06
2.1700048547339257e-06
7.252051946668447e-07
-7.207582820474567e-07
-2.1655549287957765e-06
2.6343688572655344e-06
8.801470745140039e-07
-8.755742844715475e-07
-2.6297923186244243e-06
2.86519596889509e-06
9.57025817344137e-07
-9.528729450133944e-07
-2.861050741039678e-06
2.8187187130664093e-06
9.413751902269396e-07
-9.377322291691248e-07
-2.815077779855235e-06
2.485051686266365e-06
8.29862826096095e-07
-8.26900593612484e-07
-2.4820951184112428e-06
1.8846527694120485e-06
6.29454196834911e-07
-6.268774438086822e-07
-1.8820774435220067e-06
1.0437056328742311e-06
3.4877441627834127e-07
-3.4645813060119046e-07
-1.0413906143293128e-06
-1.1306814880485128e-06
-3.778929964365352e-07
3.7518519217100144e-07
1.12797287947497e-06
-2.0809047934500224e-06
-6.950152923665409e-07
6.920807483455638e-07
2.0779723269616357e-06
-2.81862893778545e-06
-9.413151189317792e-07
9.377628062447185e-07
2.8150785854087756e-06
-3.307952324626412e-06
-1.104863995085581e-06
1.100336624173387e-06
3.3034236230217173e-06
-3.4882117706316884e-06
-1.1652945759027533e-06
1.1598396224207774e-06
3.482759766918614e-06
-3.3111142973066277e-06
-1.1064636031843378e-06
1.1002209044548572e-06
3.304878097642322e-06
-2.792419584146666e-06
-9.335867749669935e-07
9.268668701468974e-07
2.7856927448562108e-06
-2.005457824437451e-06
-6.708085585754864e-07
6.649467780839302e-07
1.999597902396788e-06
-1.043940471744803e-06
-3.4930309045569374e-07
3.458856968584223e-07
1.0405221182174795e-06
-7.410077759728573e-11
-5.214155496258144e-11
-3.5192567610087266e-11
-2.292038087103876e-11
1.0439130629959215e-06
3.492968069576663e-07
-3.458741306104629e-07
-1.0404954274255418e-06
2.0055093307505545e-06
6.708640139449495e-07
-6.648848214635406e-07
-1.999526619566455e-06
2.7922758931327174e-06
9.334825532732183e-07
-9.269380416808415e-07
-2.7857366667050076e-06
3.31106181614485e-06
1.1064335997297559e-06
-1.1002292260933744e-06
-3.304865047695782e-06
3.488267707733861e-06
1.1653434319539024e-06
-1.1597959008145808e-06
-3.482719328675582e-06
3.3079279945329165e-06
1.1048319256100336e-06
-1.100378833041732e-06
-3.303478836383378e-06
2.8186676153257872e-06
9.413265382347824e-07
-9.377809113003677e-07
-2.8151291032695036e-06
2.080938008238581e-06
6.950419588133694e-07
-6.920609057006755e-07
-2.0779601272273573e-06
1.130731794477674e-06
3.7789976439078776e-07
-3.752234509941943e-07
-1.128058814883065e-06
-1.1008252943575658e-06
-3.679744665120721e-07
3.651012276117971e-07
1.09795091196227e-06
-2.061914281762528e-06
-6.887898438626139e-07
6.854557592743393e-07
2.058580463096954e-06
-2.8652715201998857e-06
-9.570709449818748e-07
9.528541352089859e-07
2.8610545229831863e-06
-3.4881922090362893e-06
-1.165283794728189e-06
1.1598417355464241e-06
3.482753210746342e-06
-3.861700156929798e-06
-1.290437653466564e-06
1.2833860802488606e-06
3.854651120838853e-06
-3.859359481876712e-06
-1.2901921567325114e-06
1.281559949384281e-06
3.850732870708251e-06
-3.388166068738624e-06
-1.1334901245350915e-06
1.1233667918143786e-06
3.3780428040502963e-06
-2.4961754169217087e-06
-8.356594723910038e-07
8.263781536600734e-07
2.486900699601169e-06
-1.3182843255042653e-06
-4.419106690613239e-07
4.352289917214369e-07
1.311604013485429e-06
4.184664767481472e-11
2.5397607628097063e-11
8.062273071374193e-12
-1.0384370446869795e-11
1.3182390203106409e-06
4.4189715151660147e-07
-4.352146944532065e-07
-1.3115652767944908e-06
2.496204639389904e-06
8.356480108821784e-07
-8.264338110970659e-07
-2.4870047264854978e-06
3.388094951713161e-06
1.1334534597874646e-06
-1.1233736675539396e-06
-3.3780241415343193e-06
3.859424411001289e-06
1.290252989130658e-06
-1.2815036199119445e-06
-3.850681401247613e-06
3.8616503312965955e-06
1.2903871896528807e-06
-1.2834408893887261e-06
-3.854714225846184e-06
3.4882700707949965e-06
1.1653280838908042e-06
-1.1598296661800844e-06
-3.4827725167128898e-06
2.8651667177345685e-06
9.570156750474124e-07
-9.528636050609718e-07
-2.861021027481675e-06
2.061966529076642e-06
6.888385769843186e-07
-6.854085805828303e-07
-2.0585330021832826e-06
1.1008267723454368e-06
3.6799342611679164e-07
-3.650648084767283e-07
-1.0978968898039954e-06
-9.76652257959204e-07
-3.265885488504261e-07
3.2361982539586e-07
9.736810170808685e-07
-1.8561802727218302e-06
-6.202044049233302e-07
6.167064632925379e-07
1.8526791618379834e-06
-2.6343114609035656e-06
-8.801255658615059e-07
8.755618579846247e-07
2.6297472750132223e-06
-3.3111981549878433e-06
-1.1065077770260057e-06
1.1002139293815605e-06
3.304906775292854e-06
-3.859358753851433e-06
-1.290214971617909e-06
1.2815114701011932e-06
3.850655996326391e-06
-4.154782859599332e-06
-1.3898608738523166e-06
1.3780954159839376e-06
4.143017206487826e-06
-3.939418222055624e-06
-1.3189584287358336e-06
1.3044552290390754e-06
3.924916768559272e-06
-3.0525275383601336e-06
-1.0240525198101924e-06
1.0065885500953886e-06
3.0350728914274594e-06
-1.6535663154848557e-06
-5.549217844506849e-07
5.448193873373863e-07
1.6434447131057073e-06
-2.5322202668043303e-11
-1.0811115891407042e-11
2.620542671749604e-12
1.5222528099156918e-11
1.6535522396089741e-06
5.549347493714885e-07
-5.447780345585462e-07
-1.643372866119014e-06
3.0524928836157816e-06
1.024046682552432e-06
-1.0065645444125304e-06
-3.0350173856295848e-06
3.939411079487837e-06
1.318932931284461e-06
-1.3045014158608037e-06
-3.924986400227759e-06
4.1548666881788265e-06
1.3899101653051804e-06
-1.378082189196217e-06
-4.143042154451659e-06
3.85935165987325e-06
1.2902256962370184e-06
-1.2814832714078128e-06
-3.850610463356635e-06
3.3110809805197983e-06
1.106447948134165e-06
-1.1002197647311251e-06
-3.30486049654119e-06
2.6343061473761697e-06
8.801446973946692e-07
-8.755185339492932e-07
-2.629679073929553e-06
1.8561452491926145e-06
6.201667592728444e-07
-6.167484946327517e-07
-1.8527272560367458e-06
9.765904402103676e-07
3.2654073760240987e-07
-3.2365552290331e-07
-9.737063155351722e-07
-7.832693844772587e-07
-2.619917180667064e-07
2.593633813899321e-07
7.806416092819013e-07
-1.5051193645067296e-06
-5.029799467308471e-07
4.998679195358791e-07
1.5020160922044057e-06
-2.170023487062245e-06
-7.252163259606481e-07
7.207572993370159e-07
2.1655666352440872e-06
-2.7923091762138696e-06
-9.335021756047557e-07
9.269315264931466e-07
2.785743355070147e-06
-3.388111579641362e-06
-1.1334720671912768e-06
1.1233502253162053e-06
3.377992764758142e-06
-3.939499767305343e-06
-1.3190045101765802e-06
1.3044431374335808e-06
3.924937570041337e-06
-4.2334759736625815e-06
-1.419739623309546e-06
1.3977305604977175e-06
4.211479636660742e-06
-3.712515228342095e-06
-1.2471712095181442e-06
1.2215616481091318e-06
3.6868851446894557e-06
-2.1328427724544297e-06
-7.23491373168933e-07
6.87673023656854e-07
2.097102797086331e-06
-1.3745581062263312e-11
-1.1646468511816721e-11
-1.0486882195959168e-11
-1.0289342294855786e-11
2.1328379488302907e-06
7.234809361392203e-07
-6.876873056178845e-07
-2.0971190907818904e-06
3.712507877697696e-06
1.247174487573055e-06
-1.2215450404390316e-06
-3.6868520043205344e-06
4.233530464779062e-06
1.4198018322801598e-06
-1.397657307961736e-06
-4.211392001657321e-06
3.939447131322965e-06
1.3189521894038658e-06
-1.304497117105008e-06
-3.924995523190561e-06
3.388186884032557e-06
1.1335189887794195e-06
-1.1233284807343757e-06
-3.377993401745133e-06
2.7922654936493596e-06
9.334845038136419e-07
-9.269219768959225e-07
-2.7857044244614104e-06
2.1700217948533718e-06
7.252318898962051e-07
-7.207215598319106e-07
-2.1655071316233065e-06
1.5052414673692727e-06
5.030713363385342e-07
-4.998013448682254e-07
-1.5019687368868218e-06
7.832444258171201e-07
2.6197374599669365e-07
-2.5937494974731523e-07
-7.806473885773463e-07
-5.440334551465309e-07
-1.8202293957172988e-07
1.8002008161585592e-07
5.420318012969161e-07
-1.053503387929422e-06
-3.521818680296551e-07
3.496020181126269e-07
1.0509253701197763e-06
-1.5345560371374245e-06
-5.129982329314664e-07
5.093408664592902e-07
1.5309004697712514e-06
-2.0054512106064404e-06
-6.707822930579477e-07
6.649947024289782e-07
1.9996699393322326e-06
-2.4962642948440916e-06
-8.357120759271142e-07
8.263585457683742e-07
2.4869113321203395e-06
-3.0525091606163623e-06
-1.0240722462979968e-06
1.0065301097213208e-06
3.034974254217948e-06
-3.7124705789710888e-06
-1.2471401262363624e-06
1.2215808775709047e-06
3.6868936771003447e-06
-4.127738669965075e-06
-1.3964136689227635e-06
1.3399738042901843e-06
4.071419117634284e-06
-2.937458601338927e-06
-9.914981127338851e-07
9.580254056763826e-07
2.9036920216156392e-06
4.3700584817507604e-11
1.6429704818854418e-11
-9.573512121940908e-12
-3.4907476215151334e-11
2.9374896206406376e-06
9.915324658549274e-07
-9.579832672274025e-07
-2.90363779265404e-06
4.1277552352975144e-06
1.3964048460081424e-06
-1.3400079029342316e-06
-4.071478921636312e-06
3.712547600901589e-06
1.2471914714769217e-06
-1.2215512590306454e-06
-3.6868826701376423e-06
3.0524824629930836e-06
1.0240296838999463e-06
-1.0065911902230884e-06
-3.0350570564968704e-06
2.4961944432543015e-06
8.356597043252673e-07
-8.263994268620234e-07
-2.4869465247764205e-06
2.005447550409295e-06
6.708002329956775e-07
-6.64954318520955e-07
-1.999605750884273e-06
1.5345477209598168e-06
5.130019985234713e-07
-5.093244363919142e-07
-1.5308701443589312e-06
1.0534356722005644e-06
3.5213598132723123e-07
-3.4962750564832e-07
-1.0509313937406145e-06
5.440557796915213e-07
1.820133619621911e-07
-1.8006214661317466e-07
-5.42107461247443e-07
-2.7807382952174664e-07
-9.305915365381834e-08
9.196477399747716e-08
2.769797587155731e-07
-5.408703254751457e-07
-1.8084806413173893e-07
1.7939915385178917e-07
5.394187560479879e-07
-7.923764812726997e-07
-2.6498361203886045e-07
2.6279596385472836e-07
7.901857598628659e-07
-1.0439611236173763e-06
-3.4931023752335366e-07
3.4589152403396994e-07
1.0405408734544264e-06
-1.3182898397183507e-06
-4.4191961341352726e-07
4.352149919339965e-07
1.3115835049218316e-06
-1.6534983355194488e-06
-5.54878222407823e-07
5.448388661413728e-07
1.6434400291406859e-06
-2.132870155314298e-06
-7.234952817368467e-07
6.876920999529523e-07
2.09714502236516e-06
-2.937485832445186e-06
-9.915225118485582e-07
9.580017603511015e-07
2.9036672343045467e-06
-3.578380898778405e-06
-1.3118706173910477e-06
9.625932718831942e-07
3.230037517946982e-06
-4.601750230870394e-11
-6.029470325796815e-11
-7.85333985342529e-11
-1.0142424400338967e-10
3.578414886729747e-06
1.311892776502399e-06
-9.625813397230731e-07
-3.2300348575126092e-06
2.937500433876361e-06
9.915282874334297e-07
-9.580034700494566e-07
-2.903675378633508e-06
2.13287263216462e-06
7.235058636055614e-07
-6.876719874735621e-07
-2.097113863428618e-06
1.6535363742201103e-06
5.549090755924135e-07
-5.448163482545121e-07
-1.643427201644676e-06
1.318321348076773e-06
4.4192256808475716e-07
-4.3524509693582125e-07
-1.3116514678175595e-06
1.0439812679723104e-06
3.4933555232395663e-07
-3.4586275186355986e-07
-1.0405096183864482e-06
7.923801214858306e-07
2.649642221064924e-07
-2.628397975917157e-07
-7.902557712224229e-07
5.407739339623185e-07
1.807908957575377e-07
-1.794194813137251e-07
-5.394039445522081e-07
2.781300619484478e-07
9.309586549051396e-08
-9.194577859326925e-08
-2.769767249530958e-07
2.946939914316715e-11
2.7226495363796843e-11
2.579363111987476e-11
2.5262628794431308e-11
2.0912709064457857e-11
3.6212685627923236e-11
5.376870476636597e-11
7.392416886964348e-11
-3.478682619739715e-11
-3.889155317238213e-11
-4.4978906016401865e-11
-5.296090649364871e-11
1.0321750398833984e-11
8.687633945569928e-12
6.274016028928742e-12
3.295478473441804e-12
1.480208317028442e-12
3.3117231179602413e-11
6.482315031974828e-11
9.711448659133204e-11
-2.9398670997604626e-11
-1.9470359352569133e-11
-1.2387205844399674e-11
-7.824654119081842e-12
1.0216823914666051e-11
1.556718295936399e-11
2.1387659004945547e-11
2.7960678911087555e-11
-2.3538285903734746e-11
-2.1858199278357304e-11
-2.0158211905263457e-11
-1.8357593223328195e-11
-4.0477451251907937e-11
-2.3114891944953087e-11
-5.3233806251995475e-12
1.3181233882164634e-11
-3.2661998106142676e-12
-5.496506028102033e-12
-9.223986158213293e-12
-1.4690818006535267e-11
5.90784678122791e-11
3.86401188823271e-11
1.777609656694601e-11
-4.082529453386385e-12
-1.7418098213761724e-11
-1.698639319480666e-11
-1.873145041852986e-11
-2.2971976751384737e-11
2.925003989018293e-11
-5.222903706747495e-12
-3.9872397050721986e-11
-7.531625149936882e-11
-1.757978831951057e-11
6.12364672858412e-12
3.003070708773592e-11
5.471419498026542e-11
-3.665295844612615e-11
-9.948120452407672e-12
1.720264729276888e-11
4.5692704828126374e-11
-9.278289421488228e-11
-6.579454689403796e-11
-4.3047150913300136e-11
-2.377642527306989e-11
-4.143281724655612e-11
-3.4614854385606186e-11
-3.0854855129214265e-11
-3.0004453782650486e-11
1.7418318523643173e-11
1.2383261083215302e-11
7.932108095354273e-12
3.822915942142124e-12
-3.4525363470927495e-11
-4.120221351600062e-11
-5.065831261419351e-11
-6.28828274173987e-11
2.780580450993664e-07
9.305534625497769e-08
-9.195776819181933e-08
-2.7696272278388e-07
5.407906493830328e-07
1.808122285403002e-07
-1.7939355938592638e-07
-5.393733563223424e-07
7.923738872921138e-07
2.6497302410555257e-07
-2.6281627182184186e-07
-7.902175572019332e-07
1.0439504900018604e-06
3.492981410016527e-07
-3.459071506693723e-07
-1.0405618558126384e-06
1.3182952654129665e-06
4.419095260520256e-07
-4.352431576398752e-07
-1.311632410794239e-06
1.6535373803007458e-06
5.549336941843008e-07
-5.447664394864216e-07
-1.6433495739452686e-06
2.132776836052258e-06
7.234391887836478e-07
-6.877129135329785e-07
-2.0971314586247514e-06
2.937409553926962e-06
9.914786506665108e-07
-9.580154837589283e-07
-2.9036522845408974e-06
3.5784422783846637e-06
1.3119058060138966e-06
-9.625828067301445e-07
-3.2300506772713067e-06
3.578674509507884e-11
1.5810089348811118e-11
-3.460343123151688e-12
-2.2550270678545203e-11
-3.5783818976009574e-06
-1.3118586600514154e-06
9.62620158483779e-07
3.230081386152925e-06
-2.9374665393242655e-06
-9.91498866110413e-07
9.580313661654294e-07
2.9037045625700253e-06
-2.1329010226577017e-06
-7.235168730853475e-07
6.876792439207413e-07
2.097140476735662e-06
-1.653543628864912e-06
-5.549017720492266e-07
5.448383398679035e-07
1.6434644893124212e-06
-1.3183304581193545e-06
-4.4190832760616916e-07
4.3528083648256e-07
1.311707560692696e-06
-1.0439252271059185e-06
-3.492910450059866e-07
3.4589584363767245e-07
1.0405315769602963e-06
-7.924443196343639e-07
-2.650249340211547e-07
2.6278037252615294e-07
7.901954538393902e-07
-5.408251298032879e-07
-1.8084194238973672e-07
1.793674122927552e-07
5.393496281067695e-07
-2.780400519247078e-07
-9.300731888990665e-08
9.2035290742698e-08
2.770699312152486e-07
5.440898283200213e-07
1.820401414921735e-07
-1.8003975353272916e-07
-5.420866395454416e-07
1.0534676519319275e-06
3.5214918658876826e-07
-3.49631486470936e-07
-1.050951496519431e-06
1.5346127886194105e-06
5.130518994089783e-07
-5.092875949123943e-07
-1.53084480774765e-06
2.005438995852926e-06
6.70799158372648e-07
-6.649479819438586e-07
-1.9995921592026733e-06
2.496225063371854e-06
8.356867691947101e-07
-8.263732503496768e-07
-2.4869186298417945e-06
3.0524647816540518e-06
1.0240310915447803e-06
-1.006569302797189e-06
-3.0350125315367626e-06
3.7125194362087888e-06
1.2471740445593738e-06
-1.2215610025213819e-06
-3.6868871133646786e-06
4.1277208475618e-06
1.3963959611118515e-06
-1.3399947513918764e-06
-4.071446369449672e-06
2.937420013983394e-06
9.914864162983983e-07
-9.580111350673826e-07
-2.903652429959297e-06
2.016032306373372e-11
8.985869340283337e-12
-1.8343312979673954e-12
-1.2580894659386388e-11
-2.9374217813630393e-06
-9.914940456243887e-07
9.579962331404679e-07
2.9036286616594686e-06
-4.1277363100854225e-06
-1.396406863429095e-06
1.3399859139680281e-06
4.0714375552676485e-06
-3.7126060029642888e-06
-1.2472380187342896e-06
1.2215164205357093e-06
3.6868592302174985e-06
-3.0524343553172545e-06
-1.0240305327799404e-06
1.0065389673043906e-06
3.0349497923479185e-06
-2.496179892381642e-06
-8.356540009673424e-07
8.263935872589168e-07
2.4869258989299037e-06
-2.0053797100405557e-06
-6.707828234687324e-07
6.649205624813248e-07
1.9995191130363354e-06
-1.5345939758989319e-06
-5.130235240027869e-07
5.093274410960386e-07
1.5308979395504269e-06
-1.053454749429944e-06
-3.5212990050215165e-07
3.4965935175740315e-07
1.0509901482175926e-06
-5.44085309079137e-07
-1.8205132227590293e-07
1.8001230346967323e-07
5.420420803436271e-07
7.832243230365687e-07
2.619782910953661e-07
-2.593441315139333e-07
-7.805881819221427e-07
1.5052555004599344e-06
5.030620310667033e-07
-4.998346068880999e-07
-1.5020275855280596e-06
2.1700247385646187e-06
7.252103643405616e-07
-7.207694820571264e-07
-2.165584454753844e-06
2.792318969584845e-06
9.33488490218598e-07
-9.269704534936585e-07
-2.785809617895235e-06
3.3882130507714714e-06
1.1335338211404533e-06
-1.1233261186620325e-06
-3.3780051712922754e-06
3.93942776267045e-06
1.318943723890853e-06
-1.3044973894531242e-06
-3.9249900136567595e-06
4.233493973694602e-06
1.4197616229200127e-06
-1.3977070983835216e-06
-4.21145716940699e-06
3.7125334510744457e-06
1.2471925851624543e-06
-1.2215359314407537e-06
-3.686853503489379e-06
2.1329000189709846e-06
7.235243323355789e-07
-6.876626294054222e-07
-2.097113723550925e-06
-2.9670233284151415e-11
-9.393258740275634e-12
1.0771779301865791e-11
3.115169060208256e-11
-2.1328868125437134e-06
-7.234998364181316e-07
6.87699185117005e-07
2.0971634634107256e-06
-3.71258314178953e-06
-1.2472366169389432e-06
1.2214948755980004e-06
3.686812974039791e-06
-4.233411002993112e-06
-1.4196827616379248e-06
1.3977822904461673e-06
4.2115290050832865e-06
-3.939395580286956e-06
-1.3189404232116786e-06
1.3044679712578139e-06
3.924923051226367e-06
-3.3881374298921213e-06
-1.1334813163951102e-06
1.1233565767269221e-06
3.378013802103619e-06
-2.7924192080256566e-06
-9.335630039575271e-07
9.269157885440082e-07
2.785768868973637e-06
-2.1699922890059536e-06
-7.252003848857991e-07
7.207563534217948e-07
2.1655469827196877e-06
-1.5052490511223426e-06
-5.030730994646376e-07
4.998033825195231e-07
1.5019727405661543e-06
-7.832510207639309e-07
-2.619709521586161e-07
2.593860534364639e-07
7.806655973070092e-07
9.76641518244531e-07
3.2656820804846665e-07
-3.236515406512819e-07
-9.73725951796539e-07
1.8561816182011137e-06
6.201752338376443e-07
-6.167698578495029e-07
-1.8527816171114153e-06
2.634362783974359e-06
8.801816594357359e-07
-8.754989746645458e-07
-2.6296753485033353e-06
3.3110951209690265e-06
1.106450194132691e-06
-1.1002300564118273e-06
-3.304884361343685e-06
3.859381787329336e-06
1.2902163656694499e-06
-1.2815317760664358e-06
-3.850698708667e-06
4.1548702652757785e-06
1.3899151533568188e-06
-1.3780735686058643e-06
-4.143027610734734e-06
3.939373392543993e-06
1.3189022781794069e-06
-1.3045271651211665e-06
-3.925009138035923e-06
3.052427641075245e-06
1.0239955581109461e-06
-1.0066046507127557e-06
-3.0350494728444144e-06
1.653596681566033e-06
5.549617076040098e-07
-5.447687211369845e-07
-1.6433819042122044e-06
1.0271483316670604e-11
1.3625885142420913e-11
1.7784076294935502e-11
2.276822133606693e-11
-1.653554443238614e-06
-5.549256055382285e-07
5.448000895032223e-07
1.6434098431359484e-06
-3.0524564915961755e-06
-1.0240051770971093e-06
1.006615261641558e-06
3.035081567535902e-06
-3.939399727179854e-06
-1.3189376063902497e-06
1.3044807328395358e-06
3.9249492607886655e-06
-4.154808606127505e-06
-1.389879322213211e-06
1.3780837447227579e-06
4.1430115373282395e-06
-3.859334506896295e-06
-1.290212315707695e-06
1.2814926721917835e-06
3.8506155213627324e-06
-3.3110698239163794e-06
-1.1064612491316211e-06
1.100182524057039e-06
3.3047995621690585e-06
-2.634303472826352e-06
-8.800985788551263e-07
8.756098024247094e-07
2.629818245705219e-06
-1.8561656360636253e-06
-6.201997131477163e-07
6.16700103146621e-07
1.852660480031014e-06
-9.766240591999042e-07
-3.265517666490095e-07
3.236650180839934e-07
9.73734493956574e-07
1.1008262433449822e-06
3.679771944480048e-07
-3.650971314335394e-07
-1.0979456647845776e-06
2.061859909613384e-06
6.887448312613287e-07
-6.854964021071885e-07
-2.058621505478253e-06
2.865248328563774e-06
9.57054547848224e-07
-9.528673357260542e-07
-2.861067656925037e-06
3.488216312512449e-06
1.1653110708782777e-06
-1.1598123656024473e-06
-3.4827227834086094e-06
3.8617017540203136e-06
1.2904227798433976e-06
-1.2834186813581727e-06
-3.854702755514555e-06
3.85935762762038e-06
1.2902444959765613e-06
-1.2814476118873375e-06
-3.8505534769237015e-06
3.388121115156101e-06
1.133458903596063e-06
-1.1233867041951506e-06
-3.3780534995329903e-06
2.4961697553012308e-06
8.356741428086623e-07
-8.263432990096575e-07
-2.4868450832285505e-06
1.318231484309304e-06
4.418591321581067e-07
-4.352838230102518e-07
-1.31166641371451e-06
2.4158711489641327e-11
1.1428863064266714e-11
-2.1119044013584443e-13
-1.0811860087778236e-11
-1.318230598347861e-06
-4.4186077763873344e-07
4.352806258194758e-07
1.3116628469044683e-06
-2.496227100841006e-06
-8.356971524653423e-07
8.263532352576625e-07
2.486887409386754e-06
-3.388188600241329e-06
-1.1335144430059396e-06
1.1233404095013777e-06
3.3780141166003114e-06
-3.859317338815102e-06
-1.2901916641265554e-06
1.2815178233299002e-06
3.850646131927163e-06
-3.861767196943963e-06
-1.2904778278772372e-06
1.283372872619426e-06
3.854665051017045e-06
-3.4881225744682123e-06
-1.165236677405125e-06
1.159872454483367e-06
3.482773203866349e-06
-2.8652527692711247e-06
-9.570832745480623e-07
9.528120999977366e-07
2.860983700150345e-06
-2.0619597056025646e-06
-6.888055366117973e-07
6.854687554427169e-07
2.058621673867861e-06
-1.100777746353837e-06
-3.679493050618918e-07
3.65105411292109e-07
1.0979352908094611e-06
1.1306643664249494e-06
3.778948793921322e-07
-3.751632697800156e-07
-1.1279292977811606e-06
2.080881275186297e-06
6.950466411408118e-07
-6.919941673115548e-07
-2.0778290553413736e-06
2.8187074746013896e-06
9.413699197137471e-07
-9.377299209460677e-07
-2.8150661425078993e-06
3.3078698904662196e-06
1.1048104494662536e-06
-1.100364743454596e-06
-3.3034292449066194e-06
3.4881915976642253e-06
1.1652881957528727e-06
-1.159833748827499e-06
-3.4827426825638497e-06
3.3110320548333794e-06
1.1064114587809593e-06
-1.1002438997306796e-06
-3.304872088875921e-06
2.7924107580921953e-06
9.335753719634521e-07
-9.268825757156873e-07
-2.7857144026394165e-06
2.0054066213713584e-06
6.707844245126826e-07
-6.649468530395969e-07
-1.9995760941280555e-06
1.043943921412438e-06
3.4931354197728637e-07
-3.458693466004692e-07
-1.04050041610515e-06
-1.9142713456044014e-11
-9.811821494176698e-13
1.7131861901331646e-11
3.551631905240882e-11
-1.0440055239410717e-06
-3.4935177349766644e-07
3.458531054999908e-07
1.0405054262068586e-06
-2.0054459897358295e-06
-6.708177965469853e-07
6.649157327440203e-07
1.999543842921142e-06
-2.792359759659288e-06
-9.335166859976429e-07
9.269514832134507e-07
2.78579643429519e-06
-3.311155452092804e-06
-1.1065117307106076e-06
1.1001640488252779e-06
3.3048103359554354e-06
-3.4881628566824086e-06
-1.1652710039875003e-06
1.1598386742885797e-06
3.482734455565774e-06
-3.307888986231987e-06
-1.1048335013348273e-06
1.100334600466664e-06
3.3033889859229726e-06
-2.818704537969549e-06
-9.413340175184678e-07
9.378017271433406e-07
2.815177633312335e-06
-2.080966849409352e-06
-6.950556200643193e-07
6.92061137038194e-07
2.077973357492331e-06
-1.13079121980518e-06
-3.7796184736062916e-07
3.7515460577300375e-07
1.1279788351371486e-06
1.0437675038582617e-06
3.4881768189512496e-07
-3.464314872921037e-07
-1.0413784192545017e-06
1.8846761178394067e-06
6.294664520491156e-07
-6.268762472137757e-07
-1.8820873055186427e-06
2.485091383279403e-06
8.298660325034568e-07
-8.269353256318279e-07
-2.482169910666965e-06
2.8186956946632535e-06
9.413289027496163e-07
-9.378031833283396e-07
-2.8151754341287916e-06
2.865176784237755e-06
9.570147519837036e-07
-9.528754245473336e-07
-2.8610437402890043e-06
2.634337742626891e-06
8.801588342356725e-07
-8.75520409792524e-07
-2.629695604137311e-06
2.1699864412756675e-06
7.252085330797242e-07
-7.207348788548784e-07
-2.1655124614848587e-06
1.5346545672867418e-06
5.130557339440983e-07
-5.093235941836666e-07
-1.53092322768833e-06
7.923448851997195e-07
2.6494413061552147e-07
-2.628440082374367e-07
-7.902433899146383e-07
3.06945094341593e-12
-5.0571005716371076e-12
-1.4411758245125306e-11
-2.5121201993605347e-11
-7.923122169635477e-07
-2.649262606634756e-07
2.628509903276899e-07
7.902429561192775e-07
-1.534606392785895e-06
-5.13031897986585e-07
5.093235650992928e-07
1.5308989113616e-06
-2.1699793013221086e-06
-7.25204480704969e-07
7.207361066349088e-07
2.1655110072973938e-06
-2.634320274036081e-06
-8.801305885191429e-07
8.755633935375595e-07
2.62975793647105e-06
-2.8651874262371896e-06
-9.570261933983595e-07
9.528626993150074e-07
2.8610291861741466e-06
-2.818649260030205e-06
-9.413101622621559e-07
9.377937265873937e-07
2.81513625322808e-06
-2.4851043558893685e-06
-8.298910032988535e-07
8.26896903408092e-07
2.482116282628323e-06
-1.8846364848016696e-06
-6.294411695074303e-07
6.268892573566519e-07
1.8820903583344553e-06
-1.043828240691793e-06
-3.4884525174864317e-07
3.4643765393178524e-07
1.0414200432690666e-06
8.249905725787876e-07
2.7571668659645554e-07
-2.7376352012067895e-07
-8.230386955264402e-07
1.4636608266956064e-06
4.889054311847663e-07
-4.866981881332388e-07
-1.4614572605015086e-06
1.8845945418156929e-06
6.294110873154846e-07
-6.26909235360712e-07
-1.8821017160157438e-06
2.080970033457863e-06
6.95079228837242e-07
-6.920164919155258e-07
-2.0779066814691216e-06
2.061934821381145e-06
6.888074242962505e-07
-6.854411949835937e-07
-2.05856912968011e-06
1.8562691594184444e-06
6.202619128280185e-07
-6.166775704009864e-07
-1.852676511683582e-06
1.5051269908507303e-06
5.030099461469928e-07
-4.998117105262101e-07
-1.5019292082633917e-06
1.0534038612543262e-06
3.5208098596827e-07
-3.497064572123565e-07
-1.0510355627005308e-06
5.409108673713747e-07
1.8089194973175404e-07
-1.7934744643566258e-07
-5.393547012205735e-07
-1.859941020643241e-12
-7.392994202937153e-12
-1.3412064861495487e-11
-2.0202334596874927e-11
-5.408022289050962e-07
-1.8079105156693087e-07
1.7944816569845368e-07
5.39462773990057e-07
-1.053470063674608e-06
-3.5216430100543095e-07
3.4960472193243386e-07
1.0509141332177424e-06
-1.505245128664498e-06
-5.030987682928117e-07
4.997489574404962e-07
1.50189005328899e-06
-1.8561747475980689e-06
-6.201548928127729e-07
6.168037005351013e-07
1.8528290505262501e-06
-2.061925100414058e-06
-6.888014647352808e-07
6.854433887756167e-07
2.0585673259259155e-06
-2.080995101375223e-06
-6.951091753634037e-07
6.919790039375262e-07
2.0778585811658673e-06
-1.8846285775790499e-06
-6.294133928197963e-07
6.269365350353856e-07
1.8821570168894332e-06
-1.4636431539018224e-06
-4.88895632858987e-07
4.866993460034795e-07
1.4614491889945042e-06
-8.250534962428967e-07
-2.7574563602806614e-07
2.7376762542922e-07
8.230759000701394e-07
4.708410157004683e-07
1.5740106199327308e-07
-1.5593389830065307e-07
-4.6938150727315886e-07
8.25036668782031e-07
2.757117987285673e-07
-2.738206038299662e-07
-8.231503655746486e-07
1.0438029660990444e-06
3.4882613433526166e-07
-3.464523141462339e-07
-1.0414319373437675e-06
1.1307185151000765e-06
3.7791165545877914e-07
-3.7518671103936585e-07
-1.127997119272639e-06
1.1008518500874032e-06
3.6801110675499515e-07
-3.650548730319003e-07
-1.0978950544388022e-06
9.76642450911669e-07
3.2656381435819393e-07
-3.236600709839721e-07
-9.73737724258017e-07
7.831726461030031e-07
2.6192558390258913e-07
-2.5940083176606565e-07
-7.806516148997633e-07
5.439722164171656e-07
1.8199231287437112e-07
-1.8002119158908036e-07
-5.420038833563873e-07
2.7809705637968363e-07
9.305749563981447e-08
-9.199208618644594e-08
-2.770337441809767e-07
1.2892797940367018e-11
1.8884751401548883e-11
2.6379147130550784e-11
3.556923158787306e-11
-2.7810780406541113e-07
-9.306753617939478e-08
9.19828688113189e-08
2.7702579573525565e-07
-5.440930028449004e-07
-1.820362184896257e-07
1.8005350195353376e-07
5.421135384781756e-07
-7.832680817606436e-07
-2.6196023801897117e-07
2.594260675344018e-07
7.80737186583183e-07
-9.766648345586881e-07
-3.266087740053103e-07
3.2359056196477193e-07
9.736413660492785e-07
-1.1007549112927381e-06
-3.6794186673416024e-07
3.6509867262259077e-07
1.0979149337262545e-06
-1.130671714390935e-06
-3.778844707208115e-07
3.751932557277682e-07
1.1279812483968449e-06
-1.04377180173542e-06
-3.4879955307289684e-07
3.4647368741657497e-07
1.041447229760406e-06
-8.249650030301391e-07
-2.7568246965554294e-07
2.738065897423328e-07
8.230912981184273e-07
-4.709121959065119e-07
-1.574650125770339e-07
1.558711807343239e-07
4.6931397326254853e-07
SCALARS disp_x float
LOOKUP_TABLE default
0.0
0.0
0.0
0.0
0.0
0.0
0.0
0.0
0.0
0.0
0.0
0.0
0.0
0.0
0.0
0.0
0.0
0.0
0.0
0.0
0.0
0.0
0.0
0.0
0.0
0.0
0.0
0.0
0.0
0.0
0.0
0.0
0.0
0.0
0.0
0.0
0.0
0.0
0.0
0.0
0.0
0.0
0.0
0.0
0.0
0.0
0.0
0.0
0.0
0.0
0.0
0.0
0.0
0.0
0.0
0.0
0.0
0.0
0.0
0.0
0.0
0.0
0.0
0.0
0.0
0.0
0.0
0.0
0.0
0.0
0.0
0.0
0.0
0.0
0.0
0.0
0.0
0.0
0.0
0.0
0.0
0.0
0.0
0.0
0.0
0.0
0.0
0.0
0.0
0.0
0.0
0.0
0.0
0.0
0.0
0.0
0.0
0.0
0.0
0.0
0.0
0.0
0.0
0.0
0.0
0.0
0.0
0.0
0.0
0.0
0.0
0.0
0.0
0.0
0.0
0.0
0.0
0.0
0.0
0.0
0.0
0.0
0.0
0.0
0.0
0.0
0.0
0.0
0.0
0.0
0.0
0.0
0.0
0.0
0.0
0.0
0.0
0.0
0.0
0.0
0.0
0.0
0.0
0.0
0.0
0.0
0.0
0.0
0.0
0.0
0.0
0.0
0.0
0.0
0.0
0.0
0.0
0.0
0.0
0.0
0.0
0.0
0.0
0.0
0.0
0.0
0.0
0.0
0.0
0.0
0.0
0.0
0.0
0.0
0.0
0.0
-2.2159618776737274e-07
-8.047199485562746e-07
-1.6322178741493504e-06
-2.583761587032691e-06
-3.5509556330395097e-06
-4.443926734596304e-06
-5.195222119472673e-06
-5.758934731366056e-06
-6.106871577437181e-06
-6.2243696167355795e-06
-6.106871577575337e-06
-5.7589347316368594e-06
-5.195222119880532e-06
-4.4439267350987785e-06
-3.550955633570207e-06
-2.5837615875044266e-06
-1.6322178744926444e-06
-8.047199487430491e-07
-2.215961878222317e-07
-3.8141769613044767e-07
-1.3942267175072022e-06
-2.857436792513426e-06
-4.5767287524798135e-06
-6.360985220351783e-06
-8.038265589201874e-06
-9.469631230410571e-06
-1.0554634622634563e-05
-1.1228824330098e-05
-1.1457143723909776e-05
-1.1228824330379857e-05
-1.0554634623232193e-05
-9.469631231243147e-06
-8.03826559019925e-06
-6.360985221378277e-06
-4.576728753374429e-06
-2.8574367931571004e-06
-1.3942267178574082e-06
-3.8141769623341977e-07
-4.7479081361959223e-07
-1.7570996925460949e-06
-3.6530898206851566e-06
-5.944254443112499e-06
-8.38954713380767e-06
-1.0743229467875255e-05
-1.2789326995071988e-05
-1.4360069295820695e-05
-1.5343751211238358e-05
-1.5678204930331068e-05
-1.5343751211727638e-05
-1.436006929675257e-05
-1.2789326996326535e-05
-1.0743229469308074e-05
-8.389547135243034e-06
-5.944254444338228e-06
-3.653089821566787e-06
-1.7570996930241859e-06
-4.747908137577937e-07
-5.068776968632626e-07
-1.9003661185250975e-06
-4.012520773043045e-06
-6.650814744232722e-06
-9.578344418184374e-06
-1.2498320799076634e-05
-1.510432928679546e-05
-1.7143418474533514e-05
-1.8433075924829406e-05
-1.8874377986989313e-05
-1.843307592556656e-05
-1.7143418475861133e-05
-1.5104329288498896e-05
-1.249832080091442e-05
-9.578344419887969e-06
-6.650814745677261e-06
-4.012520774060919e-06
-1.9003661190686436e-06
-5.068776970173856e-07
-4.871262006423507e-07
-1.848046028878269e-06
-3.957554567966634e-06
-6.678145466305956e-06
-9.840686758001388e-06
-1.3178009602774193e-05
-1.629685362266745e-05
-1.8806641382911435e-05
-2.042834048402935e-05
-2.0982610267339806e-05
-2.0428340485063082e-05
-1.8806641384692027e-05
-1.629685362484119e-05
-1.3178009604975557e-05
-9.840686759885702e-06
-6.678145467775311e-06
-3.95755456896635e-06
-1.8480460294103023e-06
-4.871262007955238e-07
-4.274919443306394e-07
-1.6378287778379192e-06
-3.5484707153723347e-06
-6.076667310468887e-06
-9.13962581489141e-06
-1.2606012643540958e-05
-1.6149412696198153e-05
-1.917307176357061e-05
-2.1177394815484634e-05
-2.1888398465832014e-05
-2.1177394816531953e-05
-1.9173071765529182e-05
-1.6149412698617594e-05
-1.260601264585086e-05
-9.13962581680374e-06
-6.076667311842317e-06
-3.5484707162699334e-06
-1.6378287783012922e-06
-4.2749194446444646e-07
-3.399750628329503e-07
-1.312306123561449e-06
-2.868049076809857e-06
-4.9656643684214235e-06
-7.581344153898537e-06
-1.0708091112900978e-05
-1.4296640358809642e-05
-1.789787120861062e-05
-2.0426106780370527e-05
-2.1345307478186768e-05
-2.0426106781372773e-05
-1.7897871210582885e-05
-1.4296640361229117e-05
-1.0708091115262945e-05
-7.581344155760003e-06
-4.965664369714346e-06
-2.8680490776089137e-06
-1.31230612393493e-06
-3.399750629279875e-07
-2.3476025615477668e-07
-9.108822504889758e-07
-2.0024526378144606e-06
-3.4917815352059398e-06
-5.384759439398767e-06
-7.718306701799689e-06
-1.0594661699235561e-05
-1.4163582809024675e-05
-1.7741019174652546e-05
-1.8837426532967728e-05
-1.7741019175904024e-05
-1.416358281093742e-05
-1.0594661701478255e-05
-7.718306703808185e-06
-5.3847594409037705e-06
-3.4917815362113158e-06
-2.002452638376946e-06
-9.108822507080961e-07
-2.3476025620568937e-07
-1.1957488086157073e-07
-4.653488095062587e-07
-1.0264305245750136e-06
-1.7970462754746757e-06
-2.7851492460235987e-06
-4.028055404177426e-06
-5.599191155543593e-06
-7.717643892751317e-06
-1.0960086233179572e-05
-1.4474745444380962e-05
-1.0960086234275763e-05
-7.717643894320282e-06
-5.5991911568328504e-06
-4.0280554051529245e-06
-2.7851492466914397e-06
-1.7970462758312503e-06
-1.026430524685417e-06
-4.6534880953310384e-07
-1.1957488085509328e-07
-2.38961494008035e-17
-6.996236598115288e-17
-1.382550459050894e-16
-2.4574241781388784e-16
-2.3805924825682576e-16
-2.519385143660918e-16
-1.4588780065260263e-16
6.113640109637804e-18
-1.2330732587671843e-16
-2.2212456267462646e-16
-3.309721452781503e-16
-2.0193492699863246e-16
-2.08221337850854e-17
1.7897546801037647e-16
1.2553211569481222e-16
2.0688125833975929e-16
1.6324955369297317e-16
1.057970704589648e-16
3.4738305550677243e-17
1.1957488082482964e-07
4.653488093846752e-07
1.0264305243364514e-06
1.7970462751406256e-06
2.7851492455911507e-06
4.028055403854004e-06
5.599191155482824e-06
7.717643892604582e-06
1.0960086232889517e-05
1.4474745443903435e-05
1.096008623375693e-05
7.717643894043503e-06
5.599191156795271e-06
4.028055405292888e-06
2.785149246911648e-06
1.7970462761225158e-06
1.0264305249597332e-06
4.653488096922977e-07
1.195748809021719e-07
2.347602561395851e-07
9.108822504234208e-07
2.0024526376953797e-06
3.4917815350706652e-06
5.384759439205409e-06
7.718306701702109e-06
1.0594661699242154e-05
1.4163582808980638e-05
1.774101917447809e-05
1.883742653270315e-05
1.7741019175976445e-05
1.4163582811106504e-05
1.0594661701493336e-05
7.718306703704671e-06
5.384759440942865e-06
3.491781536356699e-06
2.0024526385064675e-06
9.108822507744014e-07
2.3476025622212504e-07
3.3997506283429705e-07
1.3123061235785671e-06
2.868049076841786e-06
4.965664368417268e-06
7.581344153841023e-06
1.0708091112793642e-05
1.4296640358580706e-05
1.7897871208589965e-05
2.0426106780467393e-05
2.1345307478408575e-05
2.0426106781848508e-05
1.7897871210978652e-05
1.4296640361344012e-05
1.0708091115140755e-05
7.581344155698691e-06
4.965664369788505e-06
2.8680490776669893e-06
1.3123061239501709e-06
3.3997506292611124e-07
4.274919443499564e-07
1.6378287778983664e-06
3.5484707154703444e-06
6.076667310543811e-06
9.13962581492558e-06
1.260601264333882e-05
1.6149412695771292e-05
1.91730717632802e-05
2.1177394815637138e-05
2.1888398466314836e-05
2.1177394816861636e-05
1.917307176560592e-05
1.614941269853135e-05
1.2606012645755717e-05
9.139625816765446e-06
6.076667311821205e-06
3.5484707162629576e-06
1.6378287782817147e-06
4.2749194444712697e-07
4.871262006668503e-07
1.848046028947013e-06
3.957554568083791e-06
6.678145466434121e-06
9.840686758073394e-06
1.3178009602678219e-05
1.6296853622360204e-05
1.88066413825982e-05
2.0428340483999988e-05
2.098261026751573e-05
2.0428340485242192e-05
1.880664138459014e-05
1.6296853624652797e-05
1.317800960479735e-05
9.840686759733226e-06
6.678145467607572e-06
3.957554568811944e-06
1.8480460293118008e-06
4.871262007668341e-07
5.068776968826962e-07
1.9003661185959687e-06
4.012520773174279e-06
6.650814744372198e-06
9.578344418242247e-06
1.249832079910673e-05
1.5104329286771212e-05
1.714341847442743e-05
1.843307592473412e-05
1.887437798696154e-05
1.84330759255769e-05
1.7143418475807814e-05
1.5104329288345153e-05
1.249832080071407e-05
9.578344419616722e-06
6.650814745379527e-06
4.0125207738315526e-06
1.900366118936472e-06
5.068776969796377e-07
4.747908136336357e-07
1.7570996926051934e-06
3.6530898207793217e-06
5.944254443231247e-06
8.389547133938355e-06
1.0743229468040396e-05
1.2789326995263838e-05
1.4360069295986648e-05
1.5343751211343715e-05
1.567820493038361e-05
1.5343751211701797e-05
1.4360069296728428e-05
1.2789326996241729e-05
1.0743229469114583e-05
8.38954713499543e-06
5.944254444078115e-06
3.653089821371601e-06
1.7570996929061677e-06
4.7479081372299515e-07
3.814176961374303e-07
1.394226717534721e-06
2.857436792570584e-06
4.5767287525827196e-06
6.360985220529418e-06
8.038265589471473e-06
9.469631230737362e-06
1.0554634622951191e-05
1.1228824330370712e-05
1.1457143724118228e-05
1.122882433050842e-05
1.0554634623249342e-05
9.469631231184995e-06
8.038265590069675e-06
6.360985221206068e-06
4.576728753211511e-06
2.8574367930300086e-06
1.3942267177822294e-06
3.814176962092834e-07
2.2159618776671335e-07
8.047199485599372e-07
1.632217874170163e-06
2.583761587104133e-06
3.5509556331758642e-06
4.4439267347993405e-06
5.195222119721155e-06
5.758934731623949e-06
6.106871577692357e-06
6.224369616947691e-06
6.106871577714261e-06
5.758934731682467e-06
5.195222119854596e-06
4.443926735029609e-06
3.550955633482942e-06
2.5837615874240012e-06
1.6322178744327388e-06
8.047199487114399e-07
2.2159618781236798e-07
2.2059843323978996e-07
8.031805709844441e-07
1.6302460661670486e-06
2.5813814015778803e-06
3.5481586038769714e-06
4.4406979699238904e-06
5.19156827455505e-06
5.754908823854154e-06
6.102587024885175e-06
6.219990906368904e-06
6.102587025018961e-06
5.7549088241133105e-06
5.191568274954202e-06
4.440697970424531e-06
3.548158604405131e-06
2.5813814020503206e-06
1.6302460665124633e-06
8.031805711746553e-07
2.2059843329793548e-07
3.7971780229360124e-07
1.3913319635984e-06
2.85357302433083e-06
4.571928347406488e-06
6.355197890749154e-06
8.031422552741649e-06
9.461715245505687e-06
1.0545754059292561e-05
1.1219258028706707e-05
1.1447332221038666e-05
1.1219258028980016e-05
1.0545754059853617e-05
9.461715246318854e-06
8.03142255372898e-06
6.355197891769149e-06
4.5719283483014244e-06
2.8535730249780084e-06
1.3913319639549207e-06
3.797178024019965e-07
4.72611414969505e-07
1.753199258449561e-06
3.6476863495737443e-06
5.937340921989389e-06
8.380981193925804e-06
1.073282211080489e-05
1.2776972429304588e-05
1.4345890940854743e-05
1.5328244891520175e-05
1.566218234066075e-05
1.5328244891977712e-05
1.434589094174123e-05
1.2776972430524492e-05
1.0732822112218969e-05
8.38098119536341e-06
5.937340923212981e-06
3.647686350461486e-06
1.7531992589337224e-06
4.7261141511645045e-07
5.043657283464047e-07
1.8957463406612169e-06
4.0059350507477394e-06
6.642149940495587e-06
9.567287029341967e-06
1.2484468090056644e-05
1.5087326598097238e-05
1.7123308946779206e-05
1.8410532247884318e-05
1.885103130205692e-05
1.841053224858762e-05
1.712330894807056e-05
1.5087326599749849e-05
1.2484468091862862e-05
9.567287031044947e-06
6.642149941933697e-06
4.005935051770617e-06
1.895746341211295e-06
5.043657285131592e-07
4.844567622172026e-07
1.8430466297655548e-06
3.950258759634324e-06
6.6682656902074655e-06
9.827692399406977e-06
1.3161084905416375e-05
1.6275233692719282e-05
1.8779777151448786e-05
2.0397302004998573e-05
2.094926343638759e-05
2.039730200595628e-05
1.8779777153154355e-05
1.6275233694816522e-05
1.3161084907566284e-05
9.827692401244697e-06
6.668265691679383e-06
3.950258760640422e-06
1.8430466302960974e-06
4.844567623789024e-07
4.2487967678917633e-07
1.6328720306811556e-06
3.5410759325790785e-06
6.066376473544431e-06
9.125515281126019e-06
1.25870267889035e-05
1.6123463792041953e-05
1.9139081261669666e-05
2.1134306642529038e-05
2.1844418389042537e-05
2.113430664351966e-05
1.9139081263516235e-05
1.61234637943458e-05
1.2587026791063684e-05
9.125515282981309e-06
6.066376474940632e-06
3.541075933470127e-06
1.632872031141614e-06
4.2487967692102357e-07
3.3767393426116716e-07
1.3078909058562e-06
2.861341582060359e-06
4.9560087574044734e-06
7.567703757525491e-06
1.06880455391066e-05
1.4269322599361444e-05
1.7855110481872644e-05
2.0370597389572543e-05
2.1267290445728366e-05
2.0370597390506356e-05
1.7855110483742283e-05
1.4269322601618164e-05
1.0688045541160905e-05
7.567703759341637e-06
4.956008758687517e-06
2.8613415828190935e-06
1.3078909062103766e-06
3.376739343506609e-07
2.3303240023257647e-07
9.075446819672061e-07
1.997277132587147e-06
3.4842113288279087e-06
5.373257032794182e-06
7.701722638576355e-06
1.0563951861366493e-05
1.4128511203800036e-05
1.764579476299779e-05
1.8774564258202178e-05
1.7645794764205376e-05
1.4128511205618553e-05
1.0563951863323087e-05
7.701722640506175e-06
5.373257034190934e-06
3.484211329732152e-06
1.9972771330625617e-06
9.075446821606396e-07
2.3303240028041167e-07
1.1864676743234113e-07
4.6353947566467065e-07
1.0236220245350244e-06
1.7927298338426338e-06
2.778942030288555e-06
4.016184099129017e-06
5.586133087276048e-06
7.656815361320071e-06
1.0955406538665094e-05
1.3969946660373207e-05
1.0955406539761297e-05
7.656815362743666e-06
5.5861330884181585e-06
4.016184100002103e-06
2.7789420308107837e-06
1.7927298340302798e-06
1.0236220245657345e-06
4.6353947562830647e-07
1.1864676741628398e-07
2.5471066382802696e-17
9.264308771707924e-17
1.6802231619852864e-16
2.261499095198132e-16
2.1310594966680763e-16
1.1928747682605315e-16
4.6035790522955497e-17
8.292185043409501e-17
1.2360719485019617e-16
2.368972620335718e-16
3.4184013852414574e-16
1.639137296804262e-16
-1.391560462533754e-16
-4.06019658323012e-16
-3.958039197218004e-16
-3.068076122474933e-16
-2.367926297054289e-16
-1.4467643553032924e-16
-5.717752645499139e-17
-1.1864676739326037e-07
-4.6353947551171217e-07
-1.023622024249125e-06
-1.7927298334507235e-06
-2.7789420299510758e-06
-4.0161840990112314e-06
-5.586133087301509e-06
-7.656815361200897e-06
-1.09554065383664e-05
-1.3969946659910919e-05
-1.0955406539177755e-05
-7.656815362558759e-06
-5.5861330887261075e-06
-4.0161841005835355e-06
-2.7789420314418737e-06
-1.7927298345342546e-06
-1.0236220249623197e-06
-4.635394758819345e-07
-1.1864676749747728e-07
-2.330324002135949e-07
-9.075446818876516e-07
-1.9972771324210554e-06
-3.4842113286378256e-06
-5.373257032655984e-06
-7.701722638603885e-06
-1.0563951861486884e-05
-1.4128511203813903e-05
-1.764579476272304e-05
-1.8774564257828192e-05
-1.7645794764168124e-05
-1.412851120586043e-05
-1.0563951863748973e-05
-7.701722640733709e-06
-5.373257034518801e-06
-3.4842113300139488e-06
-1.9972771332829326e-06
-9.075446822950422e-07
-2.3303240032682167e-07
-3.3767393425829535e-07
-1.3078909058567458e-06
-2.861341582061355e-06
-4.9560087574019866e-06
-7.567703757545515e-06
-1.068804553899746e-05
-1.4269322599283116e-05
-1.7855110481879543e-05
-2.0370597389518753e-05
-2.1267290445862485e-05
-2.0370597390917577e-05
-1.7855110484128964e-05
-1.4269322601855038e-05
-1.0688045541390573e-05
-7.567703759444171e-06
-4.956008758803393e-06
-2.861341582913031e-06
-1.3078909062787901e-06
-3.37673934373428e-07
-4.248796767999274e-07
-1.6328720307331958e-06
-3.5410759326583913e-06
-6.0663764736857e-06
-9.125515281220035e-06
-1.2587026788760636e-05
-1.6123463791771245e-05
-1.9139081261406137e-05
-2.113430664259968e-05
-2.184441838938426e-05
-2.1134306643712614e-05
-1.9139081263587816e-05
-1.6123463794301458e-05
-1.2587026791098225e-05
-9.125515283040252e-06
-6.066376474940228e-06
-3.5410759334644312e-06
-1.632872031135186e-06
-4.248796769143778e-07
-4.844567622397443e-07
-1.8430466298267387e-06
-3.95025875975528e-06
-6.668265690401945e-06
-9.827692399563827e-06
-1.316108490541233e-05
-1.6275233692514117e-05
-1.877977715119479e-05
-2.0397302004956777e-05
-2.0949263436445546e-05
-2.039730200593756e-05
-1.877977715298539e-05
-1.6275233694662115e-05
-1.3161084907410011e-05
-9.827692401149155e-06
-6.6682656915224545e-06
-3.9502587604762904e-06
-1.8430466301936605e-06
-4.844567623516414e-07
-5.043657283669375e-07
-1.8957463407309624e-06
-4.005935050897415e-06
-6.642149940686103e-06
-9.567287029488932e-06
-1.248446809013558e-05
-1.5087326598101644e-05
-1.712330894677732e-05
-1.841053224779908e-05
-1.885103130190214e-05
-1.8410532248444396e-05
-1.7123308947916016e-05
-1.5087326599612787e-05
-1.2484468091685048e-05
-9.567287030769842e-06
-6.642149941655942e-06
-4.005935051539185e-06
-1.8957463410806653e-06
-5.043657284716541e-07
-4.7261141498581e-07
-1.75319925850696e-06
-3.6476863496894604e-06
-5.9373409221448866e-06
-8.38098119412379e-06
-1.0732822111009335e-05
-1.2776972429519293e-05
-1.4345890941075328e-05
-1.5328244891595625e-05
-1.566218234060938e-05
-1.5328244891858182e-05
-1.4345890941653463e-05
-1.2776972430383698e-05
-1.0732822112044038e-05
-8.380981195121544e-06
-5.937340922959176e-06
-3.6476863502614224e-06
-1.753199258818872e-06
-4.726114150776054e-07
-3.7971780230097874e-07
-1.3913319636279215e-06
-2.8535730244021946e-06
-4.57192834752561e-06
-6.355197890956355e-06
-8.03142255305561e-06
-9.461715245851737e-06
-1.0545754059621296e-05
-1.1219258028963503e-05
-1.144733222117087e-05
-1.1219258029030795e-05
-1.0545754059820081e-05
-9.461715246245665e-06
-8.031422553607935e-06
-6.355197891610321e-06
-4.571928348145838e-06
-2.853573024846138e-06
-1.391331963875813e-06
-3.797178023771829e-07
-2.2059843324047843e-07
-8.031805709895035e-07
-1.6302460661942559e-06
-2.581381401650856e-06
-3.548158604026252e-06
-4.4406979701492495e-06
-5.191568274812188e-06
-5.754908824115698e-06
-6.102587025130013e-06
-6.219990906560679e-06
-6.10258702511638e-06
-5.75490882414055e-06
-5.191568274921155e-06
-4.440697970361001e-06
-3.548158604321641e-06
-2.5813814019704153e-06
-1.6302460664544515e-06
-8.031805711399197e-07
-2.2059843328688022e-07
0.0
0.0
0.0
0.0
0.0
0.0
0.0
0.0
0.0
0.0
0.0
0.0
0.0
0.0
0.0
0.0
0.0
0.0
0.0
0.0
0.0
0.0
0.0
0.0
0.0
0.0
0.0
0.0
0.0
0.0
0.0
0.0
0.0
0.0
0.0
0.0
0.0
0.0
0.0
0.0
0.0
0.0
0.0
0.0
0.0
0.0
0.0
0.0
0.0
0.0
0.0
0.0
0.0
0.0
0.0
0.0
0.0
0.0
0.0
0.0
0.0
0.0
0.0
0.0
0.0
0.0
0.0
0.0
0.0
0.0
0.0
0.0
0.0
0.0
0.0
0.0
0.0
0.0
0.0
0.0
0.0
0.0
0.0
0.0
0.0
0.0
0.0
0.0
0.0
0.0
0.0
0.0
0.0
0.0
0.0
0.0
0.0
0.0
0.0
0.0
0.0
0.0
0.0
0.0
0.0
0.0
0.0
0.0
0.0
0.0
0.0
0.0
0.0
0.0
0.0
0.0
0.0
0.0
0.0
0.0
0.0
0.0
0.0
0.0
0.0
0.0
0.0
0.0
0.0
0.0
0.0
0.0
0.0
0.0
0.0
0.0
0.0
0.0
0.0
0.0
0.0
0.0
0.0
0.0
0.0
0.0
0.0
0.0
0.0
0.0
0.0
0.0
0.0
0.0
0.0
0.0
0.0
0.0
0.0
0.0
0.0
0.0
0.0
0.0
0.0
0.0
0.0
0.0
0.0
0.0
0.0
0.0
0.0
0.0
0.0
0.0
0.0
0.0
0.0
0.0
0.0
0.0
0.0
0.0
0.0
0.0
0.0
0.0
0.0
0.0
0.0
0.0
0.0
0.0
0.0
0.0
0.0
0.0
0.0
0.0
0.0
0.0
0.0
0.0
0.0
0.0
0.0
0.0
0.0
0.0
0.0
0.0
0.0
0.0
0.0
0.0
0.0
0.0
0.0
0.0
0.0
0.0
0.0
0.0
0.0
0.0
0.0
0.0
0.0
0.0
0.0
0.0
0.0
0.0
0.0
0.0
0.0
0.0
0.0
0.0
0.0
0.0
0.0
0.0
0.0
0.0
0.0
0.0
0.0
0.0
0.0
0.0
0.0
0.0
0.0
0.0
0.0
0.0
0.0
0.0
0.0
0.0
0.0
0.0
0.0
0.0
0.0
0.0
0.0
0.0
0.0
0.0
0.0
0.0
0.0
0.0
0.0
0.0
0.0
0.0
0.0
0.0
0.0
0.0
0.0
0.0
0.0
0.0
0.0
0.0
0.0
0.0
0.0
0.0
0.0
0.0
0.0
0.0
0.0
0.0
0.0
0.0
0.0
0.0
-1.3328403284242038e-07
-4.478140620300941e-08
4.3784592396827266e-08
1.3228690613667287e-07
-4.8299296983118e-07
-1.614860650267685e-07
1.5994757705832243e-07
4.814541858536804e-07
-9.793276826501318e-07
-3.2703335467908873e-07
3.2506259577491854e-07
9.773565747632935e-07
-1.5500562279214614e-06
-5.173657987357316e-07
5.149867738449798e-07
1.547676816979717e-06
-2.1302056300295943e-06
-7.10846169727231e-07
7.080504113800895e-07
2.127409448956771e-06
-2.6658645286692223e-06
-8.895080414897493e-07
8.862806687211306e-07
2.6626366929409048e-06
-3.11656547513607e-06
-1.0398565132796313e-06
1.0362041448615012e-06
3.112912615739817e-06
-3.4547548676083812e-06
-1.1526915754933988e-06
1.148667209780362e-06
3.4507299881086017e-06
-3.6635028345783465e-06
-1.2223493708491525e-06
1.2180667043852305e-06
3.659219546141476e-06
-3.7339983296677495e-06
-1.245875954844992e-06
1.2414979720600618e-06
3.7296200860905225e-06
-3.663502834662065e-06
-1.2223493708784747e-06
1.2180667044102593e-06
3.6592195462208037e-06
-3.454754867773227e-06
-1.1526915755522539e-06
1.1486672098275066e-06
3.4507299882618096e-06
-3.116565475382447e-06
-1.0398565133646073e-06
1.036204144937913e-06
3.1129126159774976e-06
-2.665864528970984e-06
-8.895080415909432e-07
8.862806688204709e-07
2.662636693240855e-06
-2.1302056303484044e-06
-7.108461698343349e-07
7.080504114846498e-07
2.127409449273049e-06
-1.5500562282042406e-06
-5.173657988297352e-07
5.149867739396936e-07
1.5476768172632078e-06
-9.79327682855607e-07
-3.2703335474685783e-07
3.2506259584481813e-07
9.773565749708884e-07
-4.829929699425271e-07
-1.6148606506273594e-07
1.599475770977197e-07
4.814541859684561e-07
-1.332840328747103e-07
-4.478140621268177e-08
4.378459240978687e-08
1.3228690617224788e-07
-2.2951403074881493e-07
-7.712520917691837e-08
7.542523780729937e-08
2.278140846619312e-07
-8.372499184223884e-07
-2.800707511332942e-07
2.7717574827066867e-07
8.343549978857171e-07
-1.7153164183126784e-06
-5.730736682760069e-07
5.692095296386436e-07
1.7114524023656783e-06
-2.747002955840868e-06
-9.17268717179321e-07
9.124678184942913e-07
2.7422022207486147e-06
-3.817709203753774e-06
-1.2744922401757996e-06
1.2687043224341514e-06
3.8119214810454918e-06
-4.824264153034023e-06
-1.6103583834730617e-06
1.6035146180825494e-06
4.817420629443236e-06
-5.683292942776599e-06
-1.8970580705442193e-06
1.8891413085307383e-06
5.675376438082315e-06
-6.334492340454049e-06
-2.1144467612150284e-06
2.1055654497176988e-06
6.325611280238069e-06
-6.739149392080598e-06
-2.249562406918059e-06
2.239994192927012e-06
6.7295817969659415e-06
-6.876194298300882e-06
-2.2953249542329514e-06
2.2855160920381697e-06
6.8663846147602505e-06
-6.739149392251566e-06
-2.249562406978013e-06
2.239994192978155e-06
6.729581797128415e-06
-6.334492340819822e-06
-2.114446761349037e-06
2.105565449815415e-06
6.3256112805672574e-06
-5.6832929432801e-06
-1.8970580707186663e-06
1.8891413086853288e-06
5.675376438566383e-06
-4.824264153634391e-06
-1.6103583836764816e-06
1.603514618276057e-06
4.817420630033551e-06
-3.817709204370904e-06
-1.2744922403836433e-06
1.2687043226355344e-06
3.811921481656084e-06
-2.747002956377528e-06
-9.172687173580946e-07
9.124678186733919e-07
2.742202221285583e-06
-1.7153164186981764e-06
-5.730736684033566e-07
5.692095297694321e-07
1.7114524027546733e-06
-8.372499186312574e-07
-2.800707512008101e-07
2.771757483445106e-07
8.343549981009151e-07
-2.2951403080959748e-07
-7.712520919538971e-08
7.542523783118185e-08
2.278140847281331e-07
-2.856977220788888e-07
-9.602347509013505e-08
9.38444057794943e-08
2.8351854340501266e-07
-1.0551370682414885e-06
-3.5302865613273136e-07
3.4912847604545717e-07
1.051236803885401e-06
-2.192868830382357e-06
-7.327464543707407e-07
7.273432413488025e-07
2.1874655318454916e-06
-3.5676486013895004e-06
-1.1914729413466981e-06
1.184559678835343e-06
3.560735253308522e-06
-5.0349635313161254e-06
-1.6810969147831018e-06
1.672531187311714e-06
5.0263977336789e-06
-6.447386254479434e-06
-2.1524924770045514e-06
2.142085414416123e-06
6.4369790943847166e-06
-7.67532499165989e-06
-2.562436311091229e-06
2.550081954492995e-06
7.662970567706932e-06
-8.61806694758083e-06
-2.8772803644935118e-06
2.863101779220404e-06
8.603888430322757e-06
-9.208506116636635e-06
-3.0745288018668587e-06
3.0590263183989083e-06
9.193002403863453e-06
-9.409265870586864e-06
-3.141623636989808e-06
3.1255885700084462e-06
9.393234795406031e-06
-9.208506116936434e-06
-3.074528801977245e-06
3.059026318477885e-06
9.193002404131452e-06
-8.618066948149123e-06
-2.8772803646982235e-06
2.863101779379267e-06
8.60388843084553e-06
-7.67532499241941e-06
-2.562436311355803e-06
2.550081954723371e-06
7.66297056843183e-06
-6.44738625534285e-06
-2.1524924772986857e-06
2.1420854146912513e-06
6.436979095229369e-06
-5.034963532176734e-06
-1.6810969150692545e-06
1.672531187599918e-06
5.0263977345417855e-06
-3.5676486021252366e-06
-1.1914729415925859e-06
1.18455967907928e-06
3.5607352540421046e-06
-2.1928688309100742e-06
-7.327464545446338e-07
7.273432415287119e-07
2.187465532379326e-06
-1.055137068527121e-06
-3.530286562259261e-07
3.4912847614468544e-07
1.0512368041770882e-06
-2.8569772216015505e-07
-9.602347511431426e-08
9.384440581244885e-08
2.8351854349502357e-07
-3.050666485649905e-07
-1.025990606256273e-07
1.0008726269925987e-07
3.0255479363053904e-07
-1.1413270000634024e-06
-3.820127897778869e-07
3.7739308452868735e-07
1.1367072703768767e-06
-2.4088989818681566e-06
-8.051730724610437e-07
7.985873924780797e-07
2.40231328753907e-06
-3.992095456896434e-06
-1.3335656512758912e-06
1.3249008165575046e-06
3.983430632156533e-06
-5.748895123379903e-06
-1.9199302607220042e-06
1.908872870334392e-06
5.7378377331524176e-06
-7.501278850167608e-06
-2.504963134477482e-06
2.491110212130904e-06
7.487425999206915e-06
-9.06540348377659e-06
-3.027369570497584e-06
3.010366701853935e-06
9.048400669712637e-06
-1.0289417549121541e-05
-3.4363990665504995e-06
3.4162913216940825e-06
1.0269309236885535e-05
-1.1063667820717225e-05
-3.6952934265305447e-06
3.6727373532559105e-06
1.1041115748452677e-05
-1.1328616728729245e-05
-3.7838595854263055e-06
3.760557413767367e-06
1.1305300165467434e-05
-1.106366782116626e-05
-3.6952934266912908e-06
3.672737353383609e-06
1.1041115748867905e-05
-1.0289417549925155e-05
-3.436399066830293e-06
3.4162913219379937e-06
1.0269309237653086e-05
-9.065403484808968e-06
-3.0273695708588774e-06
3.010366702163629e-06
9.048400670694138e-06
-7.501278851276362e-06
-2.504963134857324e-06
2.4911102124798886e-06
7.487426000284095e-06
-5.748895124402173e-06
-1.9199302610630138e-06
1.908872870674641e-06
5.737837734174119e-06
-3.992095457764315e-06
-1.3335656515673774e-06
1.3249008168423002e-06
3.983430633018027e-06
-2.4088989824777683e-06
-8.051730726625027e-07
7.98587392684708e-07
2.4023132881536765e-06
-1.141327000388211e-06
-3.8201278988397324e-07
3.7739308464131065e-07
1.1367072707082317e-06
-3.0506664865505635e-07
-1.0259906065145006e-07
1.0008726273775443e-07
3.025547937332428e-07
-2.9323807217538785e-07
-9.870715754759798e-08
9.603793083209291e-08
2.905687750072008e-07
-1.110025897297843e-06
-3.717081407834594e-07
3.6670887051849476e-07
1.1050265841728683e-06
-2.376092286091111e-06
-7.944794046408799e-07
7.871836964848471e-07
2.3687965446400908e-06
-4.008777154703066e-06
-1.3395379576706119e-06
1.3296582774693176e-06
3.998897442678305e-06
-5.906683437277162e-06
-1.9731713990533806e-06
1.960177010887482e-06
5.8936890594554126e-06
-7.909597972368878e-06
-2.642075465983915e-06
2.625150820748936e-06
7.892673307291938e-06
-9.78167342615212e-06
-3.267637165223995e-06
3.2460178853906756e-06
9.760053944872779e-06
-1.1288482258210346e-05
-3.771638702119234e-06
3.7447673267423282e-06
1.1261613190176476e-05
-1.2262311295842807e-05
-4.097619281269878e-06
4.0666225413883685e-06
1.2231300977519219e-05
-1.2595269570789494e-05
-4.209428141675568e-06
4.175930614716397e-06
1.2561821157245566e-05
-1.2262311296478006e-05
-4.097619281507113e-06
4.066622541548956e-06
1.2231300978078276e-05
-1.1288482259293434e-05
-3.7716387025050845e-06
3.7447673270537483e-06
1.1261613191184543e-05
-9.781673427471343e-06
-3.267637165689236e-06
3.2460178857791978e-06
9.760053946115619e-06
-7.909597973699662e-06
-2.642075466444652e-06
2.625150821157967e-06
7.89267330857131e-06
-5.90668343841697e-06
-1.9731713994487955e-06
1.9601770112363637e-06
5.893689060548537e-06
-4.008777155584082e-06
-1.3395379579634074e-06
1.3296582777647294e-06
3.998897443561806e-06
-2.376092286689657e-06
-7.944794048383566e-07
7.87183696688454e-07
2.368796545245046e-06
-1.11002589761732e-06
-3.717081408903874e-07
3.6670887062409637e-07
1.1050265844908254e-06
-2.932380722657105e-07
-9.870715757489099e-08
9.603793086788829e-08
2.9056877510604936e-07
-2.574028350857786e-07
-8.673582107433675e-08
8.412374292021385e-08
2.547906938178591e-07
-9.838928769665641e-07
-3.296505550816505e-07
3.2469391236295953e-07
9.789361993622338e-07
-2.130704052072711e-06
-7.127233465651121e-07
7.053286513249278e-07
2.1233093276206127e-06
-3.648069783828377e-06
-1.2194553777643805e-06
1.209164607360006e-06
3.6377789913596356e-06
-5.486425944843682e-06
-1.8334835571245713e-06
1.8193729363515834e-06
5.472315351543662e-06
-7.56690327647644e-06
-2.528545930949794e-06
2.5095606632844025e-06
7.547917821616696e-06
-9.693969801070326e-06
-3.239829735519585e-06
3.2138764678439922e-06
9.668017945697001e-06
-1.1509663439274483e-05
-3.847713350625227e-06
3.8137478147578463e-06
1.1475689770319092e-05
-1.2713920935757746e-05
-4.252192293338772e-06
4.208969509158013e-06
1.2670742221339904e-05
-1.3140895665319072e-05
-4.394638076050387e-06
4.351149387849146e-06
1.3097245770235838e-05
-1.2713920936397481e-05
-4.25219229357105e-06
4.208969509333341e-06
1.2670742221922973e-05
-1.1509663440471864e-05
-3.847713351061796e-06
3.813747815081871e-06
1.1475689771404293e-05
-9.693969802544325e-06
-3.239829736048781e-06
3.2138764682595225e-06
9.668017947055273e-06
-7.566903277892576e-06
-2.5285459314721233e-06
2.509560663655749e-06
7.547917822883336e-06
-5.486425946002089e-06
-1.8334835575291634e-06
1.8193729367007215e-06
5.472315352644988e-06
-3.648069784648198e-06
-1.219455378030429e-06
1.2091646076477145e-06
3.6377789922023246e-06
-2.1307040526125743e-06
-7.127233467471747e-07
7.05328651500675e-07
2.1233093281538885e-06
-9.838928772453055e-07
-3.296505551756811e-07
3.2469391245371625e-07
9.78936199638082e-07
-2.574028351665663e-07
-8.673582110197259e-08
8.412374294576923e-08
2.5479069389668744e-07
-2.047563373876763e-07
-6.907092915136596e-08
6.676997482280568e-08
2.0245532500200515e-07
-7.884447152152506e-07
-2.6431628860638015e-07
2.599011611771757e-07
7.840295577408237e-07
-1.7223143392985088e-06
-5.763644622672223e-07
5.696571045265337e-07
1.7156069359130875e-06
-2.9813875033675408e-06
-9.970240346823232e-07
9.873683230224462e-07
2.9717318246459614e-06
-4.551483698018023e-06
-1.5216992515113886e-06
1.5080597715753188e-06
4.537843917056203e-06
-6.42863005726238e-06
-2.149520848732416e-06
2.1294714236592494e-06
6.408581892727556e-06
-8.582664452691612e-06
-2.8698578930378534e-06
2.842557226103284e-06
8.555358194569005e-06
-1.0745884116031289e-05
-3.5960113133367373e-06
3.553166028643846e-06
1.070306657536597e-05
-1.226557411956818e-05
-4.10669303161335e-06
4.051592181424209e-06
1.2210338830788607e-05
-1.2820828884229536e-05
-4.299786321925809e-06
4.220277505661276e-06
1.274181199715628e-05
-1.226557412018311e-05
-4.106693031840544e-06
4.051592181584894e-06
1.2210338831335094e-05
-1.0745884117234872e-05
-3.59601131377184e-06
3.5531660289769383e-06
1.0703066576466837e-05
-8.582664454175988e-06
-2.8698578935871047e-06
2.842557226489318e-06
8.555358195891041e-06
-6.4286300587408905e-06
-2.149520849328216e-06
2.129471423945526e-06
6.408581893897503e-06
-4.551483699143849e-06
-1.5216992519017306e-06
1.5080597719205862e-06
4.537843918136947e-06
-2.9813875041446935e-06
-9.970240349438032e-07
9.87368323276652e-07
2.971731825413311e-06
-1.7223143397862457e-06
-5.763644624436704e-07
5.696571046613844e-07
1.7156069363604986e-06
-7.884447154430678e-07
-2.643162886885207e-07
2.5990116124068396e-07
7.840295579493128e-07
-2.0475633744599306e-07
-6.907092917282033e-08
6.67699748382597e-08
2.0245532505477279e-07
-1.414190790561467e-07
-4.775181974465858e-08
4.6024087504973065e-08
1.396913056807077e-07
-5.473282935794295e-07
-1.8357715891582562e-07
1.8023970363687098e-07
5.439908003997371e-07
-1.20262234020622e-06
-4.026185755315334e-07
3.974430025841615e-07
1.1974467898827337e-06
-2.096654021428723e-06
-7.014196646037729e-07
6.938502191881833e-07
2.0890843236919946e-06
-3.2331725290082908e-06
-1.0815619169221595e-06
1.0700568518304125e-06
3.2216683401720933e-06
-4.634227599449651e-06
-1.550254163260096e-06
1.5336827222807156e-06
4.617652002292696e-06
-6.362792612539488e-06
-2.1311606382761892e-06
2.1003977002741214e-06
6.332047147288906e-06
-8.503866826563378e-06
-2.8460198894706128e-06
2.811179222455897e-06
8.468950076006231e-06
-1.0661073446415484e-05
-3.5853673154300722e-06
3.489046969748061e-06
1.0565115161499163e-05
-1.1314656321522504e-05
-3.7910925864012725e-06
3.7322835187900386e-06
1.1254505236924162e-05
-1.0661073447174603e-05
-3.585367315697603e-06
3.489046969971816e-06
1.0565115162214232e-05
-8.503866827729273e-06
-2.8460198898897344e-06
2.811179222783627e-06
8.468950077078307e-06
-6.362792613941971e-06
-2.131160638839799e-06
2.1003977005487024e-06
6.332047148404667e-06
-4.634227600669554e-06
-1.550254163691862e-06
1.5336827226372922e-06
4.617652003434692e-06
-3.233172529933043e-06
-1.081561917267074e-06
1.0700568520649487e-06
3.2216683409883807e-06
-2.0966540220516208e-06
-7.014196648443496e-07
6.938502193299153e-07
2.0890843242137254e-06
-1.2026223405612668e-06
-4.02618575679322e-07
3.974430026435544e-07
1.1974467901506292e-06
-5.473282937160805e-07
-1.8357715896989915e-07
1.8023970366544776e-07
5.439908005107728e-07
-1.4141907908733211e-07
-4.7751819756044584e-08
4.602408751341588e-08
1.396913057088116e-07
-7.204195754018319e-08
-2.4341891619492854e-08
2.341386343627371e-08
7.111390081859156e-08
-2.7964058476788114e-07
-9.382821910235351e-08
9.201886970929079e-08
2.778312408731757e-07
-6.164836310375323e-07
-2.0644120729545433e-07
2.0363302296798958e-07
6.136753411048919e-07
-1.079136161272307e-06
-3.61158739009722e-07
3.568412292710052e-07
1.0748190062362671e-06
-1.6723560334841964e-06
-5.595235236008303e-07
5.533215367923896e-07
1.6661523172246094e-06
-2.4192189409937066e-06
-8.10372465923724e-07
7.984796008955811e-07
2.407333188210068e-06
-3.3620133994335248e-06
-1.1249719771915236e-06
1.1120134212715077e-06
3.3490220055546454e-06
-4.643074400785825e-06
-1.5681598502291583e-06
1.5069144527989357e-06
4.581966679154054e-06
-6.574675156522212e-06
-2.1920763200453207e-06
2.189367607920154e-06
6.571313728511536e-06
-8.777564811299097e-06
-3.095376098115633e-06
2.582693813767452e-06
8.26750027486348e-06
-6.574675157179989e-06
-2.1920763202654663e-06
2.1893676081374573e-06
6.571313729169473e-06
-4.643074401755486e-06
-1.5681598506009435e-06
1.506914453024524e-06
4.581966679978205e-06
-3.362013400236638e-06
-1.1249719775085875e-06
1.1120134214403682e-06
3.3490220062105724e-06
-2.419218941598797e-06
-8.103724661589726e-07
7.984796010296966e-07
2.40733318871262e-06
-1.6723560339142625e-06
-5.595235237930743e-07
5.533215368379437e-07
1.6661523175092226e-06
-1.0791361615200898e-06
-3.611587391488931e-07
3.5684122924030226e-07
1.0748190063148769e-06
-6.164836311198325e-07
-2.0644120734944495e-07
2.036330229423976e-07
6.136753411076158e-07
-2.7964058479660276e-07
-9.382821913295932e-08
9.201886967676672e-08
2.778312408385675e-07
-7.204195753826544e-08
-2.434189162212098e-08
2.3413863429107996e-08
7.111390080712871e-08
-1.405053769082393e-17
-4.198967312666181e-18
5.647676044360417e-18
1.5626699085657773e-17
-3.744781121402791e-17
-4.9265761106819265e-18
2.75984471901232e-17
6.012578672789926e-17
-7.68737368701533e-17
-1.5510867330120748e-17
4.587898210138498e-17
1.06723289435946e-16
-1.5139968301448605e-16
-5.733368197418655e-17
3.6575215189046935e-17
1.3160684420713046e-16
-1.4770515460485383e-16
-5.719433794295255e-17
3.338521135470966e-17
1.228875399876539e-16
-1.7725120040180273e-16
-1.0291090320137166e-16
-2.8712775785585476e-17
4.455647412441796e-17
-1.0757842754433426e-16
-6.964781348357688e-17
-3.180476368041889e-17
7.37257477290143e-18
2.1106241893923175e-17
3.6637563100537507e-17
5.257893492610025e-17
6.831013008418063e-17
-7.452303698577878e-17
-2.548319797638244e-17
2.3512485863362588e-17
7.472016440909085e-17
-1.3019561428425169e-16
-3.818184018289407e-17
5.4014863639361593e-17
1.4501204056993622e-16
-1.9576327467066002e-16
-6.080129550333456e-17
7.425562744986646e-17
2.0672741076840158e-16
-1.2891967613039118e-16
-5.58742041108298e-17
1.730432393831127e-17
9.082975168402238e-17
-4.446649320480499e-17
-6.832368716083006e-17
-9.233766223603715e-17
-1.153862162067698e-16
6.142748717671565e-17
-5.557023177932881e-17
-1.7232361210252627e-16
-2.8848777513178995e-16
2.1267380636015366e-17
-8.322634719810435e-17
-1.8783658378012535e-16
-2.9177913340658335e-16
1.0405262455258699e-16
1.4922602948252636e-18
-1.009304607613523e-16
-2.0389438293126616e-16
8.31840329289717e-17
3.134921877347369e-18
-7.694758721007058e-17
-1.5679058565069569e-16
5.566540213306858e-17
5.596449990016749e-18
-4.4440440725330296e-17
-9.449189692541633e-17
1.6366497052451383e-17
-2.0196971231686758e-18
-2.0416228660973628e-17
-3.8836155206477595e-17
7.204195751860031e-08
2.4341891613106504e-08
-2.3413863427457972e-08
-7.111390079468769e-08
2.7964058470122155e-07
9.382821909060797e-08
-9.20188696661421e-08
-2.7783124077512487e-07
6.164836309040249e-07
2.0644120726691525e-07
-2.0363302289157622e-07
-6.136753409241117e-07
1.0791361610833008e-06
3.611587389658907e-07
-3.568412291695872e-07
-1.0748190059891639e-06
1.6723560332061049e-06
5.595235234765828e-07
-5.533215367630651e-07
-1.6661523170416892e-06
2.419218940758147e-06
8.103724657760205e-07
-7.984796009552111e-07
-2.4073331881802862e-06
3.3620133993797598e-06
1.1249719771453264e-06
-1.1120134213100805e-06
-3.3490220055866547e-06
4.643074400692295e-06
1.5681598501883699e-06
-1.5069144527873703e-06
-4.581966679088518e-06
6.574675156351201e-06
2.1920763199930537e-06
-2.189367607853948e-06
-6.5713137283319665e-06
8.77756481100915e-06
3.095376098012968e-06
-2.582693813683413e-06
-8.267500274589078e-06
6.5746751568818545e-06
2.1920763201873766e-06
-2.189367607995714e-06
-6.571313728806712e-06
4.643074401570955e-06
1.568159850508099e-06
-1.5069144530258925e-06
-4.581966679885528e-06
3.3620134001446695e-06
1.1249719773625512e-06
-1.1120134216404026e-06
-3.3490220064641106e-06
2.4192189415948014e-06
8.103724660109392e-07
-7.98479601322029e-07
-2.407333189150299e-06
1.6723560339640467e-06
5.595235236726431e-07
-5.533215371285836e-07
-1.666152317969795e-06
1.0791361616521177e-06
3.611587391216759e-07
-3.568412294267211e-07
-1.074819006659622e-06
6.164836312600091e-07
2.0644120735563713e-07
-2.036330230701314e-07
-6.136753413700299e-07
2.7964058487314346e-07
9.382821912687687e-08
-9.201886976549287e-08
-2.778312410096506e-07
7.20419575597491e-08
2.4341891617944723e-08
-2.3413863458962142e-08
-7.111390086269287e-08
1.4141907904773915e-07
4.775181974305997e-08
-4.602408749975107e-08
-1.3969130566850532e-07
5.473282935429298e-07
1.835771589083489e-07
-1.802397036153067e-07
-5.439908003492604e-07
1.2026223401441454e-06
4.0261857552638164e-07
-3.9744300253247136e-07
-1.1974467897736307e-06
2.096654021358248e-06
7.014196645982077e-07
-6.938502191287265e-07
-2.08908432356667e-06
3.233172528881371e-06
1.0815619168618e-06
-1.0700568518240032e-06
-3.2216683401002145e-06
4.634227599365578e-06
1.550254163189743e-06
-1.5336827223373961e-06
-4.617652002333878e-06
6.36279261252082e-06
2.13116063823254e-06
-2.100397700342442e-06
-6.3320471473841546e-06
8.503866826524942e-06
2.84601988943815e-06
-2.8111792224822287e-06
-8.46895007602576e-06
1.0661073446331404e-05
3.585367315436276e-06
-3.4890469696515924e-06
-1.0565115161314625e-05
1.131465632138553e-05
3.7910925863913343e-06
-3.7322835186729e-06
-1.125450523667753e-05
1.0661073447240362e-05
3.585367315756984e-06
-3.4890469699185124e-06
-1.0565115162170076e-05
8.50386682781612e-06
2.846019889894959e-06
-2.811179222859891e-06
-8.468950077237912e-06
6.362792613869227e-06
2.1311606386786214e-06
-2.1003977007985754e-06
-6.332047148743553e-06
4.6342276005409785e-06
1.5502541635380125e-06
-1.5336827228162747e-06
-4.617652003636763e-06
3.233172529898877e-06
1.0815619171596104e-06
-1.070056852245817e-06
-3.2216683412431495e-06
2.0966540221116072e-06
7.014196648189979e-07
-6.938502194405857e-07
-2.0890843244101193e-06
1.2026223406207835e-06
4.0261857566871166e-07
-3.974430027243653e-07
-1.1974467903010265e-06
5.473282937422718e-07
1.8357715895594716e-07
-1.8023970371952552e-07
-5.439908006050062e-07
1.4141907909124138e-07
4.775181974738122e-08
-4.602408753466406e-08
-1.3969130574269005e-07
2.0475633738938628e-07
6.907092915342218e-08
-6.676997482041198e-08
-2.0245532499950513e-07
7.884447152287447e-07
2.643162886162968e-07
-2.5990116117081327e-07
-7.840295577377231e-07
1.722314339324015e-06
5.763644622864132e-07
-5.696571045136396e-07
-1.7156069359076623e-06
2.9813875033641475e-06
9.97024034679737e-07
-9.873683230241545e-07
-2.9717318246442373e-06
4.5514836979683365e-06
1.5216992514693815e-06
-1.5080597716098615e-06
-4.5378439170842255e-06
6.428630057197744e-06
2.149520848710679e-06
-2.1294714236378072e-06
-6.408581892660694e-06
8.58266445252489e-06
2.869857892933168e-06
-2.8425572261460625e-06
-8.555358194553074e-06
1.074588411601295e-05
3.5960113133210117e-06
-3.553166028656774e-06
-1.0703066575375118e-05
1.2265574119656006e-05
4.106693031692382e-06
-4.051592181353863e-06
-1.2210338830725623e-05
1.282082888438054e-05
4.299786322005653e-06
-4.2202775056525416e-06
-1.2741811997220018e-05
1.2265574120481325e-05
4.106693031962117e-06
-4.051592181639813e-06
-1.2210338831568905e-05
1.0745884117473074e-05
3.5960113138532085e-06
-3.553166029052109e-06
-1.0703066576695768e-05
8.582664454220262e-06
2.869857893561427e-06
-2.842557226584474e-06
-8.555358196056824e-06
6.428630058597555e-06
2.149520849163341e-06
-2.129471424132356e-06
-6.408581894106532e-06
4.551483699074261e-06
1.521699251823716e-06
-1.5080597720069158e-06
-4.537843918231125e-06
2.9813875041808953e-06
9.970240349421773e-07
-9.87368323315951e-07
-2.9717318254911554e-06
1.7223143398138725e-06
5.763644624408764e-07
-5.69657104694519e-07
-1.7156069364239204e-06
7.884447154416223e-07
2.6431628867033823e-07
-2.5990116127566393e-07
-7.840295580011004e-07
2.0475633743992942e-07
6.907092916256918e-08
-6.67699748526986e-08
-2.0245532507334806e-07
2.574028350990599e-07
8.673582108158959e-08
-8.412374291897136e-08
-2.5479069382255845e-07
9.838928770046092e-07
3.296505550972893e-07
-3.2469391236975453e-07
-9.789361993918935e-07
2.1307040521351446e-06
7.127233465920507e-07
-7.0532865133346e-07
-2.1233093276642925e-06
3.6480697838601933e-06
1.2194553777530756e-06
-1.209164607414451e-06
-3.6377789914578974e-06
5.486425944851833e-06
1.83348355710702e-06
-1.8193729363947512e-06
-5.4723153516115565e-06
7.566903276343533e-06
2.528545930885911e-06
-2.509560663279175e-06
-7.54791782154316e-06
9.693969800783352e-06
3.2398297353719036e-06
-3.2138764678527167e-06
-9.668017945566138e-06
1.1509663439095293e-05
3.847713350556983e-06
-3.813747814715339e-06
-1.1475689770166712e-05
1.2713920935865724e-05
4.252192293402453e-06
-4.208969509138607e-06
-1.2670742221366062e-05
1.3140895665636418e-05
4.394638076203223e-06
-4.351149387860532e-06
-1.3097245770411765e-05
1.2713920936622367e-05
4.252192293690999e-06
-4.208969509318171e-06
-1.2670742222011254e-05
1.1509663440519577e-05
3.847713351080182e-06
-3.813747815093263e-06
-1.1475689771446987e-05
9.693969802484573e-06
3.2398297360151676e-06
-3.213876468266974e-06
-9.668017947037495e-06
7.566903277809125e-06
2.5285459314005016e-06
-2.5095606637155537e-06
-7.547917822929353e-06
5.486425945959802e-06
1.8334835574831788e-06
-1.819372936750403e-06
-5.4723153526999185e-06
3.648069784631145e-06
1.219455378017454e-06
-1.2091646076566348e-06
-3.6377789922059406e-06
2.13070405260808e-06
7.127233467452975e-07
-7.053286514999165e-07
-2.1233093281506914e-06
9.838928772308712e-07
3.296505551664566e-07
-3.2469391245768185e-07
-9.789361996367695e-07
2.5740283515404583e-07
8.673582109424168e-08
-8.412374294871229e-08
-2.547906938948371e-07
2.932380721905391e-07
9.870715755338592e-08
-9.603793083568162e-08
-2.9056877502039946e-07
1.1100258973405115e-06
3.717081408000376e-07
-3.667088705279985e-07
-1.105026584207991e-06
2.3760922861607526e-06
7.944794046630291e-07
-7.871836965102009e-07
-2.3687965447135044e-06
4.008777154766545e-06
1.3395379576694673e-06
-1.3296582775350937e-06
-3.998897442808101e-06
5.9066834373035475e-06
1.973171399034198e-06
-1.9601770109521935e-06
-5.8936890595666255e-06
7.909597972292665e-06
2.6420754659275196e-06
-2.625150820785488e-06
-7.892673307307649e-06
9.781673425947388e-06
3.267637165121632e-06
-3.2460178853907286e-06
-9.760053944770337e-06
1.1288482258010728e-05
3.7716387020328264e-06
-3.744767326715709e-06
-1.126161319003606e-05
1.22623112958278e-05
4.0976192812691645e-06
-4.0666225413748075e-06
-1.2231300977491804e-05
1.2595269570918273e-05
4.209428141757226e-06
-4.175930614682061e-06
-1.2561821157256376e-05
1.2262311296625166e-05
4.097619281622511e-06
-4.066622541465056e-06
-1.2231300978027263e-05
1.1288482259245848e-05
3.771638702511587e-06
-3.7447673269930644e-06
-1.1261613191069936e-05
9.781673427351564e-06
3.267637165637912e-06
-3.246017885762208e-06
-9.760053946029772e-06
7.909597973588494e-06
2.6420754664004346e-06
-2.6251508211352535e-06
-7.892673308481996e-06
5.906683438314122e-06
1.9731713993955497e-06
-1.960177011240083e-06
-5.893689060502681e-06
4.00877715548124e-06
1.3395379579255292e-06
-1.3296582777376214e-06
-3.998897443469788e-06
2.376092286599024e-06
7.94479404811377e-07
-7.871836966517724e-07
-2.368796545144656e-06
1.1100258975590542e-06
3.717081408722787e-07
-3.6670887060207156e-07
-1.1050265844286117e-06
2.9323807224819346e-07
9.870715756859061e-08
-9.603793086296496e-08
-2.905687750899685e-07
3.050666485764302e-07
1.0259906062904241e-07
-1.00087262703886e-07
-3.0255479364308085e-07
1.1413270001061403e-06
3.820127897924992e-07
-3.773930845421967e-07
-1.1367072704185035e-06
2.4088989819431965e-06
8.051730724799635e-07
-7.98587392515228e-07
-2.4023132876325603e-06
3.9920954569697866e-06
1.3335656512832513e-06
-1.3249008166161066e-06
-3.983430632280935e-06
5.748895123396986e-06
1.9199302606981505e-06
-1.9088728703992482e-06
-5.737837733258634e-06
7.501278850175678e-06
2.50496313446358e-06
-2.4911102121667032e-06
-7.487425999263786e-06
9.065403483756348e-06
3.0273695704814615e-06
-3.01036670186572e-06
-9.048400669720941e-06
1.0289417549037185e-05
3.4363990664878703e-06
-3.4162913217350247e-06
-1.0269309236905606e-05
1.1063667820658036e-05
3.695293426507163e-06
-3.6727373532436976e-06
-1.1041115748403544e-05
1.1328616728738378e-05
3.783859585472144e-06
-3.760557413684731e-06
-1.130530016534949e-05
1.1063667821203147e-05
3.6952934267547547e-06
-3.672737353293494e-06
-1.1041115748751245e-05
1.0289417549913432e-05
3.4363990668602187e-06
-3.416291321866324e-06
-1.0269309237539922e-05
9.065403484713435e-06
3.027369570821498e-06
-3.010366702142967e-06
-9.048400670615452e-06
7.501278851151656e-06
2.5049631348082867e-06
-2.491110212453255e-06
-7.487426000181919e-06
5.748895124240313e-06
1.919930261010416e-06
-1.9088728706179966e-06
-5.7378377340083215e-06
3.9920954575818144e-06
1.3335656514998397e-06
-1.324900816795015e-06
-3.983430632855534e-06
2.4088989823406434e-06
8.051730726175288e-07
-7.985873926375722e-07
-2.4023132880144633e-06
1.1413270003086146e-06
3.8201278985693404e-07
-3.7739308461580125e-07
-1.1367072706302062e-06
3.050666486331358e-07
1.0259906064539142e-07
-1.0008726272793797e-07
-3.0255479370755255e-07
2.8569772208687156e-07
9.602347509203083e-08
-9.384440578369574e-08
-2.8351854341526886e-07
1.0551370682772776e-06
3.53028656145237e-07
-3.491284760562084e-07
-1.051236803919461e-06
2.1928688304345554e-06
7.327464543809418e-07
-7.27343241380619e-07
-2.187465531919262e-06
3.567648601453384e-06
1.1914729413557159e-06
-1.1845596788811926e-06
-3.560735253409137e-06
5.0349635313809345e-06
1.6810969147820885e-06
-1.6725311873785882e-06
-5.026397733811058e-06
6.447386254570923e-06
2.1524924770223852e-06
-2.142085414471972e-06
-6.436979094515535e-06
7.675324991770242e-06
2.562436311120044e-06
-2.5500819545456607e-06
-7.662970567840099e-06
8.618066947669489e-06
2.8772803645049933e-06
-2.863101779286151e-06
-8.603888430466004e-06
9.20850611670565e-06
3.074528801899665e-06
-3.0590263184022418e-06
-9.193002403902518e-06
9.409265870639245e-06
3.1416236370419512e-06
-3.1255885699565815e-06
-9.393234795354515e-06
9.208506116939781e-06
3.074528802009543e-06
-3.0590263184167637e-06
-9.193002404041221e-06
8.618066948147348e-06
2.877280364718795e-06
-2.8631017793364575e-06
-8.603888430780213e-06
7.675324992379601e-06
2.5624363113610956e-06
-2.5500819546727554e-06
-7.662970568335827e-06
6.447386255223197e-06
2.152492477252743e-06
-2.1420854146635953e-06
-6.436979095128348e-06
5.034963532026952e-06
1.6810969150172664e-06
-1.6725311875541305e-06
-5.0263977343977365e-06
3.567648601967983e-06
1.1914729415381458e-06
-1.1845596790309027e-06
-3.560735253891123e-06
2.192868830793902e-06
7.327464545074761e-07
-7.27343241486831e-07
-2.1874655322582855e-06
1.0551370684557165e-06
3.5302865620109576e-07
-3.491284761229688e-07
-1.0512368041088512e-06
2.8569772214005104e-07
9.602347510894747e-08
-9.384440580305717e-08
-2.8351854347086656e-07
2.295140307529302e-07
7.712520917815825e-08
-7.54252378089381e-08
-2.2781408466643633e-07
8.37249918438515e-07
2.800707511380189e-07
-2.77175748277347e-07
-8.343549979038512e-07
1.7153164183441306e-06
5.730736682817615e-07
-5.692095296585898e-07
-1.7114524024113425e-06
2.747002955899388e-06
9.17268717193418e-07
-9.124678185246185e-07
-2.742202220823345e-06
3.817709203854409e-06
1.274492240199456e-06
-1.2687043224874296e-06
-3.8119214811756697e-06
4.824264153186824e-06
1.6103583835091862e-06
-1.6035146181630823e-06
-4.817420629640424e-06
5.68329294296873e-06
1.8970580706018933e-06
-1.8891413086074441e-06
-5.675376438293703e-06
6.334492340641487e-06
2.1144467612734194e-06
-2.105565449788299e-06
-6.325611280437613e-06
6.739149392247421e-06
2.2495624069790395e-06
-2.239994192971896e-06
-6.729581797116864e-06
6.876194298441169e-06
2.2953249543051707e-06
-2.2855160920339176e-06
-6.866384614824203e-06
6.7391493923441215e-06
2.249562407034725e-06
-2.239994192957214e-06
-6.729581797143117e-06
6.33449234084028e-06
2.1144467613728e-06
-2.105565449788317e-06
-6.325611280537019e-06
5.683292943248197e-06
1.8970580707129467e-06
-1.8891413086649647e-06
-5.6753764385195355e-06
4.824264153554917e-06
1.6103583836471795e-06
-1.6035146182551287e-06
-4.817420629962614e-06
3.817709204264914e-06
1.2744922403438247e-06
-1.268704322609231e-06
-3.8119214815634956e-06
2.7470029562783073e-06
9.172687173225749e-07
-9.124678186452048e-07
-2.742202221193741e-06
1.7153164186228805e-06
5.730736683798574e-07
-5.692095297411429e-07
-1.7114524026745757e-06
8.372499185869341e-07
2.800707511873481e-07
-2.7717574832709943e-07
-8.343549980526546e-07
2.2951403079523673e-07
7.712520919082456e-08
-7.542523782595013e-08
-2.2781408471309853e-07
1.332840328417615e-07
4.4781406202337715e-08
-4.37845923975174e-08
-1.322869061373646e-07
4.829929698331162e-07
1.6148606502695734e-07
-1.5994757705988565e-07
-4.814541858570086e-07
9.793276826613688e-07
3.2703335468070366e-07
-3.250625957829435e-07
-9.773565747809241e-07
1.5500562279639922e-06
5.173657987494128e-07
-5.149867738601284e-07
-1.547676817023764e-06
2.1302056301087466e-06
7.108461697492833e-07
-7.080504114151171e-07
-2.1274094490488543e-06
2.665864528786484e-06
8.895080415213905e-07
-8.862806687750622e-07
-2.6626366930805128e-06
3.116565475283285e-06
1.0398565133257563e-06
-1.036204144916413e-06
-3.112912615895689e-06
3.454754867762273e-06
1.1526915755435034e-06
-1.148667209833985e-06
-3.450729988266136e-06
3.663502834733305e-06
1.222349370904185e-06
-1.2180667044299911e-06
-3.6592195462860875e-06
3.733998329798905e-06
1.2458759548954362e-06
-1.241497972090289e-06
-3.729620086201394e-06
3.6635028347536315e-06
1.2223493709228416e-06
-1.2180667044130202e-06
-3.6592195462708684e-06
3.4547548678042246e-06
1.1526915755687026e-06
-1.1486672098256154e-06
-3.450729988274453e-06
3.1165654753683096e-06
1.0398565133622731e-06
-1.036204144928407e-06
-3.112912615956221e-06
2.6658645289283983e-06
8.895080415748712e-07
-8.862806688100637e-07
-2.6626366932039183e-06
2.130205630295306e-06
7.108461698153772e-07
-7.080504114694546e-07
-2.1274094492237154e-06
1.5500562281559053e-06
5.173657988134662e-07
-5.149867739239073e-07
-1.5476768172153688e-06
9.793276828192872e-07
3.270333547341122e-07
-3.2506259583399337e-07
-9.773565749364843e-07
4.829929699241811e-07
1.6148606505766073e-07
-1.5994757708952188e-07
-4.814541859469806e-07
1.332840328690213e-07
4.478140621118159e-08
-4.3784592407093054e-08
-1.322869061653695e-07
SCALARS disp_y float
LOOKUP_TABLE default
0.0
0.0
0.0
0.0
0.0
0.0
0.0
0.0
0.0
0.0
0.0
0.0
0.0
0.0
0.0
0.0
0.0
0.0
0.0
0.0
0.0
0.0
0.0
0.0
0.0
0.0
0.0
0.0
0.0
0.0
0.0
0.0
0.0
0.0
0.0
0.0
0.0
0.0
0.0
0.0
0.0
0.0
0.0
0.0
0.0
0.0
0.0
0.0
0.0
0.0
0.0
0.0
0.0
0.0
0.0
0.0
0.0
0.0
0.0
0.0
0.0
0.0
0.0
0.0
0.0
0.0
0.0
0.0
0.0
0.0
0.0
0.0
0.0
0.0
0.0
0.0
0.0
0.0
0.0
0.0
0.0
0.0
0.0
0.0
0.0
0.0
0.0
0.0
0.0
0.0
0.0
0.0
0.0
0.0
0.0
0.0
0.0
0.0
0.0
0.0
0.0
0.0
0.0
0.0
0.0
0.0
0.0
0.0
0.0
0.0
0.0
0.0
0.0
0.0
0.0
0.0
0.0
0.0
0.0
0.0
0.0
0.0
0.0
0.0
0.0
0.0
0.0
0.0
0.0
0.0
0.0
0.0
0.0
0.0
0.0
0.0
0.0
0.0
0.0
0.0
0.0
0.0
0.0
0.0
0.0
0.0
0.0
0.0
0.0
0.0
0.0
0.0
0.0
0.0
0.0
0.0
0.0
0.0
0.0
0.0
0.0
0.0
0.0
0.0
0.0
0.0
0.0
0.0
0.0
0.0
0.0
0.0
0.0
0.0
0.0
0.0
-2.215961877711741e-07
-3.814176961592183e-07
-4.747908136858359e-07
-5.068776969674176e-07
-4.871262007816127e-07
-4.2749194448666e-07
-3.399750629798511e-07
-2.3476025626447073e-07
-1.1957488091647877e-07
-4.155351001962494e-17
1.1957488083613446e-07
2.3476025618254785e-07
3.3997506290427653e-07
4.274919444431026e-07
4.871262007827708e-07
5.068776970115322e-07
4.7479081375748644e-07
3.814176962348736e-07
2.2159618782266255e-07
-8.047199485429068e-07
-1.3942267175634816e-06
-1.7570996927299298e-06
-1.900366118859982e-06
-1.848046029340561e-06
-1.6378287783807108e-06
-1.3123061241101258e-06
-9.108822509105638e-07
-4.653488097492367e-07
-1.5474328446358565e-16
4.6534880944521136e-07
9.108822506096665e-07
1.312306123850302e-06
1.6378287782381414e-06
1.8480460293628009e-06
1.9003661190464058e-06
1.7570996930164501e-06
1.3942267178558503e-06
8.047199487424016e-07
-1.6322178740619345e-06
-2.857436792519716e-06
-3.6530898209304552e-06
-4.012520773599887e-06
-3.957554568806991e-06
-3.5484707164351256e-06
-2.8680490779375816e-06
-2.002452638779963e-06
-1.0264305251681512e-06
-3.420620909840225e-16
1.0264305244579147e-06
2.002452638116816e-06
2.868049077421731e-06
3.5484707161661964e-06
3.957554568898017e-06
4.012520774028624e-06
3.6530898215528796e-06
2.8574367931529613e-06
1.6322178744886595e-06
-2.583761586797349e-06
-4.5767287523103595e-06
-5.944254443268422e-06
-6.650814744888528e-06
-6.678145467472553e-06
-6.07666731204961e-06
-4.965664370210856e-06
-3.4917815368621518e-06
-1.7970462765782324e-06
-6.612169864682308e-16
1.7970462752916863e-06
3.4917815357413057e-06
4.965664369410471e-06
6.0766673116918534e-06
6.678145467692406e-06
6.650814745629535e-06
5.944254444312895e-06
4.57672875336725e-06
2.5837615875026423e-06
-3.550955632583351e-06
-6.3609852198713805e-06
-8.389547133676863e-06
-9.578344418705641e-06
-9.840686759310862e-06
-9.1396258168997e-06
-7.5813441563594344e-06
-5.384759441776359e-06
-2.785149247752834e-06
-1.113573867396568e-15
2.785149245654968e-06
5.38475944010505e-06
7.5813441552996785e-06
9.139625816598379e-06
9.840686759802835e-06
9.578344419806718e-06
8.38954713519087e-06
6.360985221369071e-06
3.5509556335807676e-06
-4.44392673387085e-06
-8.038265588298536e-06
-1.0743229467272705e-05
-1.2498320799219621e-05
-1.3178009603942067e-05
-1.2606012645728634e-05
-1.0708091115869893e-05
-7.718306704866573e-06
-4.02805540655122e-06
-1.6577027700829736e-15
4.0280554034917455e-06
7.718306702558883e-06
1.0708091114583565e-05
1.2606012645657094e-05
1.3178009604845468e-05
1.249832080077754e-05
1.0743229469247125e-05
8.038265590204977e-06
4.443926735134501e-06
-5.195222118458715e-06
-9.469631229014207e-06
-1.278932699387967e-05
-1.5104329286349045e-05
-1.6296853623393228e-05
-1.6149412698203774e-05
-1.4296640361910638e-05
-1.0594661702890048e-05
-5.599191158717913e-06
-2.1520388806164214e-15
5.599191154617712e-06
1.0594661699761128e-05
1.429664036049803e-05
1.614941269836182e-05
1.6296853624694843e-05
1.5104329288417378e-05
1.278932699631473e-05
9.469631231300073e-06
5.195222119940608e-06
-5.758934730102205e-06
-1.0554634620786834e-05
-1.4360069294011511e-05
-1.7143418473339648e-05
-1.8806641382946847e-05
-1.9173071765100716e-05
-1.7897871211502383e-05
-1.4163582812900032e-05
-7.717643896729834e-06
-2.7400045989445533e-15
7.717643891585259e-06
1.416358280916526e-05
1.7897871209976355e-05
1.917307176551342e-05
1.880664138471511e-05
1.7143418475924887e-05
1.4360069296866595e-05
1.0554634623366667e-05
5.758934731727253e-06
-6.106871576018096e-06
-1.1228824327899917e-05
-1.5343751208887764e-05
-1.8433075922999053e-05
-2.0428340483330432e-05
-2.1177394816228553e-05
-2.042610678264959e-05
-1.774101917826948e-05
-1.0960086237344353e-05
-3.459051441604378e-15
1.0960086231294873e-05
1.7741019174293197e-05
2.042610678113486e-05
2.1177394816998692e-05
2.0428340485606792e-05
1.843307592594242e-05
1.5343751212027894e-05
1.1228824330598984e-05
6.1068715776825e-06
-6.224369615254007e-06
-1.1457143721551569e-05
-1.5678204927718137e-05
-1.887437798467767e-05
-2.098261026599852e-05
-2.188839846596809e-05
-2.1345307479729107e-05
-1.8837426535840498e-05
-1.4474745448269331e-05
-3.806410210898531e-15
1.4474745441693466e-05
1.8837426532040782e-05
2.1345307478712613e-05
2.1888398466962582e-05
2.0982610268462338e-05
1.887437798775637e-05
1.567820493080002e-05
1.1457143724186182e-05
6.224369616848504e-06
-6.106871576102853e-06
-1.1228824328018956e-05
-1.534375120903772e-05
-1.8433075923066805e-05
-2.0428340483265038e-05
-2.11773948160589e-05
-2.0426106782495773e-05
-1.7741019178332454e-05
-1.0960086237498034e-05
-3.656336822939226e-15
1.0960086231403332e-05
1.774101917480497e-05
2.042610678169293e-05
2.117739481722663e-05
2.04283404855663e-05
1.8433075925907872e-05
1.5343751211883536e-05
1.1228824330440994e-05
6.106871577541346e-06
-5.758934730239367e-06
-1.055463462100978e-05
-1.4360069294235141e-05
-1.7143418473461533e-05
-1.8806641382775598e-05
-1.917307176464492e-05
-1.7897871211338177e-05
-1.416358281315167e-05
-7.71764389704173e-06
-2.9916274908443743e-15
7.717643891924167e-06
1.4163582809978681e-05
1.7897871210592304e-05
1.9173071765851858e-05
1.88066413848229e-05
1.714341847586506e-05
1.4360069296676866e-05
1.0554634623086564e-05
5.758934731500572e-06
-5.1952221186149694e-06
-9.469631229273904e-06
-1.2789326994139654e-05
-1.5104329286479195e-05
-1.629685362322063e-05
-1.6149412697773597e-05
-1.4296640361670211e-05
-1.0594661703174644e-05
-5.599191159215102e-06
-2.096320615874897e-15
5.5991911552692674e-06
1.0594661700489619e-05
1.4296640360940718e-05
1.614941269860342e-05
1.6296853624855126e-05
1.510432928838333e-05
1.2789326996081502e-05
9.469631230984865e-06
5.1952221196871344e-06
-4.443926734007267e-06
-8.038265588520982e-06
-1.074322946752328e-05
-1.2498320799373188e-05
-1.3178009603890923e-05
-1.260601264546199e-05
-1.0708091115630167e-05
-7.718306705016312e-06
-4.0280554067843015e-06
-1.483335108660045e-15
4.028055404050069e-06
7.71830670306314e-06
1.0708091114895119e-05
1.2606012645843244e-05
1.317800960498962e-05
1.2498320800774989e-05
1.0743229468996507e-05
8.038265589868933e-06
4.443926734868469e-06
-3.5509556326819432e-06
-6.360985220052071e-06
-8.389547133878463e-06
-9.57834441881928e-06
-9.840686759396327e-06
-9.139625816913286e-06
-7.581344156282374e-06
-5.384759441695083e-06
-2.78514924759282e-06
-8.842264601011056e-16
2.785149245970447e-06
5.384759440448219e-06
7.581344155552581e-06
9.139625816877681e-06
9.840686759956416e-06
9.578344419726226e-06
8.389547134942532e-06
6.360985221056063e-06
3.5509556333509836e-06
-2.583761586860743e-06
-4.576728752427298e-06
-5.944254443406345e-06
-6.650814745034918e-06
-6.678145467647709e-06
-6.0766673121932275e-06
-4.9656643702578045e-06
-3.49178153673251e-06
-1.7970462763265158e-06
-3.873424376292941e-16
1.7970462755094784e-06
3.4917815359507824e-06
4.965664369655324e-06
6.0766673118850955e-06
6.67814546778895e-06
6.6508147455492114e-06
5.944254444116234e-06
4.576728753151089e-06
2.583761587342121e-06
-1.6322178740894709e-06
-2.8574367925797576e-06
-3.653089821020602e-06
-4.012520773746977e-06
-3.957554569024874e-06
-3.5484707166113563e-06
-2.868049077984762e-06
-2.0024526387258613e-06
-1.0264305250166841e-06
-1.3254152421997343e-16
1.0264305246775794e-06
2.0024526383052307e-06
2.8680490775806076e-06
3.5484707162944838e-06
3.957554568945801e-06
4.012520773982254e-06
3.653089821450227e-06
2.8574367930275755e-06
1.6322178743951058e-06
-8.047199485474263e-07
-1.3942267175827273e-06
-1.7570996927831726e-06
-1.900366118960815e-06
-1.8480460294795737e-06
-1.6378287784935293e-06
-1.3123061241536049e-06
-9.108822509136893e-07
-4.653488097025701e-07
-4.036246215105485e-17
4.6534880959553064e-07
9.108822507430748e-07
1.3123061239484973e-06
1.6378287783062014e-06
1.848046029384191e-06
1.9003661190222148e-06
1.757099692972048e-06
1.3942267178063008e-06
8.047199487039304e-07
-2.215961877696817e-07
-3.814176961608958e-07
-4.74790813701842e-07
-5.068776970035072e-07
-4.87126200825707e-07
-4.2749194452366757e-07
-3.399750630014461e-07
-2.3476025627707855e-07
-1.1957488091844455e-07
-1.1022870614585471e-17
1.1957488088753623e-07
2.347602562322111e-07
3.399750629467256e-07
4.274919444653222e-07
4.871262007875031e-07
5.068776970062576e-07
4.747908137461566e-07
3.814176962238301e-07
2.2159618781510935e-07
2.2059843324315244e-07
3.797178023210768e-07
4.7261141503437375e-07
5.043657284489368e-07
4.844567623522695e-07
4.2487967694128804e-07
3.376739344048572e-07
2.3303240033489934e-07
1.1864676747398579e-07
2.418691992972814e-17
-1.1864676742802557e-07
-2.3303240028033584e-07
-3.376739343474338e-07
-4.248796769106872e-07
-4.844567623643156e-07
-5.043657285024139e-07
-4.7261141511363693e-07
-3.797178024020504e-07
-2.2059843329770025e-07
8.031805709705312e-07
1.3913319636522197e-06
1.7531992586282027e-06
1.89574634098935e-06
1.8430466302119248e-06
1.63287203121283e-06
1.307890906398144e-06
9.075446823790108e-07
4.6353947587106283e-07
1.2019195822546403e-16
-4.6353947562977046e-07
-9.075446821275334e-07
-1.3078909061779426e-06
-1.6328720311047614e-06
-1.8430466302618284e-06
-1.8957463411969745e-06
-1.7531992589324108e-06
-1.3913319639583178e-06
-8.031805711748519e-07
1.63024606607949e-06
2.853573024336531e-06
3.6476863498179384e-06
4.005935051295938e-06
3.950258760468605e-06
3.541075933630412e-06
2.861341583156862e-06
1.9972771335005582e-06
1.0236220250699715e-06
2.8549251562190004e-16
-1.0236220244645818e-06
-1.9972771329232303e-06
-2.8613415827187374e-06
-3.5410759334139066e-06
-3.95025876060491e-06
-4.0059350517562135e-06
-3.647686350463346e-06
-2.853573024985791e-06
-1.6302460665166898e-06
2.581381401343888e-06
4.571928347237253e-06
5.937340922144992e-06
6.642149941155149e-06
6.668265691385853e-06
6.066376475140289e-06
4.956008759176303e-06
3.4842113304165745e-06
1.792729834847867e-06
5.881810057886197e-16
-1.7927298337029562e-06
-3.484211329431093e-06
-4.956008758484892e-06
-6.066376474878517e-06
-6.668265691681862e-06
-6.642149941947386e-06
-5.937340923225282e-06
-4.57192834832392e-06
-2.581381402066024e-06
3.5481586034216437e-06
6.3551978902725866e-06
8.380981193802671e-06
9.56728702987655e-06
9.827692400713322e-06
9.12551528311635e-06
7.567703759991237e-06
5.3732570351350806e-06
2.778942031987854e-06
1.0110739420185556e-15
-2.7789420300573255e-06
-5.37325703363372e-06
-7.567703759073085e-06
-9.125515282960035e-06
-9.82769240130596e-06
-9.567287031060615e-06
-8.380981195395608e-06
-6.355197891823394e-06
-3.5481586044436436e-06
4.440697969203293e-06
8.031422551849835e-06
1.073282211021416e-05
1.2484468090210149e-05
1.3161084906566995e-05
1.2587026791009756e-05
1.0688045541986716e-05
7.701722641681691e-06
4.016184101590602e-06
1.5738628685330192e-15
-4.0161840987008345e-06
-7.701722639545542e-06
-1.0688045540922474e-05
-1.2587026791090271e-05
-1.3161084907622008e-05
-1.2484468091898528e-05
-1.0732822112287971e-05
-8.031422553826386e-06
-4.440697970496507e-06
5.1915682735431344e-06
9.461715244116238e-06
1.2776972428111868e-05
1.50873265976348e-05
1.6275233693420337e-05
1.6123463794025037e-05
1.4269322602415954e-05
1.0563951865030849e-05
5.586133090417695e-06
2.0150786210523135e-15
-5.586133086577867e-06
-1.0563951862168003e-05
-1.4269322601269603e-05
-1.6123463794463617e-05
-1.6275233694942855e-05
-1.5087326599887386e-05
-1.2776972430657136e-05
-9.461715246456281e-06
-5.191568275055002e-06
5.754908822585912e-06
1.0545754057425316e-05
1.4345890939024549e-05
1.7123308945571398e-05
1.8779777151432374e-05
1.9139081263152522e-05
1.785511048476242e-05
1.4128511207636482e-05
7.65681536509904e-06
2.5501918147420947e-15
-7.65681536028158e-06
-1.4128511204189164e-05
-1.7855110483534465e-05
-1.9139081263923753e-05
-1.877977715356295e-05
-1.7123308948374847e-05
-1.4345890942029736e-05
-1.0545754060082868e-05
-5.7549088242399615e-06
6.10258702346587e-06
1.1219258026500372e-05
1.5328244889142103e-05
1.8410532246015394e-05
2.0397302004268163e-05
2.1134306643262104e-05
2.0370597391848767e-05
1.764579476659968e-05
1.0955406542806858e-05
3.25307454837652e-15
-1.0955406537128869e-05
-1.7645794763049793e-05
-2.0370597390785545e-05
-2.1134306644443783e-05
-2.039730200684381e-05
-1.841053224918321e-05
-1.5328244892416614e-05
-1.1219258029298209e-05
-6.102587025168916e-06
6.219990904886459e-06
1.1447332218668329e-05
1.566218233802496e-05
1.8851031299703422e-05
2.0949263435017814e-05
2.184441838916943e-05
2.1267290447238737e-05
1.8774564261133952e-05
1.3969946664265e-05
3.6746317779250986e-15
-1.3969946657991864e-05
-1.877456425770007e-05
-2.1267290446635403e-05
-2.1844418390486867e-05
-2.0949263437740103e-05
-1.885103130301353e-05
-1.5662182341303305e-05
-1.1447332221413524e-05
-6.219990906526578e-06
6.102587023549832e-06
1.1219258026629203e-05
1.532824488931228e-05
1.8410532246104003e-05
2.0397302004208982e-05
2.1134306643092552e-05
2.0370597391704318e-05
1.7645794766704933e-05
1.095540654304139e-05
3.5436690609897195e-15
-1.0955406537142564e-05
-1.7645794763410694e-05
-2.0370597391166906e-05
-2.1134306644557848e-05
-2.0397302006764413e-05
-1.841053224914706e-05
-1.5328244892297372e-05
-1.1219258029146576e-05
-6.102587025034668e-06
5.754908822726621e-06
1.0545754057657112e-05
1.4345890939267045e-05
1.712330894572798e-05
1.8779777151347718e-05
1.9139081262760814e-05
1.7855110484652678e-05
1.4128511208004187e-05
7.656815365508358e-06
2.8576805925793742e-15
-7.656815360503374e-06
-1.4128511204829908e-05
-1.785511048402213e-05
-1.913908126406563e-05
-1.8779777153488123e-05
-1.7123308948279274e-05
-1.4345890941826365e-05
-1.0545754059804804e-05
-5.7549088240190485e-06
5.191568273697636e-06
9.461715244373509e-06
1.2776972428371538e-05
1.5087326597783067e-05
1.6275233693285324e-05
1.6123463793624218e-05
1.4269322602226295e-05
1.0563951865404403e-05
5.586133090988229e-06
2.0869291982510535e-15
-5.586133087097231e-06
-1.0563951862724788e-05
-1.4269322601515371e-05
-1.612346379453253e-05
-1.627523369502609e-05
-1.5087326599789254e-05
-1.2776972430376512e-05
-9.461715246129516e-06
-5.191568274791837e-06
4.440697969338649e-06
8.031422552067209e-06
1.073282211046375e-05
1.2484468090374932e-05
1.316108490654903e-05
1.2587026790787746e-05
1.0688045541787557e-05
7.701722641814313e-06
4.016184101817017e-06
1.4500711558073963e-15
-4.016184099152915e-06
-7.701722639947188e-06
-1.0688045541090498e-05
-1.2587026791200153e-05
-1.3161084907705404e-05
-1.2484468091831427e-05
-1.0732822111997085e-05
-8.031422553457224e-06
-4.440697970224773e-06
3.5481586035227003e-06
6.35519789045824e-06
8.380981194019322e-06
9.567287030010611e-06
9.82769240082565e-06
9.125515283159691e-06
7.567703759902265e-06
5.37325703503109e-06
2.778942031852299e-06
8.7266077610642645e-16
-2.7789420302919832e-06
-5.373257033880273e-06
-7.567703759255824e-06
-9.125515283143895e-06
-9.827692401425972e-06
-9.567287030978968e-06
-8.380981195133953e-06
-6.355197891501664e-06
-3.5481586042098443e-06
2.5813814014090175e-06
4.571928347360991e-06
5.937340922294283e-06
6.642149941314569e-06
6.66826569156849e-06
6.0663764752744475e-06
4.956008759205646e-06
3.4842113303045734e-06
1.7927298346216945e-06
3.2800820755187037e-16
-1.7927298338909253e-06
-3.484211329581071e-06
-4.956008758679068e-06
-6.066376475065769e-06
-6.668265691784838e-06
-6.642149941870586e-06
-5.93734092303593e-06
-4.571928348099953e-06
-2.5813814018951386e-06
1.630246066109691e-06
2.853573024402135e-06
3.6476863499169044e-06
4.005935051447154e-06
3.950258760670011e-06
3.5410759337820165e-06
2.8613415831948224e-06
1.997277133420923e-06
1.0236220248930252e-06
7.897718454576942e-17
-1.0236220246633004e-06
-1.9972771330890726e-06
-2.8613415828554307e-06
-3.541075933534987e-06
-3.9502587606365965e-06
-4.005935051703982e-06
-3.647686350358334e-06
-2.8535730248599583e-06
-1.630246066421421e-06
8.031805709776934e-07
1.3913319636779776e-06
1.7531992586895459e-06
1.8957463410946286e-06
1.8430466303439715e-06
1.6328720313096676e-06
1.3078909064156633e-06
9.075446823505893e-07
4.6353947579405975e-07
-1.2684775457750395e-17
-4.6353947577490183e-07
-9.075446822510904e-07
-1.3078909062526871e-06
-1.63287203114796e-06
-1.8430466302708059e-06
-1.8957463411664477e-06
-1.7531992588818859e-06
-1.3913319639012904e-06
-8.031805711351901e-07
2.2059843324369668e-07
3.7971780232692797e-07
4.726114150545865e-07
5.043657284870563e-07
4.844567623942479e-07
4.2487967696766115e-07
3.3767393440982017e-07
2.3303240032775317e-07
1.1864676745367723e-07
-2.1618504275416287e-17
-1.1864676747862092e-07
-2.3303240031574764e-07
-3.376739343727792e-07
-4.24879676920825e-07
-4.844567623616779e-07
-5.043657284921527e-07
-4.72611415098096e-07
-3.797178023882327e-07
-2.2059843328836698e-07
0.0
0.0
0.0
0.0
0.0
0.0
0.0
0.0
0.0
0.0
0.0
0.0
0.0
0.0
0.0
0.0
0.0
0.0
0.0
0.0
0.0
0.0
0.0
0.0
0.0
0.0
0.0
0.0
0.0
0.0
0.0
0.0
0.0
0.0
0.0
0.0
0.0
0.0
0.0
0.0
0.0
0.0
0.0
0.0
0.0
0.0
0.0
0.0
0.0
0.0
0.0
0.0
0.0
0.0
0.0
0.0
0.0
0.0
0.0
0.0
0.0
0.0
0.0
0.0
0.0
0.0
0.0
0.0
0.0
0.0
0.0
0.0
0.0
0.0
0.0
0.0
0.0
0.0
0.0
0.0
0.0
0.0
0.0
0.0
0.0
0.0
0.0
0.0
0.0
0.0
0.0
0.0
0.0
0.0
0.0
0.0
0.0
0.0
0.0
0.0
0.0
0.0
0.0
0.0
0.0
0.0
0.0
0.0
0.0
0.0
0.0
0.0
0.0
0.0
0.0
0.0
0.0
0.0
0.0
0.0
0.0
0.0
0.0
0.0
0.0
0.0
0.0
0.0
0.0
0.0
0.0
0.0
0.0
0.0
0.0
0.0
0.0
0.0
0.0
0.0
0.0
0.0
0.0
0.0
0.0
0.0
0.0
0.0
0.0
0.0
0.0
0.0
0.0
0.0
0.0
0.0
0.0
0.0
0.0
0.0
0.0
0.0
0.0
0.0
0.0
0.0
0.0
0.0
0.0
0.0
0.0
0.0
0.0
0.0
0.0
0.0
0.0
0.0
0.0
0.0
0.0
0.0
0.0
0.0
0.0
0.0
0.0
0.0
0.0
0.0
0.0
0.0
0.0
0.0
0.0
0.0
0.0
0.0
0.0
0.0
0.0
0.0
0.0
0.0
0.0
0.0
0.0
0.0
0.0
0.0
0.0
0.0
0.0
0.0
0.0
0.0
0.0
0.0
0.0
0.0
0.0
0.0
0.0
0.0
0.0
0.0
0.0
0.0
0.0
0.0
0.0
0.0
0.0
0.0
0.0
0.0
0.0
0.0
0.0
0.0
0.0
0.0
0.0
0.0
0.0
0.0
0.0
0.0
0.0
0.0
0.0
0.0
0.0
0.0
0.0
0.0
0.0
0.0
0.0
0.0
0.0
0.0
0.0
0.0
0.0
0.0
0.0
0.0
0.0
0.0
0.0
0.0
0.0
0.0
0.0
0.0
0.0
0.0
0.0
0.0
0.0
0.0
0.0
0.0
0.0
0.0
0.0
0.0
0.0
0.0
0.0
0.0
0.0
0.0
0.0
0.0
0.0
0.0
0.0
0.0
0.0
0.0
0.0
0.0
-1.3328403284479554e-07
-4.478140620394849e-08
4.37845923973255e-08
1.3228690613860916e-07
-2.295140307663473e-07
-7.712520918319323e-08
7.54252378122901e-08
2.2781408467816747e-07
-2.8569772211893874e-07
-9.602347510393754e-08
9.384440579195878e-08
2.8351854344369036e-07
-3.050666486278689e-07
-1.0259906064710842e-07
1.0008726271922306e-07
3.025547936917975e-07
-2.932380722599024e-07
-9.870715757722329e-08
9.603793085741156e-08
2.905687750875196e-07
-2.57402835180312e-07
-8.673582110721688e-08
8.41237429490455e-08
2.547906939084967e-07
-2.047563374766804e-07
-6.907092918228955e-08
6.676997485001706e-08
2.0245532508779402e-07
-1.4141907912353192e-07
-4.775181976959347e-08
4.602408752253159e-08
1.3969130574071424e-07
-7.204195757589743e-08
-2.4341891635897474e-08
2.3413863439215587e-08
7.111390084104492e-08
-2.8454999599544017e-17
-1.5305563957979486e-17
-2.150569689428451e-18
1.1088563359283515e-17
7.2041957520782e-08
2.4341891606115322e-08
-2.3413863443627137e-08
-7.111390082031506e-08
1.4141907906884602e-07
4.7751819742253895e-08
-4.6024087522497985e-08
-1.3969130571339044e-07
2.047563374276474e-07
6.907092915986237e-08
-6.676997484582019e-08
-2.0245532505691512e-07
2.574028351515631e-07
8.673582109332089e-08
-8.412374294806598e-08
-2.547906938926983e-07
2.9323807225841174e-07
9.870715757306857e-08
-9.603793086422311e-08
-2.905687750969165e-07
3.050666486525113e-07
1.025990606522187e-07
-1.000872627336693e-07
-3.025547937258036e-07
2.8569772216047025e-07
9.602347511525621e-08
-9.38444058108787e-08
-2.835185434928361e-07
2.2951403081074346e-07
7.712520919623171e-08
-7.542523783064121e-08
-2.2781408472788113e-07
1.3328403287510246e-07
4.47814062130337e-08
-4.378459240947598e-08
-1.3228690617197384e-07
-4.829929698232957e-07
-1.6148606502432728e-07
1.5994757705533902e-07
4.814541858452504e-07
-8.372499184566287e-07
-2.800707511455252e-07
2.771757482804329e-07
8.343549979175035e-07
-1.055137068352841e-06
-3.5302865617161097e-07
3.4912847607903154e-07
1.0512368039915414e-06
-1.141327000265684e-06
-3.8201278984760736e-07
3.773930845915196e-07
1.1367072705724382e-06
-1.110025897578312e-06
-3.7170814088211024e-07
3.667088706016158e-07
1.105026584437399e-06
-9.838928772945404e-07
-3.2965055519476135e-07
3.246939124647496e-07
9.789361996790729e-07
-7.884447155456474e-07
-2.6431628871853615e-07
2.5990116128324784e-07
7.840295580645042e-07
-5.473282938343297e-07
-1.8357715900392846e-07
1.8023970371563136e-07
5.43990800644896e-07
-2.7964058492104804e-07
-9.382821916558034e-08
9.201886973601706e-08
2.7783124098974354e-07
-9.975005143082968e-17
-4.473382185589394e-17
1.0315834875776554e-17
6.51961259501635e-17
2.796405847259401e-07
9.382821907954188e-08
-9.20188697129778e-08
-2.778312408573599e-07
5.473282936438955e-07
1.8357715892399507e-07
-1.8023970368499908e-07
-5.439908005038691e-07
7.884447153818256e-07
2.6431628865067653e-07
-2.5990116125516425e-07
-7.840295579402917e-07
9.838928772020998e-07
3.296505551524286e-07
-3.246939124569883e-07
-9.789361996211485e-07
1.1100258975861968e-06
3.7170814087561296e-07
-3.667088706225496e-07
-1.1050265844729587e-06
1.1413270003733036e-06
3.820127898764024e-07
-3.7739308464155094e-07
-1.1367072707012524e-06
1.0551370685211803e-06
3.530286562217854e-07
-3.4912847614702007e-07
-1.0512368041775774e-06
8.372499186293416e-07
2.8007075119853125e-07
-2.7717574834715966e-07
-8.343549981039536e-07
4.829929699419695e-07
1.614860650622713e-07
-1.599475770980873e-07
-4.81454185968739e-07
-9.79327682597804e-07
-3.27033354661705e-07
3.250625957573955e-07
9.773565747108237e-07
-1.7153164183165512e-06
-5.73073668277498e-07
5.69209529639535e-07
1.711452402368954e-06
-2.1928688305297433e-06
-7.327464544202265e-07
7.27343241397212e-07
2.187465531991797e-06
-2.408898982203867e-06
-8.051730725757293e-07
7.9858739258436e-07
2.4023132878661093e-06
-2.3760922865966074e-06
-7.944794048115647e-07
7.87183696648998e-07
2.3687965451395044e-06
-2.130704052712577e-06
-7.127233467821802e-07
7.053286515306414e-07
2.1233093282490366e-06
-1.7223143399814105e-06
-5.763644625053688e-07
5.696571047331027e-07
1.7156069365647799e-06
-1.2026223407961462e-06
-4.0261857574596287e-07
3.974430027452637e-07
1.1974467904205132e-06
-6.164836314051932e-07
-2.0644120743753127e-07
2.036330230515226e-07
6.136753414144187e-07
-2.1658048389061936e-16
-9.096099532354585e-17
3.4683870434809466e-17
1.6001849977996703e-16
6.164836309580203e-07
2.0644120725339078e-07
-2.0363302297261988e-07
-6.136753410721197e-07
1.2026223403809976e-06
4.026185755788309e-07
-3.974430026643678e-07
-1.1974467900911855e-06
1.7223143396565713e-06
5.763644623715172e-07
-5.696571046759272e-07
-1.7156069363176745e-06
2.1307040525408425e-06
7.127233467074969e-07
-7.053286515082855e-07
-2.1233093281297e-06
2.37609228664212e-06
7.944794048115727e-07
-7.871836966944818e-07
-2.3687965452303245e-06
2.4088989824548248e-06
8.051730726489432e-07
-7.985873926888566e-07
-2.4023132881485787e-06
2.192868830898592e-06
7.327464545355598e-07
-7.273432415353772e-07
-2.187465532383617e-06
1.7153164186932822e-06
5.73073668397725e-07
-5.692095297757963e-07
-1.7114524027616996e-06
9.793276828515766e-07
3.270333547427704e-07
-3.250625958489639e-07
-9.773565749750797e-07
-1.5500562277801463e-06
-5.173657986881964e-07
5.149867737988286e-07
1.5476768168397622e-06
-2.7470029557392047e-06
-9.172687171454054e-07
9.124678184604799e-07
2.7422022206471596e-06
-3.567648601483095e-06
-1.1914729413779657e-06
1.1845596788664193e-06
3.560735253401782e-06
-3.992095457289122e-06
-1.3335656514056136e-06
1.3249008166906978e-06
3.983430632553007e-06
-4.008777155400587e-06
-1.3395379578992474e-06
1.3296582777095134e-06
3.9988974433875905e-06
-3.648069784773711e-06
-1.2194553780745163e-06
1.2091646076850765e-06
3.637778992320138e-06
-2.9813875044442048e-06
-9.970240350464117e-07
9.873683233708383e-07
2.9717318257051096e-06
-2.0966540224353576e-06
-7.014196649611135e-07
6.938502194800235e-07
2.089084324631072e-06
-1.0791361619543092e-06
-3.6115873927019935e-07
3.5684122943206496e-07
1.074819006819717e-06
-4.1128761039986576e-16
-1.6131836819121595e-16
8.868317362016299e-17
3.382837833096862e-16
1.0791361611540426e-06
3.6115873895632144e-07
-3.5684122925954405e-07
-1.0748190061611387e-06
2.0966540217358965e-06
7.014196646829214e-07
-6.938502193369653e-07
-2.0890843240669786e-06
2.981387503941986e-06
9.97024034842293e-07
-9.873683232769752e-07
-2.971731825311799e-06
3.6480697845400906e-06
1.2194553779647989e-06
-1.2091646076709132e-06
-3.637778992182525e-06
4.008777155517311e-06
1.339537957912741e-06
-1.329658277799284e-06
-3.998897443580448e-06
3.992095457723324e-06
1.3335656515331516e-06
-1.324900816869793e-06
-3.983430633038461e-06
3.567648602102524e-06
1.191472941572523e-06
-1.1845596790966583e-06
-3.560735254057016e-06
2.747002956367299e-06
9.172687173448117e-07
-9.124678186897204e-07
-2.7422022213050374e-06
1.5500562281996787e-06
5.173657988223892e-07
-5.149867739498383e-07
-1.5476768172761295e-06
-2.1302056297560476e-06
-7.10846169635852e-07
7.080504112894464e-07
2.127409448684029e-06
-3.817709203464742e-06
-1.2744922400780787e-06
1.2687043223405712e-06
3.811921480760311e-06
-5.0349635312362485e-06
-1.6810969147540568e-06
1.6725311872899477e-06
5.0263977336067085e-06
-5.748895123689941e-06
-1.9199302608208966e-06
1.9088728704466876e-06
5.73783773347578e-06
-5.906683438063278e-06
-1.9731713993162716e-06
1.9601770111476806e-06
5.893689060238331e-06
-5.4864259460520176e-06
-1.8334835575333333e-06
1.8193729367422854e-06
5.4723153527339844e-06
-4.551483699493078e-06
-1.5216992520008902e-06
1.5080597720714167e-06
4.5378439185363144e-06
-3.2331725304423175e-06
-1.0815619174131869e-06
1.070056852282116e-06
3.2216683415692775e-06
-1.6723560345276196e-06
-5.595235239584243e-07
5.533215371205856e-07
1.666152318238273e-06
-6.887582327656194e-16
-2.6392163290534677e-16
1.6089681948676977e-16
5.861671282907099e-16
1.6723560332357472e-06
5.595235234723948e-07
-5.533215368008116e-07
-1.6661523171135515e-06
3.233172529405482e-06
1.0815619170107096e-06
-1.0700568520501254e-06
-3.221668340702502e-06
4.551483698828905e-06
1.5216992517323291e-06
-1.5080597719442292e-06
-4.537843918013732e-06
5.486425945842281e-06
1.833483557414904e-06
-1.8193729367695502e-06
-5.47231535266933e-06
5.906683438338223e-06
1.973171399374325e-06
-1.960177011306531e-06
-5.8936890606138995e-06
5.748895124334025e-06
1.9199302610079054e-06
-1.9088728707167196e-06
-5.737837734202838e-06
5.034963532128586e-06
1.681096915025118e-06
-1.6725311876400812e-06
-5.026397734578004e-06
3.817709204352667e-06
1.2744922403563856e-06
-1.2687043226718278e-06
-3.8119214817013392e-06
2.1302056303491362e-06
7.108461698252559e-07
-7.080504115035175e-07
-2.1274094493017153e-06
-2.6658645282333896e-06
-8.895080413429162e-07
8.862806685791809e-07
2.6626366925099353e-06
-4.8242641524897774e-06
-1.6103583832878436e-06
1.6035146179087443e-06
4.8174206289105135e-06
-6.447386254115791e-06
-2.1524924768794963e-06
2.14208541430275e-06
6.4369790940328845e-06
-7.501278850251191e-06
-2.5049631345016854e-06
2.4911102121660235e-06
7.487425999301137e-06
-7.909597973072701e-06
-2.6420754662239816e-06
2.6251508209725007e-06
7.892673307978489e-06
-7.566903277805029e-06
-2.52854593141945e-06
2.509560663673488e-06
7.547917822863691e-06
-6.428630059061515e-06
-2.1495208493626326e-06
2.1294714241975766e-06
6.408581894437634e-06
-4.634227601280798e-06
-1.550254163856169e-06
1.5336827229197059e-06
4.617652004162659e-06
-2.4192189424000307e-06
-8.103724663625784e-07
7.984796014241967e-07
2.4073331897043196e-06
-1.011198080904324e-15
-3.648704665486965e-16
2.814215369274983e-16
9.273723282354762e-16
2.419218940530585e-06
8.103724656829453e-07
-7.984796009140308e-07
-2.4073331880046277e-06
4.634227599861738e-06
1.5502541633258517e-06
-1.5336827225612716e-06
-4.617652002914926e-06
6.428630058245494e-06
2.149520849016401e-06
-2.12947142407423e-06
-6.408581893843735e-06
7.566903277731429e-06
2.528545931344277e-06
-2.5095606637499462e-06
-7.547917822942091e-06
7.909597973584713e-06
2.642075466344691e-06
-2.6251508212431307e-06
-7.892673308642332e-06
7.501278851159865e-06
2.504963134761079e-06
-2.491110212555902e-06
-7.487426000340162e-06
6.447386255280274e-06
2.152492477234483e-06
-2.1420854147571175e-06
-6.436979095296743e-06
4.824264153619522e-06
1.6103583836410112e-06
-1.6035146183321352e-06
-4.817420630110434e-06
2.6658645289851487e-06
8.89508041583612e-07
-8.862806688492732e-07
-2.662636693291232e-06
-3.1165654745277835e-06
-1.0398565130762367e-06
1.0362041446602644e-06
3.112912615133576e-06
-5.683292941937582e-06
-1.8970580702623582e-06
1.8891413082555134e-06
5.675376437250231e-06
-7.67532499094465e-06
-2.5624363108526636e-06
2.550081954254967e-06
7.66297056699126e-06
-9.065403483512323e-06
-3.027369570415234e-06
3.0103667017543957e-06
9.048400669432344e-06
-9.781673426592424e-06
-3.2676371653790264e-06
3.2460178855209133e-06
9.760053945288488e-06
-9.69396980227788e-06
-3.2398297359293077e-06
3.2138764682320646e-06
9.668017946882053e-06
-8.582664454561376e-06
-2.8698578936767957e-06
2.8425572266950292e-06
8.555358196392173e-06
-6.362792614730404e-06
-2.1311606390044677e-06
2.100397701008158e-06
6.3320471494898e-06
-3.362013401344385e-06
-1.1249719778394055e-06
1.112013421886303e-06
3.349022007432787e-06
-1.3187118416481444e-15
-4.853680120829861e-16
3.4787398800305e-16
1.1817397104277316e-15
3.3620133988326472e-06
1.1249719769156746e-06
-1.1120134212223332e-06
-3.3490220051814456e-06
6.362792612799931e-06
2.1311606382715517e-06
-2.1003977005435664e-06
-6.332047147825499e-06
8.582664453660607e-06
2.869857893288135e-06
-2.842557226571388e-06
-8.555358195757601e-06
9.693969802316532e-06
3.2398297358487523e-06
-3.213876468432011e-06
-9.668017947201427e-06
9.781673427328923e-06
3.2676371655506653e-06
-3.2460178859138493e-06
-9.760053946245679e-06
9.0654034847163e-06
3.0273695707550193e-06
-3.010366702278725e-06
-9.048400670820624e-06
7.675324992383365e-06
2.562436311295483e-06
-2.550081954807884e-06
-7.662970568540202e-06
5.68329294329814e-06
1.8970580706978359e-06
-1.889141308745022e-06
-5.675376438664903e-06
3.1165654754103046e-06
1.0398565133602909e-06
-1.036204144974389e-06
-3.112912616046091e-06
-3.4547548668515734e-06
-1.1526915752427156e-06
1.148667209525217e-06
3.4507299873473956e-06
-6.334492339349379e-06
-2.114446760853257e-06
2.1055654493366593e-06
6.325611279113879e-06
-8.618066946499957e-06
-2.8772803641404896e-06
2.8631017788457497e-06
8.603888429220769e-06
-1.0289417548408024e-05
-3.436399066316996e-06
3.4162913214476467e-06
1.0269309236158178e-05
-1.128848225824216e-05
-3.771638702147122e-06
3.7447673267184508e-06
1.126161319015656e-05
-1.1509663440202202e-05
-3.847713350951025e-06
3.81374781503392e-06
1.1475689771199369e-05
-1.074588411776585e-05
-3.5960113139144163e-06
3.553166029222786e-06
1.0703066577098444e-05
-8.503866828895485e-06
-2.8460198902603033e-06
2.8111792232083273e-06
8.468950078299752e-06
-4.643074403212186e-06
-1.568159851104815e-06
1.5069144534737431e-06
4.581966681380562e-06
-1.6819305387245902e-15
-6.238764328336097e-16
4.340624674586558e-16
1.4920652878230349e-15
4.643074400060447e-06
1.5681598499449356e-06
-1.5069144526415832e-06
-4.581966678556013e-06
8.503866826597626e-06
2.8460198893985925e-06
-2.8111792226343363e-06
-8.468950076288991e-06
1.0745884116790601e-05
3.596011313490164e-06
-3.5531660290960633e-06
-1.070306657642128e-05
1.1509663440377552e-05
3.847713350889444e-06
-3.8137478153321906e-06
-1.1475689771733413e-05
1.1288482259230528e-05
3.771638702355824e-06
-3.744767327289569e-06
-1.1261613191507227e-05
1.0289417549915307e-05
3.43639906674673e-06
-3.4162913220952356e-06
-1.0269309237883592e-05
8.61806694818267e-06
2.877280364651253e-06
-2.863101779506905e-06
-8.6038884310537e-06
6.334492340881519e-06
2.114446761337999e-06
-2.105565449899149e-06
-6.3256112807237095e-06
3.4547548678201907e-06
1.1526915755558476e-06
-1.1486672098672587e-06
-3.4507299883450086e-06
-3.6635028337275168e-06
-1.2223493705656855e-06
1.2180667041016213e-06
3.659219545290423e-06
-6.739149390763602e-06
-2.249562406481925e-06
2.239994192482359e-06
6.729581795640718e-06
-9.208506115232102e-06
-3.07452880140774e-06
3.059026317912961e-06
9.19300240243148e-06
-1.1063667819627244e-05
-3.6952934261804507e-06
3.672737352866256e-06
1.1041115747324131e-05
-1.2262311295429975e-05
-4.097619281142923e-06
4.066622541229602e-06
1.2231300977074774e-05
-1.271392093620649e-05
-4.252192293492125e-06
4.2089695093001835e-06
1.2670742221777839e-05
-1.226557412093591e-05
-4.1066930320700565e-06
4.051592181878656e-06
1.2210338832153604e-05
-1.0661073448588315e-05
-3.5853673161595933e-06
3.4890469704613694e-06
1.0565115163656756e-05
-6.5746751590255975e-06
-2.1920763208883235e-06
2.1893676087373295e-06
6.571313730992359e-06
-2.116347031100994e-15
-7.744937843863016e-16
5.671899065773501e-16
1.9101049187236877e-15
6.574675155322024e-06
2.1920763195299812e-06
-2.1893676077510574e-06
-6.5713137276598815e-06
1.0661073446116983e-05
3.5853673151926887e-06
-3.4890469699240117e-06
-1.056511516161213e-05
1.2265574119937433e-05
4.106693031587494e-06
-4.051592181845356e-06
-1.2210338831606744e-05
1.2713920936585555e-05
4.252192293480703e-06
-4.2089695097019854e-06
-1.2670742222568344e-05
1.2262311296735385e-05
4.097619281478251e-06
-4.066622541863934e-06
-1.223130097867963e-05
1.106366782134809e-05
3.6952934266789677e-06
-3.6727373535901387e-06
-1.1041115749269393e-05
9.208506117088798e-06
3.0745288019818206e-06
-3.059026318621041e-06
-9.19300240442243e-06
6.7391493923631866e-06
2.249562406982132e-06
-2.239994193081525e-06
-6.729581797339139e-06
3.6635028347177715e-06
1.2223493708827628e-06
-1.2180667044573785e-06
-3.6592195463192908e-06
-3.7339983287795422e-06
-1.2458759545493212e-06
1.2414979717634692e-06
3.7296200852014576e-06
-6.876194296888521e-06
-2.2953249537661714e-06
2.285516091559438e-06
6.866384613335704e-06
-9.409265869024053e-06
-3.14162363647663e-06
3.125588569472109e-06
9.39323479382041e-06
-1.132861672735108e-05
-3.7838595849810363e-06
3.7605574132798826e-06
1.1305300164047354e-05
-1.2595269569990208e-05
-4.209428141417957e-06
4.175930614432427e-06
1.2561821156417693e-05
-1.3140895665402567e-05
-4.394638076081417e-06
4.351149387870733e-06
1.3097245770310014e-05
-1.2820828885161367e-05
-4.299786322246717e-06
4.2202775059510995e-06
1.2741811998056158e-05
-1.1314656323234298e-05
-3.7910925869519223e-06
3.7322835194005723e-06
1.1254505238695298e-05
-8.777564813629976e-06
-3.0953760988904086e-06
2.5826938145485547e-06
8.267500277197524e-06
-2.310027491480301e-15
-8.145493791920829e-16
6.806233448615826e-16
2.1783518999035634e-15
8.777564809625928e-06
3.0953760974559854e-06
-2.5826938134137393e-06
-8.267500273496464e-06
1.1314656320881354e-05
3.7910925860459007e-06
-3.7322835188598824e-06
-1.1254505236707954e-05
1.2820828884468294e-05
4.299786321877875e-06
-4.220277505995503e-06
-1.2741811997776268e-05
1.314089566593434e-05
4.394638076150698e-06
-4.351149388263797e-06
-1.30972457711648e-05
1.2595269571416386e-05
4.2094281418074666e-06
-4.175930615079267e-06
-1.2561821158102264e-05
1.1328616729151574e-05
3.7838595855037175e-06
-3.7605574140348524e-06
-1.1305300166079275e-05
9.409265870833634e-06
3.1416236370143405e-06
-3.125588570206256e-06
-9.393234795826529e-06
6.8761942984469375e-06
2.2953249542486643e-06
-2.285516092152741e-06
-6.866384615004707e-06
3.733998329726596e-06
1.2458759548497551e-06
-1.2414979721094093e-06
-3.7296200861940824e-06
-3.6635028337784743e-06
-1.2223493705829284e-06
1.2180667041180535e-06
3.6592195453405633e-06
-6.739149390833112e-06
-2.249562406501845e-06
2.23999419251206e-06
6.729581795720052e-06
-9.208506115317911e-06
-3.0745288014295725e-06
3.0590263179549982e-06
9.19300240253749e-06
-1.1063667819663517e-05
-3.695293426185242e-06
3.6727373528929586e-06
1.104111574738123e-05
-1.2262311295389557e-05
-4.097619281127482e-06
4.0666225412200165e-06
1.2231300977040622e-05
-1.2713920936104322e-05
-4.2521922934574855e-06
4.208969509267305e-06
1.2670742221675599e-05
-1.226557412084222e-05
-4.106693032036079e-06
4.0515921818530145e-06
1.2210338832069339e-05
-1.0661073448617404e-05
-3.5853673161549274e-06
3.489046970499791e-06
1.056511516372814e-05
-6.574675159101599e-06
-2.1920763208865206e-06
2.1893676088170365e-06
6.571313731149012e-06
-2.21537347684719e-15
-7.756850268844951e-16
6.636320254798081e-16
2.102680517494706e-15
6.574675155406794e-06
2.1920763195907817e-06
-2.1893676077140645e-06
-6.571313727649953e-06
1.066107344645439e-05
3.585367315356208e-06
-3.4890469699343108e-06
-1.0565115161798437e-05
1.226557412030665e-05
4.1066930317685204e-06
-4.051592181852139e-06
-1.2210338831799188e-05
1.2713920936745093e-05
4.252192293571889e-06
-4.2089695096791155e-06
-1.2670742222614193e-05
1.2262311296719263e-05
4.097619281485948e-06
-4.066622541832739e-06
-1.2231300978624553e-05
1.1063667821327498e-05
3.6952934266726747e-06
-3.6727373535820013e-06
-1.1041115749247228e-05
9.208506116997303e-06
3.0745288019428507e-06
-3.059026318607628e-06
-9.193002404356089e-06
6.739149392267037e-06
2.2495624069479487e-06
-2.239994193053717e-06
-6.729581797249295e-06
3.66350283463186e-06
1.2223493708518611e-06
-1.2180667044333482e-06
-3.659219546240305e-06
-3.4547548669331024e-06
-1.1526915752686996e-06
1.1486672095547395e-06
3.450729987432492e-06
-6.334492339481317e-06
-2.1144467608942455e-06
2.105565449386615e-06
6.32561127925464e-06
-8.618066946630366e-06
-2.8772803641777082e-06
2.8631017789016315e-06
8.603888429370096e-06
-1.0289417548474221e-05
-3.4363990663276557e-06
3.4162913214924742e-06
1.0269309236259027e-05
-1.1288482258122087e-05
-3.7716387020783353e-06
3.7447673267360458e-06
1.1261613190123046e-05
-1.1509663439916202e-05
-3.847713350834085e-06
3.813747814981994e-06
1.1475689770977712e-05
-1.0745884117656554e-05
-3.596011313859901e-06
3.5531660292225656e-06
1.0703066577043567e-05
-8.50386682902321e-06
-2.846019890264717e-06
2.811179223327262e-06
8.468950078543454e-06
-4.643074403379761e-06
-1.5681598511276252e-06
1.5069144535955844e-06
4.581966681645721e-06
-1.8211434486127656e-15
-6.516653025671866e-16
5.173529429730765e-16
1.6868830551158842e-15
4.643074400286782e-06
1.568159850058774e-06
-1.5069144526403688e-06
-4.581966678665232e-06
8.503866827119632e-06
2.846019889630043e-06
-2.8111792226929306e-06
-8.468950076638275e-06
1.0745884117186018e-05
3.596011313665058e-06
-3.5531660291417692e-06
-1.0703066576688643e-05
1.1509663440620183e-05
3.847713351036296e-06
-3.8137478152811352e-06
-1.1475689771779266e-05
1.1288482259331474e-05
3.771638702450022e-06
-3.744767327201885e-06
-1.1261613191425375e-05
1.0289417549886684e-05
3.4363990667492566e-06
-3.41629132206165e-06
-1.0269309237819406e-05
8.6180669480715e-06
2.877280364618635e-06
-2.8631017794609028e-06
-8.60388843092881e-06
6.334492340713166e-06
2.1144467612812752e-06
-2.105565449844284e-06
-6.325611280557407e-06
3.4547548676831675e-06
1.1526915755082522e-06
-1.148667209825523e-06
-3.450729988213746e-06
-3.1165654746218444e-06
-1.0398565131081747e-06
1.0362041446904478e-06
3.1129126152258783e-06
-5.683292942093807e-06
-1.8970580703152436e-06
1.8891413083058953e-06
5.6753764374040244e-06
-7.675324991100732e-06
-2.562436310904906e-06
2.5500819543065704e-06
7.662970567147065e-06
-9.0654034835866e-06
-3.0273695704337914e-06
3.0103667017914555e-06
9.048400669524657e-06
-9.781673426481246e-06
-3.2676371653292297e-06
3.2460178855091705e-06
9.760053945214887e-06
-9.693969802014258e-06
-3.23982973583181e-06
3.2138764681637044e-06
9.668017946647733e-06
-8.582664454407525e-06
-2.8698578936093283e-06
2.842557226676244e-06
8.555358196288989e-06
-6.362792614882665e-06
-2.131160639024682e-06
2.100397701119708e-06
6.332047149731283e-06
-3.3620134016275523e-06
-1.1249719779095577e-06
1.1120134220289265e-06
3.349022007789032e-06
-1.2597849756182595e-15
-4.230477069328192e-16
4.1385429869380404e-16
1.2506814160706536e-15
3.3620133992496394e-06
1.1249719770987333e-06
-1.1120134212730283e-06
-3.349022005466214e-06
6.362792613270979e-06
2.1311606384856266e-06
-2.100397700586448e-06
-6.332047148124982e-06
8.582664453965822e-06
2.8698578934557786e-06
-2.8425572265414456e-06
-8.55535819586582e-06
9.693969802496088e-06
3.2398297359662137e-06
-3.2138764683764215e-06
-9.668017947208179e-06
9.781673427440622e-06
3.267637165613873e-06
-3.2460178858992855e-06
-9.760053946280477e-06
9.065403484708598e-06
3.027369570773679e-06
-3.01036670223368e-06
-9.048400670748795e-06
7.675324992253114e-06
2.562436311268045e-06
-2.5500819547325267e-06
-7.662970568362491e-06
5.683292943111324e-06
1.8970580706393783e-06
-1.8891413086751862e-06
-5.675376438466569e-06
3.1165654752603247e-06
1.0398565133136011e-06
-1.0362041449178287e-06
-3.1129126158863937e-06
-2.665864528315388e-06
-8.895080413705812e-07
8.862806686058082e-07
2.6626366925908887e-06
-4.824264152624273e-06
-1.6103583833343747e-06
1.6035146179502036e-06
4.817420629039921e-06
-6.447386254266266e-06
-2.1524924769300138e-06
2.1420854143521442e-06
6.43697909418237e-06
-7.501278850340982e-06
-2.5049631345278104e-06
2.4911102122035314e-06
7.487425999402056e-06
-7.909597973035617e-06
-2.6420754662008703e-06
2.6251508209817e-06
7.892673307974653e-06
-7.566903277636423e-06
-2.528545931348857e-06
2.5095606636460365e-06
7.5479178227398535e-06
-6.4286300589094925e-06
-2.149520849297583e-06
2.129471424175913e-06
6.408581894326137e-06
-4.634227601374088e-06
-1.5502541638933198e-06
1.5336827229384696e-06
4.617652004238757e-06
-2.4192189425407644e-06
-8.103724664115316e-07
7.984796014667487e-07
2.4073331898382795e-06
-8.965661184823651e-16
-3.099638762745238e-16
2.7662916989600173e-16
8.630520343527737e-16
2.4192189408865154e-06
8.103724658369413e-07
-7.984796009619074e-07
-2.4073331882540658e-06
4.634227600185134e-06
1.550254163468333e-06
-1.5336827225995719e-06
-4.617652003135826e-06
6.428630058460881e-06
2.1495208491355202e-06
-2.1294714240513135e-06
-6.40858189391555e-06
7.56690327785884e-06
2.5285459314125795e-06
-2.5095606637410075e-06
-7.547917822993293e-06
7.90959797368309e-06
2.642075466397482e-06
-2.625150821235784e-06
-7.8926733086799e-06
7.5012788511710965e-06
2.5049631347863045e-06
-2.491110212516635e-06
-7.487426000286751e-06
6.447386255138137e-06
2.15249247720061e-06
-2.142085414682822e-06
-6.436979095114401e-06
4.8242641534244884e-06
1.610358383586982e-06
-1.6035146182451077e-06
-4.8174206298822145e-06
2.6658645288268454e-06
8.895080415327508e-07
-8.862806687928093e-07
-2.6626366931272364e-06
-2.1302056298146872e-06
-7.108461696545667e-07
7.08050411310661e-07
2.127409448745147e-06
-3.817709203572171e-06
-1.2744922401122702e-06
1.2687043223796027e-06
3.8119214808727064e-06
-5.034963531354015e-06
-1.6810969147881463e-06
1.6725311873395158e-06
5.026397733739514e-06
-5.748895123754273e-06
-1.9199302608357125e-06
1.908872870481409e-06
5.737837733560564e-06
-5.906683438109099e-06
-1.973171399322588e-06
1.9601770111808907e-06
5.89368906031097e-06
-5.48642594605412e-06
-1.8334835575240748e-06
1.819372936762869e-06
5.472315352765874e-06
-4.551483699449356e-06
-1.5216992519905073e-06
1.5080597720483732e-06
4.537843918480732e-06
-3.233172530398088e-06
-1.081561917405924e-06
1.0700568522523037e-06
3.2216683415022734e-06
-1.6723560344273364e-06
-5.595235239175662e-07
5.53321537102219e-07
1.66615231816233e-06
-5.328176994394349e-16
-1.814381489010994e-16
1.699611561088612e-16
5.213521671668109e-16
1.6723560334412668e-06
5.595235235678032e-07
-5.533215368156406e-07
-1.6661523172383652e-06
3.2331725296305864e-06
1.08156191711799e-06
-1.0700568520605716e-06
-3.221668340830868e-06
4.551483698994936e-06
1.521699251811204e-06
-1.5080597719527557e-06
-4.537843918109677e-06
5.486425946028784e-06
1.833483557509008e-06
-1.8193729367675984e-06
-5.472315352760262e-06
5.906683438437015e-06
1.9731713994184132e-06
-1.9601770113171376e-06
-5.893689060679168e-06
5.748895124286119e-06
1.9199302609924665e-06
-1.908872870699754e-06
-5.737837734153836e-06
5.034963531982243e-06
1.6810969149806773e-06
-1.6725311875826268e-06
-5.026397734418303e-06
3.817709204166698e-06
1.2744922402973167e-06
-1.2687043226040722e-06
-3.8119214815066606e-06
2.1302056302121905e-06
7.108461697809723e-07
-7.08050411455183e-07
-2.127409449160769e-06
-1.5500562278178348e-06
-5.173657987001921e-07
5.149867738125196e-07
1.547676816879169e-06
-2.7470029558079732e-06
-9.172687171660251e-07
9.124678184879903e-07
2.7422022207227404e-06
-3.5676486015635822e-06
-1.1914729414010027e-06
1.1845596789008211e-06
3.5607352534936334e-06
-3.992095457374357e-06
-1.333565651429686e-06
1.3249008167278198e-06
3.983430632651255e-06
-4.00877715550405e-06
-1.3395379579310887e-06
1.3296582777492581e-06
3.998897443498616e-06
-3.6480697848617268e-06
-1.219455378106983e-06
1.2091646077080717e-06
3.6377789923986333e-06
-2.9813875044758084e-06
-9.97024035062822e-07
9.873683233696192e-07
2.971731825719005e-06
-2.0966540223541606e-06
-7.014196649282157e-07
6.938502194647143e-07
2.0890843245676463e-06
-1.0791361617981907e-06
-3.611587392095493e-07
3.5684122939729924e-07
1.0748190066891858e-06
-2.4432303492711817e-16
-1.0107493611754026e-16
4.2190497467521645e-17
1.8501924259612638e-16
1.0791361612905352e-06
3.6115873901139505e-07
-3.5684122928587094e-07
-1.0748190062678513e-06
2.096654021873609e-06
7.014196647487565e-07
-6.938502193430694e-07
-2.0890843241452817e-06
2.981387504099167e-06
9.970240349119691e-07
-9.873683232946532e-07
-2.9717318254182094e-06
3.6480697846571937e-06
1.2194553780056872e-06
-1.2091646077063012e-06
-3.6377789922936894e-06
4.008777155573804e-06
1.3395379579293078e-06
-1.329658277822632e-06
-3.998897443643486e-06
3.99209545767456e-06
1.3335656515158643e-06
-1.3249008168556083e-06
-3.98343063299316e-06
3.567648601983137e-06
1.1914729415302796e-06
-1.184559679061833e-06
-3.5607352539449605e-06
2.747002956239124e-06
9.172687173046548e-07
-9.124678186418188e-07
-2.742202221169053e-06
1.5500562281055382e-06
5.173657987944965e-07
-5.149867739115281e-07
-1.5476768171715999e-06
-9.793276826138e-07
-3.2703335466615385e-07
3.2506259576450294e-07
9.773565747294844e-07
-1.7153164183514665e-06
-5.730736682872773e-07
5.692095296548806e-07
1.7114524024094337e-06
-2.1928688305821035e-06
-7.327464544347745e-07
7.273432414205001e-07
2.1874655320529706e-06
-2.4088989822913076e-06
-8.051730726035111e-07
7.985873926162281e-07
2.4023132879576845e-06
-2.3760922867304577e-06
-7.944794048615698e-07
7.871836966827604e-07
2.3687965452568582e-06
-2.1307040528231615e-06
-7.127233468272407e-07
7.053286515510538e-07
2.123309328334963e-06
-1.7223143400117165e-06
-5.763644625187574e-07
5.696571047366506e-07
1.7156069365859017e-06
-1.2026223407686755e-06
-4.0261857574518015e-07
3.97443002719293e-07
1.1974467903674622e-06
-6.164836313194096e-07
-2.0644120741737712e-07
2.0363302300604118e-07
6.136753413031395e-07
-9.038678084650382e-17
-4.8034651899289756e-17
-5.5762782785218734e-18
3.684847430440383e-17
6.164836310940327e-07
2.0644120730585243e-07
-2.036330230037013e-07
-6.136753411871235e-07
1.2026223404985743e-06
4.026185756255661e-07
-3.974430026884741e-07
-1.1974467901862103e-06
1.7223143397562734e-06
5.763644624120132e-07
-5.696571046947083e-07
-1.7156069363952051e-06
2.1307040526192125e-06
7.127233467360137e-07
-7.053286515296255e-07
-2.1233093282008777e-06
2.376092286673993e-06
7.944794048275469e-07
-7.87183696694374e-07
-2.3687965452460505e-06
2.4088989824281606e-06
8.051730726419526e-07
-7.985873926762083e-07
-2.40231328811609e-06
2.192868830837431e-06
7.327464545159285e-07
-7.273432415134626e-07
-2.1874655323200985e-06
1.7153164186181652e-06
5.730736683728536e-07
-5.692095297504439e-07
-1.7114524026861348e-06
9.793276827958363e-07
3.2703335472478055e-07
-3.2506259582922267e-07
-9.773565749176253e-07
-4.82992969825489e-07
-1.6148606502417688e-07
1.5994757705783303e-07
4.814541858500869e-07
-8.372499184668948e-07
-2.800707511467818e-07
2.771757482882037e-07
8.343549979342792e-07
-1.0551370683831571e-06
-3.5302865617900636e-07
3.491284760945549e-07
1.0512368040299569e-06
-1.1413270003252734e-06
-3.8201278986596236e-07
3.7739308461439734e-07
1.1367072706364736e-06
-1.1100258976631004e-06
-3.7170814091273604e-07
3.6670887062515654e-07
1.1050265845152377e-06
-9.838928773654245e-07
-3.296505552237515e-07
3.2469391247763725e-07
9.789361997339979e-07
-7.884447155769623e-07
-2.643162887376331e-07
2.5990116127637835e-07
7.840295580698166e-07
-5.473282938425467e-07
-1.8357715901727563e-07
1.8023970369712705e-07
5.439908006215641e-07
-2.7964058489906616e-07
-9.3828219168336e-08
9.201886970854064e-08
2.778312409374452e-07
-3.4836284840495745e-17
-2.928070877407728e-17
-2.3741231895895587e-17
-1.823386649730651e-17
2.796405848171671e-07
9.382821911173602e-08
-9.201886973976141e-08
-2.7783124094338797e-07
5.473282937259092e-07
1.8357715895465965e-07
-1.802397037057075e-07
-5.43990800576046e-07
7.88444715445457e-07
2.6431628867973087e-07
-2.5990116126067695e-07
-7.840295579804574e-07
9.838928772479377e-07
3.296505551760567e-07
-3.2469391245555135e-07
-9.789361996421219e-07
1.1100258976014993e-06
3.717081408848135e-07
-3.6670887061944193e-07
-1.1050265844758585e-06
1.1413270003600744e-06
3.8201278987411087e-07
-3.773930846329139e-07
-1.1367072706816842e-06
1.0551370684957793e-06
3.5302865621538356e-07
-3.4912847613442723e-07
-1.0512368041460542e-06
8.372499186010833e-07
2.800707511915928e-07
-2.771757483327569e-07
-8.343549980682071e-07
4.829929699191376e-07
1.6148606505505787e-07
-1.599475770896932e-07
-4.814541859447201e-07
-1.332840328434962e-07
-4.478140620283711e-08
4.378459239825188e-08
1.3228690613934605e-07
-2.2951403076653414e-07
-7.712520918187092e-08
7.5425237815128e-08
2.2781408468252625e-07
-2.856977221277122e-07
-9.602347510545357e-08
9.384440579770445e-08
2.83518543456671e-07
-3.050666486491355e-07
-1.0259906065353666e-07
1.0008726272764018e-07
3.02554793715096e-07
-2.9323807228679587e-07
-9.870715758688058e-08
9.603793086499543e-08
2.9056877511228675e-07
-2.5740283520465595e-07
-8.673582111886828e-08
8.412374295009337e-08
2.5479069392219663e-07
-2.0475633749296213e-07
-6.907092919324836e-08
6.676997484439075e-08
2.0245532508745833e-07
-1.4141907913501875e-07
-4.77518197799683e-08
4.6024087513263724e-08
1.3969130573244953e-07
-7.204195758148363e-08
-2.4341891645158833e-08
2.341386342626059e-08
7.111390082436827e-08
-1.316125545257046e-17
-1.527581068150287e-17
-1.7379611051430208e-17
-1.9471222814567432e-17
7.204195755175053e-08
2.4341891616630657e-08
-2.3413863453575615e-08
-7.111390085048891e-08
1.4141907910149813e-07
4.775181975783525e-08
-4.602408752399781e-08
-1.3969130573178885e-07
2.0475633745654535e-07
6.907092917520575e-08
-6.676997484403472e-08
-2.0245532506871667e-07
2.5740283516732196e-07
8.673582110258735e-08
-8.412374294530802e-08
-2.5479069389637907e-07
2.9323807226273834e-07
9.870715757697711e-08
-9.603793086074358e-08
-2.9056877509387046e-07
3.0506664865033647e-07
1.0259906065315696e-07
-1.0008726272960768e-07
-3.02554793718644e-07
2.8569772215450084e-07
9.602347511466007e-08
-9.384440580609724e-08
-2.8351854348264816e-07
2.295140308046609e-07
7.712520919512822e-08
-7.542523782676259e-08
-2.2781408471902786e-07
1.3328403287092057e-07
4.4781406212234024e-08
-4.3784592406889766e-08
-1.322869061660135e-07
SCALARS disp_z float
LOOKUP_TABLE default
0.0
0.0
0.0
0.0
0.0
0.0
0.0
0.0
0.0
0.0
0.0
0.0
0.0
0.0
0.0
0.0
0.0
0.0
0.0
0.0
0.0
0.0
0.0
0.0
0.0
0.0
0.0
0.0
0.0
0.0
0.0
0.0
0.0
0.0
0.0
0.0
0.0
0.0
0.0
0.0
0.0
0.0
0.0
0.0
0.0
0.0
0.0
0.0
0.0
0.0
0.0
0.0
0.0
0.0
0.0
0.0
0.0
0.0
0.0
0.0
0.0
0.0
0.0
0.0
0.0
0.0
0.0
0.0
0.0
0.0
0.0
0.0
0.0
0.0
0.0
0.0
0.0
0.0
0.0
0.0
0.0
0.0
0.0
0.0
0.0
0.0
0.0
0.0
0.0
0.0
0.0
0.0
0.0
0.0
0.0
0.0
0.0
0.0
0.0
0.0
0.0
0.0
0.0
0.0
0.0
0.0
0.0
0.0
0.0
0.0
0.0
0.0
0.0
0.0
0.0
0.0
0.0
0.0
0.0
0.0
0.0
0.0
0.0
0.0
0.0
0.0
0.0
0.0
0.0
0.0
0.0
0.0
0.0
0.0
0.0
0.0
0.0
0.0
0.0
0.0
0.0
0.0
0.0
0.0
0.0
0.0
0.0
0.0
0.0
0.0
0.0
0.0
0.0
0.0
0.0
0.0
0.0
0.0
0.0
0.0
0.0
0.0
0.0
0.0
0.0
0.0
0.0
0.0
0.0
0.0
0.0
0.0
0.0
0.0
0.0
0.0
-2.300711825070594e-06
-8.403436365482723e-06
-1.7017324060727366e-05
-2.6861706792383276e-05
-3.680647485194624e-05
-4.593853029795033e-05
-5.358826559098527e-05
-5.930911798962327e-05
-6.283273958628227e-05
-6.402128166303894e-05
-6.283273958757239e-05
-5.930911799218783e-05
-5.358826559494691e-05
-4.593853030298022e-05
-3.680647485729074e-05
-2.6861706797159973e-05
-1.7017324064232005e-05
-8.40343636741254e-06
-2.3007118256428394e-06
-8.403436365200998e-06
-3.0739008790682244e-05
-6.258778764938894e-05
-9.94568710955762e-05
-0.00013717091739256395
-0.00017218574970620488
-0.00020177573150117985
-0.00022404845535976234
-0.00023782439320422873
-0.00024248060051478568
-0.00023782439320970707
-0.00022404845537069007
-0.0002017757315174338
-0.00017218574972621022
-0.00013717091741352185
-9.945687111414824e-05
-6.258778766288571e-05
-3.073900879806827e-05
-8.40343636740482e-06
-1.701732405951952e-05
-6.258778764708373e-05
-0.00012838017854156376
-0.0002057001949089091
-0.00028597720146135436
-0.0003614760128772402
-0.0004259330481154933
-0.00047480273990449414
-0.0005051705903020849
-0.0005154561235214421
-0.0005051705903148286
-0.0004748027399303443
-0.00042593304815233816
-0.0003614760129215801
-0.00028597720150711024
-0.00020570019494887357
-0.00012838017857047933
-6.258778766290074e-05
-1.701732406422103e-05
-2.6861706789484503e-05
-9.945687108816492e-05
-0.00020570019490095815
-0.000332728180500526
-0.00046706414557085447
-0.0005954832380610859
-0.0007065310875886527
-0.0007914912604670538
-0.0008445688071977696
-0.0008625993770113468
-0.0008445688072225296
-0.0007914912605148215
-0.0007065310876545839
-0.0005954832381378289
-0.0004670641456483227
-0.00033272818056735286
-0.0002057001949491634
-9.945687111438403e-05
-2.6861706797243372e-05
-3.6806474846645877e-05
-0.00013717091737717798
-0.00028597720143939335
-0.0004670641455523979
-0.000662789478235959
-0.0008540755104557921
-0.0010224203922768818
-0.0011528193426210782
-0.0012349030197512634
-0.0012628631014912832
-0.0012349030197930189
-0.0011528193426995521
-0.001022420392380965
-0.0008540755105727477
-0.0006627894783491337
-0.0004670641456487932
-0.0002859772015081199
-0.0001371709174143287
-3.6806474857601096e-05
-4.593853028969961e-05
-0.00017218574968088152
-0.0003614760128362267
-0.0005954832380148265
-0.0008540755104224886
-0.0011140425116422635
-0.001349200189085953
-0.00153475454349234
-0.0016529532776631338
-0.0016934124120760346
-0.0016529532777260815
-0.0015347545436080576
-0.0013492001892358202
-0.0011140425118041195
-0.0008540755105735224
-0.0005954832381397222
-0.0003614760129239465
-0.0001721857497279939
-4.593853030358704e-05
-5.35882655797209e-05
-0.00020177573146480638
-0.00042593304805233563
-0.0007065310875081282
-0.0010224203921983751
-0.00134920018903473
-0.0016566961727478497
-0.0019083310491974403
-0.0020713680196575764
-0.0021280171729103478
-0.0020713680197396093
-0.0019083310493511246
-0.0016566961729448265
-0.0013492001892405174
-0.0010224203923864896
-0.0007065310876598288
-0.0004259330481567849
-0.00020177573152023286
-5.358826559585926e-05
-5.930911797579551e-05
-0.00022404845531352933
-0.000474802739820512
-0.000791491260351846
-0.0011528193424929617
-0.0015347545433794002
-0.0019083310491288473
-0.0022337524347272363
-0.002456202730498929
-0.002533058510926843
-0.002456202730602688
-0.0022337524349193586
-0.0019083310493708417
-0.0015347545436282257
-0.0011528193427152902
-0.0007914912605267353
-0.00047480273993840945
-0.0002240484553748015
-5.930911799333394e-05
-6.283273957092255e-05
-0.00023782439315161443
-0.0005051705902027148
-0.0008445688070550163
-0.0012349030195819663
-0.0016529532774938668
-0.0020713680195183657
-0.002456202730419426
-0.0027527305583958353
-0.0028667529571310395
-0.002752730558524502
-0.0024562027306457277
-0.0020713680197951027
-0.001652953277773165
-0.0012349030198250091
-0.0008445688072426395
-0.0005051705903266545
-0.00023782439321493035
-6.283273958890715e-05
-6.402128164717981e-05
-0.0002424806004594203
-0.0005154561234151054
-0.0008625993768546181
-0.0012628631012961376
-0.001693412411868459
-0.0021280171727198513
-0.0025330585107801776
-0.0028667529570540694
-0.0030389911854329463
-0.0028667529571967595
-0.0025330585110257446
-0.0021280171730072516
-0.001693412412151935
-0.0012628631015407553
-0.0008625993770398489
-0.0005154561235359686
-0.00024248060052056253
-6.402128166427161e-05
-6.28327395718306e-05
-0.00023782439315469736
-0.0005051705902085582
-0.0008445688070637356
-0.0012349030195905636
-0.0016529532775003226
-0.002071368019521048
-0.0024562027304212957
-0.0027527305584010716
-0.0028667529571402904
-0.0027527305585372096
-0.0024562027306521427
-0.0020713680197926173
-0.0016529532777629084
-0.0012349030198152207
-0.0008445688072331204
-0.000505170590319079
-0.00023782439321020735
-6.283273958725744e-05
-5.9309117977244785e-05
-0.00022404845531875955
-0.000474802739830515
-0.0007914912603657431
-0.0011528193425073886
-0.0015347545433879789
-0.0019083310491301497
-0.002233752434731385
-0.002456202730510009
-0.0025330585109445583
-0.0024562027306218336
-0.0022337524349265872
-0.00190833104936496
-0.001534754543614285
-0.001152819342699226
-0.0007914912605112607
-0.0004748027399256236
-0.0002240484553669493
-5.930911799081063e-05
-5.358826558133765e-05
-0.00020177573147068213
-0.00042593304806362744
-0.0007065310875235933
-0.0010224203922141065
-0.0013492001890442506
-0.001656696172749982
-0.0019083310492005988
-0.0020713680196706805
-0.0021280171729300846
-0.0020713680197525807
-0.0019083310493509433
-0.0016566961729344127
-0.0013492001892258557
-0.001022420392368843
-0.0007065310876413286
-0.0004259330481418009
-0.00020177573151118204
-5.358826559288107e-05
-4.5938530291185834e-05
-0.00017218574968597957
-0.0003614760128461531
-0.0005954832380291331
-0.0008540755104381089
-0.0011140425116550608
-0.0013492001890933257
-0.0015347545434985783
-0.0016529532776743622
-0.0016934124120883986
-0.0016529532777314919
-0.001534754543602895
-0.0013492001892241939
-0.0011140425117885588
-0.0008540755105556242
-0.0005954832381203564
-0.00036147601290800464
-0.00017218574971844847
-4.5938530300656665e-05
-3.680647484771115e-05
-0.0001371709173810643
-0.00028597720144740897
-0.00046706414556392246
-0.0006627894782493137
-0.0008540755104709784
-0.0010224203922911145
-0.0011528193426336099
-0.0012349030197614705
-0.0012628631014979788
-0.0012349030197955034
-0.0011528193426957316
-0.0010224203923722942
-0.0008540755105596277
-0.0006627894783319019
-0.00046706414563100904
-0.00028597720149385245
-0.0001371709174060117
-3.6806474855059414e-05
-2.686170679011491e-05
-9.945687109068231e-05
-0.00020570019490618655
-0.0003327281805086951
-0.000467064145582312
-0.0005954832380759853
-0.0007065310876052755
-0.0007914912604831039
-0.0008445688072098174
-0.0008625993770184229
-0.0008445688072244951
-0.0007914912605135055
-0.0007065310876489554
-0.0005954832381281971
-0.0004670641456354881
-0.00033272818055430454
-0.00020570019493905702
-9.945687110848613e-05
-2.6861706795399354e-05
-1.7017324059796904e-05
-6.258778764827141e-05
-0.0001283801785443375
-0.0002057001949140278
-0.000285977201470137
-0.0003614760128900584
-0.00042593304813034165
-0.00047480273991908745
-0.0005051705903143449
-0.0005154561235298211
-0.0005051705903190395
-0.0004748027399305712
-0.00042593304814944545
-0.00036147601291585063
-0.000285977201499636
-0.0002057001949415797
-0.000128380178564747
-6.258778765953891e-05
-1.701732406316281e-05
-8.403436365248093e-06
-3.073900879098587e-05
-6.258778765045407e-05
-9.945687109824508e-05
-0.00013717091739766558
-0.000172185749713879
-0.00020177573151018645
-0.00022404845536886083
-0.00023782439321268965
-0.00024248060052133163
-0.0002378243932134728
-0.00022404845537161172
-0.00020177573151620968
-0.00017218574972360085
-0.00013717091741013851
-9.945687111094608e-05
-6.258778766044939e-05
-3.073900879667024e-05
-8.403436366964526e-06
-2.3007118250566875e-06
-8.403436365494202e-06
-1.7017324060928936e-05
-2.686170679314717e-05
-3.680647485354164e-05
-4.5938530300316544e-05
-5.3588265593797995e-05
-5.930911799257243e-05
-6.283273958919861e-05
-6.402128166551436e-05
-6.283273958907414e-05
-5.9309117992765966e-05
-5.358826559475109e-05
-4.593853030226512e-05
-3.6806474856433315e-05
-2.686170679636246e-05
-1.7017324063663247e-05
-8.403436367105834e-06
-2.3007118255490847e-06
-2.300662501454347e-06
-8.403385046289928e-06
-1.701726147681654e-05
-2.6861635826483985e-05
-3.680639527872948e-05
-4.593844255058944e-05
-5.358817012336324e-05
-5.930901620377057e-05
-6.283263361550612e-05
-6.402117348885307e-05
-6.283263361679621e-05
-5.930901620633487e-05
-5.358817012732491e-05
-4.5938442555619355e-05
-3.680639528407388e-05
-2.6861635831260692e-05
-1.7017261480321292e-05
-8.403385048219894e-06
-2.3006625020267323e-06
-8.403385046008204e-06
-3.0738962730578014e-05
-6.258773438279668e-05
-9.945681332914715e-05
-0.00013717085479958516
-0.00017218568231895523
-0.00020177566007209254
-0.00022404837992885806
-0.00023782431449853844
-0.00024248052417432043
-0.00023782431450401694
-0.00022404837993978568
-0.00020177566008834597
-0.00017218568233895955
-0.00013717085482054347
-9.945681334771907e-05
-6.258773439629352e-05
-3.07389627379644e-05
-8.403385048212226e-06
-1.7017261475608692e-05
-6.258773438049152e-05
-0.0001283801185054942
-0.0002057001318003929
-0.0002859771341201905
-0.0003614759423937742
-0.0004259329726124338
-0.00047480266154756177
-0.0005051705121720226
-0.0005154560290450779
-0.0005051705121847654
-0.0004748026615734129
-0.0004259329726492796
-0.0003614759424381146
-0.0002859771341659473
-0.00020570013184035798
-0.00012838011853441008
-6.258773439630828e-05
-1.7017261480310586e-05
-2.6861635823585245e-05
-9.945681332173555e-05
-0.00020570013179244226
-0.0003327281155772928
-0.0004670640792965601
-0.000595483167294742
-0.0007065310176972597
-0.0007914911838001835
-0.0008445687113629127
-0.0008625993482552125
-0.0008445687113876739
-0.0007914911838479542
-0.0007065310177631885
-0.0005954831673714855
-0.0004670640793740273
-0.00033272811564411876
-0.00020570013184064792
-9.945681334795507e-05
-2.6861635831344463e-05
-3.6806395273428985e-05
-0.00013717085478420044
-0.00028597713409822924
-0.0004670640792781036
-0.0006627894084560769
-0.000854075447059903
-0.0010224203150490478
-0.0011528192662181886
-0.001234903005389552
-0.0012628627717265132
-0.0012349030054313072
-0.0011528192662966588
-0.001022420315153132
-0.0008540754471768582
-0.0006627894085692528
-0.0004670640793744981
-0.00028597713416695606
-0.0001371708548213506
-3.680639528438486e-05
-4.593844254233875e-05
-0.0001721856822936319
-0.00036147594235276027
-0.0005954831672484813
-0.0008540754470265942
-0.0011140424328302408
-0.00134920014545321
-0.0015347544967982956
-0.001652952881045422
-0.0016934133959422143
-0.001652952881108372
-0.001534754496914012
-0.0013492001456030728
-0.0011140424329920938
-0.0008540754471776301
-0.0005954831673733796
-0.0003614759424404804
-0.0001721856823407446
-4.593844255622709e-05
-5.3588170112099506e-05
-0.00020177566003571856
-0.00042593297254927805
-0.000706531017616735
-0.0010224203149705412
-0.0013492001454019824
-0.00165669609412203
-0.0019083308454455011
-0.0020713692965788097
-0.00212801212485295
-0.002071369296660845
-0.0019083308455991892
-0.0016566960943190088
-0.0013492001456077707
-0.001022420315158656
-0.0007065310177684338
-0.00042593297265372705
-0.00020177566009114514
-5.35881701282383e-05
-5.930901618994284e-05
-0.00022404837988262527
-0.0004748026614635805
-0.0007914911836849802
-0.001152819266090071
-0.0015347544966853477
-0.0019083308453769138
-0.002233753571784875
-0.002456196551918702
-0.002533079837837706
-0.002456196552022463
-0.0022337535719770007
-0.001908330845618899
-0.0015347544969341832
-0.0011528192663124014
-0.0007914911838598671
-0.0004748026615814786
-0.00022404837994389795
-5.930901620748228e-05
-6.28326336001469e-05
-0.00023782431444592422
-0.0005051705120726525
-0.0008445687112201583
-0.001234903005220253
-0.0016529528808761655
-0.002071369296439601
-0.0024561965518391997
-0.0027527600996861724
-0.0028666516567802352
-0.0027527600998148443
-0.0024561965520654935
-0.002071369296716345
-0.0016529528811554531
-0.0012349030054633003
-0.0008445687114077829
-0.0005051705121965929
-0.00023782431450924038
-6.283263361813223e-05
-6.402117347299385e-05
-0.00024248052411895548
-0.0005154560289387425
-0.0008625993480984804
-0.001262862771531371
-0.001693413395734638
-0.002128012124662464
-0.0025330798376910347
-0.0028666516567032695
-0.0030393961370618
-0.0028666516568459613
-0.002533079837936607
-0.002128012124949857
-0.0016934133960181206
-0.0012628627717759884
-0.0008625993482837154
-0.0005154560290596058
-0.0002424805241801002
-6.402117349008631e-05
-6.28326336010545e-05
-0.00023782431444900785
-0.0005051705120784942
-0.0008445687112288791
-0.0012349030052288522
-0.0016529528808826193
-0.0020713692964422882
-0.0024561965518410675
-0.002752760099691412
-0.002866651656789496
-0.002752760099827548
-0.0024561965520719124
-0.0020713692967138527
-0.0016529528811452014
-0.0012349030054535138
-0.0008445687113982643
-0.000505170512189018
-0.0002378243145045174
-6.283263361648312e-05
-5.93090161913922e-05
-0.00022404837988785522
-0.0004748026614735846
-0.0007914911836988745
-0.0011528192661044998
-0.0015347544966939314
-0.0019083308453782084
-0.0022337535717890295
-0.0024561965519297796
-0.0025330798378554228
-0.00245619655204161
-0.0022337535719842315
-0.001908330845613024
-0.0015347544969202434
-0.0011528192662963346
-0.0007914911838443947
-0.00047480266156869346
-0.00022404837993604705
-5.93090162049587e-05
-5.3588170113715977e-05
-0.00020177566004159477
-0.0004259329725605676
-0.0007065310176321996
-0.0010224203149862736
-0.0013492001454115004
-0.0016566960941241696
-0.0019083308454486611
-0.002071369296591913
-0.0021280121248726963
-0.0020713692966738066
-0.0019083308455990155
-0.0016566960943085937
-0.0013492001455931138
-0.0010224203151410099
-0.0007065310177499349
-0.000425932972638744
-0.00020177566008209398
-5.3588170125260344e-05
-4.593844254382519e-05
-0.00017218568229872863
-0.000361475942362688
-0.000595483167262788
-0.0008540754470422181
-0.0011140424328430364
-0.0013492001454605792
-0.0015347544968045328
-0.0016529528810566502
-0.001693413395954586
-0.0016529528811137877
-0.0015347544969088482
-0.0013492001455914521
-0.0011140424329765344
-0.0008540754471597353
-0.0005954831673540135
-0.0003614759424245382
-0.0001721856823312002
-4.5938442553296363e-05
-3.680639527449418e-05
-0.00013717085478808617
-0.00028597713410624437
-0.00046706407928962765
-0.0006627894084694312
-0.0008540754470750912
-0.0010224203150632797
-0.0011528192662307172
-0.0012349030053997615
-0.0012628627717332119
-0.001234903005433793
-0.0011528192662928402
-0.0010224203151444613
-0.0008540754471637389
-0.0006627894085520206
-0.00046706407935671467
-0.00028597713415268996
-0.00013717085481303296
-3.6806395281843424e-05
-2.68616358242156e-05
-9.945681332425349e-05
-0.00020570013179767047
-0.000332728115585462
-0.00046706407930801664
-0.0005954831673096385
-0.0007065310177138844
-0.0007914911838162344
-0.0008445687113749604
-0.0008625993482622871
-0.0008445687113896343
-0.0007914911838466393
-0.0007065310177575615
-0.0005954831673618518
-0.0004670640793611926
-0.00033272811563107217
-0.00020570013183054034
-9.945681334205787e-05
-2.6861635829500286e-05
-1.7017261475886183e-05
-6.258773438167926e-05
-0.000128380118508268
-0.00020570013180551172
-0.00028597713412897326
-0.00036147594240659356
-0.0004259329726272823
-0.00047480266156215616
-0.0005051705121842834
-0.0005154560290534583
-0.0005051705121889775
-0.00047480266157363835
-0.00042593297264638684
-0.00036147594243238413
-0.00028597713415847277
-0.00020570013183306339
-0.00012838011852867823
-6.258773439294654e-05
-1.7017261479252377e-05
-8.403385046055391e-06
-3.073896273088166e-05
-6.258773438386214e-05
-9.945681333181618e-05
-0.00013717085480468742
-0.00017218568232662843
-0.00020177566008109903
-0.00022404837993795728
-0.00023782431450699936
-0.00024248052418086662
-0.00023782431450778232
-0.0002240483799407076
-0.00020177566008712129
-0.0001721856823363505
-0.00013717085481716005
-9.945681334451712e-05
-6.2587734393857e-05
-3.0738962736566415e-05
-8.40338504777176e-06
-2.300662501440493e-06
-8.403385046301478e-06
-1.7017261477018267e-05
-2.6861635827247927e-05
-3.680639528032486e-05
-4.593844255295642e-05
-5.358817012617635e-05
-5.930901620671968e-05
-6.283263361842242e-05
-6.402117349132743e-05
-6.283263361829738e-05
-5.930901620691265e-05
-5.358817012712904e-05
-4.593844255490432e-05
-3.680639528321633e-05
-2.6861635830463248e-05
-1.7017261479752533e-05
-8.403385047913022e-06
-2.300662501932945e-06
0.0
0.0
0.0
0.0
0.0
0.0
0.0
0.0
0.0
0.0
0.0
0.0
0.0
0.0
0.0
0.0
0.0
0.0
0.0
0.0
0.0
0.0
0.0
0.0
0.0
0.0
0.0
0.0
0.0
0.0
0.0
0.0
0.0
0.0
0.0
0.0
0.0
0.0
0.0
0.0
0.0
0.0
0.0
0.0
0.0
0.0
0.0
0.0
0.0
0.0
0.0
0.0
0.0
0.0
0.0
0.0
0.0
0.0
0.0
0.0
0.0
0.0
0.0
0.0
0.0
0.0
0.0
0.0
0.0
0.0
0.0
0.0
0.0
0.0
0.0
0.0
0.0
0.0
0.0
0.0
0.0
0.0
0.0
0.0
0.0
0.0
0.0
0.0
0.0
0.0
0.0
0.0
0.0
0.0
0.0
0.0
0.0
0.0
0.0
0.0
0.0
0.0
0.0
0.0
0.0
0.0
0.0
0.0
0.0
0.0
0.0
0.0
0.0
0.0
0.0
0.0
0.0
0.0
0.0
0.0
0.0
0.0
0.0
0.0
0.0
0.0
0.0
0.0
0.0
0.0
0.0
0.0
0.0
0.0
0.0
0.0
0.0
0.0
0.0
0.0
0.0
0.0
0.0
0.0
0.0
0.0
0.0
0.0
0.0
0.0
0.0
0.0
0.0
0.0
0.0
0.0
0.0
0.0
0.0
0.0
0.0
0.0
0.0
0.0
0.0
0.0
0.0
0.0
0.0
0.0
0.0
0.0
0.0
0.0
0.0
0.0
0.0
0.0
0.0
0.0
0.0
0.0
0.0
0.0
0.0
0.0
0.0
0.0
0.0
0.0
0.0
0.0
0.0
0.0
0.0
0.0
0.0
0.0
0.0
0.0
0.0
0.0
0.0
0.0
0.0
0.0
0.0
0.0
0.0
0.0
0.0
0.0
0.0
0.0
0.0
0.0
0.0
0.0
0.0
0.0
0.0
0.0
0.0
0.0
0.0
0.0
0.0
0.0
0.0
0.0
0.0
0.0
0.0
0.0
0.0
0.0
0.0
0.0
0.0
0.0
0.0
0.0
0.0
0.0
0.0
0.0
0.0
0.0
0.0
0.0
0.0
0.0
0.0
0.0
0.0
0.0
0.0
0.0
0.0
0.0
0.0
0.0
0.0
0.0
0.0
0.0
0.0
0.0
0.0
0.0
0.0
0.0
0.0
0.0
0.0
0.0
0.0
0.0
0.0
0.0
0.0
0.0
0.0
0.0
0.0
0.0
0.0
0.0
0.0
0.0
0.0
0.0
0.0
0.0
0.0
0.0
0.0
0.0
0.0
0.0
0.0
0.0
0.0
0.0
-2.2971562076723047e-06
-2.2953705279347707e-06
-2.2953606672955076e-06
-2.297126621668223e-06
-8.39622389424144e-06
-8.392611505250691e-06
-8.392601241291183e-06
-8.39619310248073e-06
-1.7003685530454648e-05
-1.6996860708947895e-05
-1.6996848195980155e-05
-1.700364798773747e-05
-2.684068562839874e-05
-2.6830169948896785e-05
-2.6830155758008575e-05
-2.684064305343799e-05
-3.677772541755836e-05
-3.6763346192960373e-05
-3.6763330281819194e-05
-3.677767768063161e-05
-4.5902524790039626e-05
-4.588451772735487e-05
-4.5884500181263625e-05
-4.5902472148381734e-05
-5.3546062514405726e-05
-5.3524956696648454e-05
-5.352493760689298e-05
-5.354600524136089e-05
-5.9262215064715354e-05
-5.923875919564816e-05
-5.9238738844223024e-05
-5.926215400472943e-05
-6.278291499649332e-05
-6.275799817885024e-05
-6.27579769785139e-05
-6.278285140148115e-05
-6.39704679961324e-05
-6.39450564683281e-05
-6.394503487554402e-05
-6.397040317632917e-05
-6.278291499778226e-05
-6.275799818013856e-05
-6.275797697980184e-05
-6.278285140277002e-05
-5.926221506727731e-05
-5.923875919820853e-05
-5.923873884678361e-05
-5.926215400729134e-05
-5.354606251836382e-05
-5.352495670060488e-05
-5.352493761084934e-05
-5.3546005245319036e-05
-4.5902524795065465e-05
-4.588451773237853e-05
-4.5884500186287256e-05
-4.590247215340762e-05
-3.677772542289861e-05
-3.6763346198298416e-05
-3.676333028715736e-05
-3.6777677685971844e-05
-2.6840685633171637e-05
-2.6830169953667803e-05
-2.683015576277958e-05
-2.6840643058210882e-05
-1.7003685533956522e-05
-1.699686071244839e-05
-1.6996848199480648e-05
-1.700364799123941e-05
-8.396223896169648e-06
-8.392611507178096e-06
-8.392601243218671e-06
-8.396193104409035e-06
-2.297156208243712e-06
-2.295370528505764e-06
-2.295360667866543e-06
-2.297126622239709e-06
-8.396223893959842e-06
-8.392611504969129e-06
-8.392601241009672e-06
-8.396193102199137e-06
-3.0733358305956044e-05
-3.0730525355024415e-05
-3.073051613810573e-05
-3.0733330660096037e-05
-6.257989821096421e-05
-6.257594588760381e-05
-6.257593523266112e-05
-6.257986624776159e-05
-9.944647038153126e-05
-9.944126005944795e-05
-9.944124850203103e-05
-9.944643571340868e-05
-0.00013715713247448006
-0.0001371502293096796
-0.00013715021678724609
-0.00013715709491101752
-0.00017216837155192556
-0.00017215967044912915
-0.00017215965696725966
-0.0001721683311107325
-0.00020175495724912687
-0.0002017445572525198
-0.0002017445429624467
-0.00020175491438318297
-0.00022402493328627275
-0.00022401315857152482
-0.00022401314347416092
-0.00022402488800525298
-0.00023779908958508798
-0.00023778642349771251
-0.00023778640778571018
-0.0002377990424204313
-0.0002424546791873967
-0.00024244170453070928
-0.00024244168913133132
-0.0002424546331189314
-0.00023779908959056526
-0.0002377864235031895
-0.00023778640779118692
-0.0002377990424259089
-0.0002240249332971985
-0.0002240131585824502
-0.00022401314348508564
-0.00022402488801617844
-0.00020175495726537873
-0.00020174455726877056
-0.0002017445429786981
-0.0002017549143994345
-0.0001721683715719288
-0.00017215967046913108
-0.00017215965698726233
-0.0001721683311307347
-0.00013715713249543636
-0.00013715022933063532
-0.00013715021680820184
-0.00013715709493197396
-9.944647040010194e-05
-9.944126007801755e-05
-9.944124852060057e-05
-9.944643573197918e-05
-6.257989822445957e-05
-6.257594590109861e-05
-6.257593524615609e-05
-6.257986626125702e-05
-3.0733358313341006e-05
-3.073052536240888e-05
-3.0730516145490164e-05
-3.0733330667481256e-05
-8.396223896161943e-06
-8.392611507170408e-06
-8.392601243210933e-06
-8.396193104401356e-06
-1.7003685529247358e-05
-1.6996860707740795e-05
-1.6996848194773137e-05
-1.7003647986530186e-05
-6.257989820865875e-05
-6.257594588529834e-05
-6.257593523035567e-05
-6.257986624545616e-05
-0.00012837178756233269
-0.0001283675881110102
-0.00012836757610748542
-0.00012837175154807495
-0.00020569173317577886
-0.00020568749687087834
-0.00020568748425035
-0.00020569169531301976
-0.00028596722658845366
-0.00028596223554412285
-0.00028596222207877525
-0.0002859671861895279
-0.00036146382157577255
-0.00036145772276297364
-0.0003614577086689179
-0.0003614637792909819
-0.0004259182904323126
-0.0004259109091467259
-0.00042591089404644977
-0.00042591824513109225
-0.0004747856574430982
-0.00047477711411981837
-0.0004747770984706642
-0.00047478561047368633
-0.0005051519065158216
-0.0005051425631372916
-0.0005051425474102175
-0.0005051518594344793
-0.0005154368787989156
-0.000515427253037054
-0.0005154272345249787
-0.0005154368228833243
-0.0005051519065285634
-0.0005051425631500324
-0.0005051425474229581
-0.0005051518594472204
-0.00047478565746894666
-0.0004747771141456651
-0.00047477709849651147
-0.00047478561049953534
-0.00042591829046915563
-0.0004259109091835678
-0.0004259108940832909
-0.0004259182451679364
-0.0003614638216201121
-0.0003614577228073141
-0.0003614577087132576
-0.00036146377933532177
-0.0002859672266342098
-0.0002859622355898791
-0.00028596222212453113
-0.00028596718623528493
-0.00020569173321574317
-0.00020568749691084266
-0.00020568748429031496
-0.00020569169535298494
-0.00012837178759124773
-0.00012836758813992508
-0.0001283675761364002
-0.00012837175157699013
-6.257989822447462e-05
-6.257594590111356e-05
-6.257593524617096e-05
-6.257986626127172e-05
-1.700368553394552e-05
-1.699686071243742e-05
-1.69968481994698e-05
-1.7003647991228614e-05
-2.6840685625501452e-05
-2.6830169946000234e-05
-2.6830155755112034e-05
-2.6840643050540744e-05
-9.94464703741194e-05
-9.944126005203543e-05
-9.944124849461876e-05
-9.944643570599641e-05
-0.00020569173316782705
-0.000205687496862926
-0.00020568748424239835
-0.00020569169530506846
-0.00033272336815794493
-0.00033272095227113944
-0.0003327209392846839
-0.0003327233292003791
-0.00046706125600922115
-0.0004670598027669635
-0.000467059789511446
-0.00046706121624333715
-0.0005954809088370087
-0.0005954797349304101
-0.0005954797207741936
-0.000595480866371261
-0.0007065281103725915
-0.000706526613034466
-0.0007065265990653443
-0.0007065280684562295
-0.0007914870835239884
-0.0007914849859951481
-0.0007914849706016008
-0.0007914870374028456
-0.000844563593107786
-0.0008445609748666694
-0.0008445609559989878
-0.0008445635362081336
-0.0008625937179607942
-0.0008625908852099036
-0.0008625908783623757
-0.0008625936985061116
-0.0008445635931325457
-0.0008445609748914275
-0.0008445609560237457
-0.0008445635362328934
-0.0007914870835717546
-0.0007914849860429139
-0.0007914849706493679
-0.0007914870374506152
-0.0007065281104385213
-0.0007065266131003955
-0.0007065265991312742
-0.0007065280685221577
-0.0005954809089137525
-0.0005954797350071551
-0.0005954797208509366
-0.000595480866448005
-0.000467061256086692
-0.00046705980284443495
-0.00046705978958891837
-0.0004670612163208069
-0.00033272336822477364
-0.0003327209523379696
-0.00033272093935151443
-0.0003327233292672069
-0.00020569173321603287
-0.00020568749691113263
-0.0002056874842906042
-0.0002056916953532746
-9.94464704003376e-05
-9.944126007825324e-05
-9.944124852083645e-05
-9.944643573221514e-05
-2.6840685633255066e-05
-2.6830169953751233e-05
-2.6830155762863015e-05
-2.6840643058294487e-05
-3.6777725412261026e-05
-3.676334618766437e-05
-3.6763330276523375e-05
-3.677767767533409e-05
-0.00013715713245909336
-0.00013715022929429292
-0.00013715021677185925
-0.00013715709489563202
-0.000285967226566491
-0.00028596223552215995
-0.000285962222056811
-0.00028596718616756447
-0.00046706125599076283
-0.00046705980274850366
-0.00046705978949298696
-0.0004670612162248793
-0.0006627924728676948
-0.0006627939629642789
-0.0006627939490076412
-0.0006627924309984086
-0.000854082861945269
-0.000854086530878394
-0.0008540865182078477
-0.0008540828239251217
-0.0010224295453778603
-0.0010224341153777725
-0.0010224340998953678
-0.001022429498967064
-0.001152828799800594
-0.0011528335222567982
-0.0011528335071486217
-0.0011528287543051785
-0.0012349119446231106
-0.0012349164088601213
-0.0012349164051692898
-0.0012349119343635561
-0.0012628719881837788
-0.0012628763984656398
-0.0012628763354896218
-0.0012628717962953715
-0.0012349119446648667
-0.0012349164089018804
-0.0012349164052110446
-0.0012349119344053114
-0.0011528287998790695
-0.0011528335223352703
-0.0011528335072270941
-0.001152828754383649
-0.001022429545481946
-0.0010224341154818606
-0.0010224340999994558
-0.0010224294990711506
-0.0008540828620622282
-0.0008540865309953548
-0.0008540865183248116
-0.0008540828240420815
-0.0006627924729808737
-0.0006627939630774606
-0.0006627939491208208
-0.0006627924311115884
-0.00046706125608716233
-0.0004670598028449053
-0.0004670597895893877
-0.0004670612163212777
-0.0002859672266352197
-0.0002859622355908891
-0.00028596222212554084
-0.00028596718623629346
-0.00013715713249624328
-0.00013715022933144226
-0.0001371502168090088
-0.00013715709493278107
-3.6777725423208886e-05
-3.676334619860865e-05
-3.6763330287467786e-05
-3.677767768628249e-05
-4.590252478179384e-05
-4.588451771911157e-05
-4.588450017302011e-05
-4.590247214013598e-05
-0.0001721683715266016
-0.00017215967042380476
-0.00017215965694193606
-0.0001721683310854083
-0.00036146382153475653
-0.00036145772272195664
-0.00036145770862790037
-0.00036146377924996573
-0.0005954809087907454
-0.0005954797348841463
-0.0005954797207279281
-0.000595480866324996
-0.0008540828619119618
-0.0008540865308450819
-0.0008540865181745378
-0.0008540828238918101
-0.001114059632719759
-0.0011140681816944552
-0.001114068165898168
-0.0011140595853644307
-0.0013492238052174642
-0.0013492356076661338
-0.0013492355990629165
-0.0013492237792855082
-0.0015347803221839919
-0.001534793207543514
-0.0015347931977311333
-0.0015347802932173245
-0.0016529800403488825
-0.0016529933813536567
-0.0016529933040884263
-0.0016529798065048318
-0.0016934381612307842
-0.0016934511425810237
-0.0016934513319175359
-0.0016934387366492826
-0.001652980040411835
-0.0016529933814166098
-0.001652993304151384
-0.0016529798065677863
-0.0015347803222997142
-0.0015347932076592474
-0.0015347931978468602
-0.0015347802933330485
-0.001349223805367339
-0.0013492356078160068
-0.0013492355992127903
-0.0013492237794353785
-0.0011140596328816227
-0.0011140681818563227
-0.001114068166060034
-0.0011140595855262912
-0.0008540828620630006
-0.0008540865309961252
-0.0008540865183255811
-0.0008540828240428519
-0.0005954809089156451
-0.0005954797350090479
-0.0005954797208528302
-0.0005954808664498984
-0.0003614638216224785
-0.00036145772280967944
-0.0003614577087156234
-0.00036146377933768766
-0.00017216837157371282
-0.00017215967047091557
-0.00017215965698904692
-0.00017216833113251986
-4.5902524795672165e-05
-4.588451773298536e-05
-4.588450018689412e-05
-4.590247215401486e-05
-5.3546062503148394e-05
-5.35249566853946e-05
-5.3524937595639384e-05
-5.3546005230104095e-05
-0.00020175495721275283
-0.00020174455721614604
-0.00020174454292607182
-0.0002017549143468085
-0.0004259182903691519
-0.00042591090908356325
-0.00042591089398328713
-0.0004259182450679328
-0.0007065281102920599
-0.0007065266129539319
-0.0007065265989848095
-0.000706528068375698
-0.0010224295452993472
-0.0010224341152992584
-0.0010224340998168525
-0.00102242949888855
-0.0013492238051662363
-0.0013492356076148986
-0.0013492355990116858
-0.0013492237792342764
-0.0016567347457814294
-0.0016567540173965825
-0.0016567540012885184
-0.0016567346978377665
-0.0019083779121023981
-0.00190840132400948
-0.0019084012844689023
-0.0019083777922763012
-0.002071415255801353
-0.0020714390071420613
-0.002071439257934759
-0.0020714160127573494
-0.00212806817524411
-0.0021280931601565427
-0.0021280921668243194
-0.002128065179001964
-0.0020714152558833896
-0.0020714390072241007
-0.0020714392580167933
-0.0020714160128393866
-0.001908377912256093
-0.0019084013241631786
-0.0019084012846226042
-0.0019083777924299985
-0.0016567347459784175
-0.0016567540175935747
-0.001656754001485516
-0.0016567346980347587
-0.001349223805372033
-0.0013492356078207005
-0.0013492355992174875
-0.001349223779440073
-0.001022429545487468
-0.001022434115487384
-0.001022434100004975
-0.0010224294990766722
-0.0007065281104437659
-0.0007065266131056395
-0.0007065265991365175
-0.0007065280685274016
-0.0004259182904736022
-0.0004259109091880144
-0.0004259108940877387
-0.0004259182451723834
-0.00020175495726817793
-0.00020174455727157035
-0.0002017445429814971
-0.00020175491440223365
-5.3546062519275833e-05
-5.352495670151659e-05
-5.352493761176148e-05
-5.354600524623172e-05
-5.9262215050896506e-05
-5.923875918183364e-05
-5.923873883040893e-05
-5.926215399091071e-05
-0.0002240249332400395
-0.0002240131585252914
-0.00022401314342792737
-0.00022402488795902
-0.0004747856573591118
-0.00047477711403582994
-0.00047477709838667626
-0.0004747856103897006
-0.0007914870834087722
-0.000791484985879928
-0.0007914849704863827
-0.0007914870372876334
-0.0011528287996724648
-0.0011528335221286587
-0.0011528335070204825
-0.0011528287541770473
-0.0015347803220710369
-0.0015347932074305595
-0.0015347931976181714
-0.001534780293104365
-0.0019083779120337985
-0.0019084013239408744
-0.001908401284400302
-0.0019083777922077067
-0.0022338238758484127
-0.002233859690968155
-0.002233859915454287
-0.002233824552224712
-0.0024562831518275615
-0.002456322750220301
-0.0024563215229706824
-0.002456279461619568
-0.0025331300258100977
-0.0025331679443503187
-0.002533172181619649
-0.0025331427657203005
-0.002456283151931325
-0.0024563227503240654
-0.002456321523074449
-0.0024562794617233328
-0.00223382387604055
-0.0022338596911603025
-0.0022338599156464384
-0.0022338245524168524
-0.001908377912275812
-0.0019084013241828961
-0.001908401284642321
-0.0019083777924497104
-0.0015347803223198797
-0.0015347932076794093
-0.001534793197867025
-0.0015347802933532153
-0.0011528287998948054
-0.0011528335223510056
-0.0011528335072428298
-0.0011528287543993892
-0.0007914870835836678
-0.0007914849860548275
-0.0007914849706612822
-0.0007914870374625276
-0.00047478565747701183
-0.00047477711415373113
-0.0004747770985045779
-0.00047478561050760056
-0.00022402493330130987
-0.0002240131585865615
-0.00022401314348919696
-0.00022402488802029033
-5.926221506842279e-05
-5.923875919935391e-05
-5.9238738847929437e-05
-5.926215400843767e-05
-6.2782914981144e-05
-6.275799816350593e-05
-6.275797696316957e-05
-6.278285138613225e-05
-0.00023779908953247471
-0.00023778642344510006
-0.00023778640773309742
-0.0002377990423678181
-0.0005051519064164477
-0.0005051425630379151
-0.0005051425473108404
-0.0005051518593351056
-0.0008445635929650231
-0.0008445609747239007
-0.0008445609558562195
-0.0008445635360653691
-0.001234911944453798
-0.0012349164086908019
-0.0012349164049999693
-0.0012349119341942428
-0.0016529800401796002
-0.0016529933811843666
-0.00165299330391914
-0.0016529798063355575
-0.0020714152556621265
-0.0020714390070028284
-0.00207143925779552
-0.002071416012618123
-0.002456283151748045
-0.0024563227501407815
-0.002456321522891165
-0.002456279461540054
-0.002752858518127044
-0.0027529254116778804
-0.0027529313062200013
-0.0027528762154966292
-0.0028668934479057903
-0.0028669536012882677
-0.0028669333725657316
-0.002866832730318977
-0.0027528585182557234
-0.002752925411806564
-0.002752931306348691
-0.0027528762156253136
-0.00245628315197437
-0.002456322750367117
-0.002456321523117493
-0.0024562794617663704
-0.002071415255938887
-0.0020714390072796014
-0.0020714392580722983
-0.0020714160128948913
-0.0016529800404589206
-0.0016529933814636974
-0.0016529933041984676
-0.0016529798066148684
-0.0012349119446968552
-0.0012349164089338676
-0.0012349164052430348
-0.0012349119344373036
-0.0008445635931526538
-0.000844560974911537
-0.0008445609560438555
-0.0008445635362530006
-0.00050515190654039
-0.0005051425631618585
-0.0005051425474347843
-0.0005051518594590476
-0.00023779908959578797
-0.00023778642350841186
-0.0002377864077964093
-0.00023779904243113157
-6.27829149991162e-05
-6.275799818147225e-05
-6.275797698113597e-05
-6.278285140410474e-05
-6.397046798028453e-05
-6.394505645248567e-05
-6.394503485970178e-05
-6.397040316048117e-05
-0.00024245467913203313
-0.00024244170447534644
-0.0002424416890759681
-0.00024245463306356809
-0.0005154368786925765
-0.0005154272529307147
-0.0005154272344186399
-0.0005154368227769867
-0.000862593717804056
-0.0008625908850531607
-0.0008625908782056329
-0.0008625936983493714
-0.0012628719879886183
-0.0012628763982704728
-0.0012628763352944554
-0.001262871796100213
-0.0016934381610231924
-0.001693451142373421
-0.0016934513317099324
-0.001693438736441691
-0.002128068175053595
-0.002128093159966024
-0.00212809216663381
-0.0021280651788114597
-0.0025331300256634126
-0.002533167944203626
-0.002533172181472946
-0.002533142765573607
-0.002866893447828809
-0.0028669536012112746
-0.002866933372488743
-0.0028668327302419972
-0.003039241376969883
-0.003039406673426812
-0.0030394876245974133
-0.003039484269797207
-0.0028668934479715216
-0.002866953601354002
-0.0028669333726314677
-0.002866832730384712
-0.0025331300259090125
-0.0025331679444492434
-0.0025331721817185696
-0.002533142765819214
-0.0021280681753410194
-0.0021280931602534595
-0.002128092166921242
-0.002128065179098877
-0.0016934381613066902
-0.0016934511426569283
-0.0016934513319934422
-0.0016934387367251926
-0.0012628719882332503
-0.0012628763985151124
-0.001262876335539094
-0.0012628717963448456
-0.0008625937179892949
-0.0008625908852384028
-0.0008625908783908758
-0.0008625936985346126
-0.0005154368788134405
-0.0005154272530515791
-0.0005154272345395036
-0.0005154368228978501
-0.0002424546791931727
-0.000242441704536485
-0.00024244168913710752
-0.00024245463312470958
-6.397046799736407e-05
-6.394505646955927e-05
-6.394503487677542e-05
-6.397040317756097e-05
-6.278291498205152e-05
-6.275799816441344e-05
-6.27579769640768e-05
-6.278285138703942e-05
-0.00023779908953555794
-0.0002377864234481835
-0.00023778640773618092
-0.0002377990423709019
-0.0005051519064222917
-0.0005051425630437594
-0.0005051425473166848
-0.0005051518593409477
-0.0008445635929737445
-0.0008445609747326249
-0.0008445609558649432
-0.0008445635360740916
-0.0012349119444623976
-0.0012349164086994024
-0.001234916405008569
-0.0012349119342028436
-0.0016529800401860583
-0.0016529933811908276
-0.0016529933039256008
-0.0016529798063420137
-0.002071415255664809
-0.0020714390070055116
-0.0020714392577982064
-0.002071416012620809
-0.0024562831517499135
-0.002456322750142647
-0.0024563215228930297
-0.002456279461541922
-0.0027528585181322784
-0.0027529254116831167
-0.0027529313062252393
-0.0027528762155018655
-0.0028668934479150446
-0.002866953601297523
-0.0028669333725749886
-0.0028668327303282377
-0.0027528585182684372
-0.0027529254118192825
-0.0027529313063614108
-0.0027528762156380235
-0.0024562831519807883
-0.0024563227503735362
-0.0024563215231239153
-0.0024562794617727928
-0.0020714152559364015
-0.002071439007277112
-0.0020714392580698086
-0.002071416012892398
-0.0016529800404486586
-0.001652993381453434
-0.001652993304188209
-0.001652979806604613
-0.0012349119446870664
-0.0012349164089240775
-0.0012349164052332464
-0.0012349119344275137
-0.0008445635931431331
-0.0008445609749020148
-0.0008445609560343323
-0.0008445635362434815
-0.0005051519065328129
-0.0005051425631542822
-0.0005051425474272077
-0.0005051518594514709
-0.00023779908959106435
-0.0002377864235036879
-0.00023778640779168522
-0.00023779904242640784
-6.278291499746705e-05
-6.275799817982349e-05
-6.275797697948742e-05
-6.278285140245611e-05
-5.926221505234478e-05
-5.923875918328142e-05
-5.9238738831856715e-05
-5.926215399235909e-05
-0.00022402493324527023
-0.00022401315853052254
-0.0002240131434331579
-0.00022402488796425008
-0.0004747856573691165
-0.0004747771140458357
-0.00047477709839668247
-0.000474785610399706
-0.0007914870834226719
-0.0007914849858938283
-0.0007914849705002822
-0.0007914870373015309
-0.001152828799686896
-0.001152833522143093
-0.0011528335070349162
-0.0011528287541914808
-0.0015347803220796172
-0.0015347932074391386
-0.0015347931976267537
-0.0015347802931129492
-0.0019083779120350963
-0.0019084013239421705
-0.001908401284401594
-0.0019083777922089965
-0.0022338238758525635
-0.002233859690972309
-0.002233859915458443
-0.0022338245522288665
-0.0024562831518386416
-0.0024563227502313787
-0.0024563215229817595
-0.0024562794616306474
-0.002533130025827819
-0.002533167944368051
-0.0025331721816373707
-0.0025331427657380224
-0.002456283151950477
-0.0024563227503432198
-0.002456321523093607
-0.0024562794617424884
-0.0022338238760477823
-0.002233859691167538
-0.0022338599156536713
-0.0022338245524240853
-0.001908377912269929
-0.0019084013241770143
-0.0019084012846364404
-0.0019083777924438332
-0.001534780322305937
-0.0015347932076654686
-0.0015347931978530827
-0.0015347802933392725
-0.0011528287998787382
-0.0011528335223349355
-0.0011528335072267578
-0.00115282875438332
-0.0007914870835681923
-0.000791484986039351
-0.0007914849706458065
-0.0007914870374470531
-0.0004747856574642243
-0.0004747771141409428
-0.00047477709849178895
-0.00047478561049481386
-0.00022402493329345673
-0.00022401315857870812
-0.00022401314348134392
-0.00022402488801243832
-5.9262215065900875e-05
-5.923875919683258e-05
-5.9238738845407914e-05
-5.926215400591544e-05
-5.354606250476395e-05
-5.352495668700934e-05
-5.35249375972541e-05
-5.3546005231719455e-05
-0.00020175495721862894
-0.00020174455722202252
-0.0002017445429319493
-0.00020175491435268485
-0.000425918290380444
-0.000425910909094855
-0.0004259108939945792
-0.0004259182450792237
-0.0007065281103075272
-0.0007065266129694002
-0.0007065265990002791
-0.0007065280683911649
-0.0010224295453150807
-0.0010224341153149924
-0.0010224340998325856
-0.0010224294989042856
-0.0013492238051757567
-0.0013492356076244194
-0.0013492355990212038
-0.0013492237792437946
-0.0016567347457835569
-0.0016567540173987095
-0.0016567540012906482
-0.0016567346978398996
-0.0019083779121055536
-0.001908401324012631
-0.0019084012844720582
-0.001908377792279457
-0.0020714152558144582
-0.0020714390071551684
-0.0020714392579478627
-0.002071416012770454
-0.002128068175263856
-0.002128093160176295
-0.0021280921668440805
-0.002128065179021719
-0.0020714152558963615
-0.0020714390072370703
-0.002071439258029763
-0.00207141601285235
-0.0019083779122559133
-0.0019084013241630002
-0.0019084012846224266
-0.0019083777924298218
-0.0016567347459680002
-0.0016567540175831575
-0.0016567540014750942
-0.0016567346980243393
-0.0013492238053573718
-0.0013492356078060402
-0.0013492355992028267
-0.0013492237794254156
-0.0010224295454698208
-0.0010224341154697345
-0.0010224340999873305
-0.0010224294990590261
-0.0007065281104252631
-0.0007065266130871367
-0.000706526599118014
-0.0007065280685089005
-0.0004259182904586169
-0.00042591090917302863
-0.00042591089407275316
-0.0004259182451573987
-0.00020175495725912668
-0.00020174455726251837
-0.00020174454297244496
-0.00020175491439318192
-5.354606251629924e-05
-5.3524956698540834e-05
-5.352493760878586e-05
-5.354600524325529e-05
-4.590252478327919e-05
-4.58845177205965e-05
-4.5884500174505136e-05
-4.590247214162153e-05
-0.0001721683715316992
-0.00017215967042890205
-0.00017215965694703284
-0.00017216833109050494
-0.0003614638215446836
-0.0003614577227318842
-0.00036145770863782825
-0.0003614637792598938
-0.0005954809088050539
-0.000595479734898455
-0.0005954797207422365
-0.000595480866339305
-0.0008540828619275838
-0.0008540865308607061
-0.0008540865181901632
-0.0008540828239074357
-0.001114059632732558
-0.0011140681817072547
-0.0011140681659109663
-0.0011140595853772277
-0.0013492238052248355
-0.0013492356076735008
-0.0013492355990702856
-0.0013492237792928753
-0.001534780322190224
-0.0015347932075497504
-0.0015347931977373664
-0.001534780293223558
-0.0016529800403601131
-0.001652993381364887
-0.0016529933040996575
-0.0016529798065160614
-0.001693438161243152
-0.0016934511425933912
-0.0016934513319299051
-0.0016934387366616564
-0.0016529800404172462
-0.0016529933814220228
-0.0016529933041567967
-0.0016529798065732023
-0.0015347803222945469
-0.0015347932076540765
-0.0015347931978416894
-0.0015347802933278797
-0.0013492238053557102
-0.0013492356078043798
-0.001349235599201168
-0.0013492237794237548
-0.0011140596328660618
-0.001114068181840762
-0.0011140681660444733
-0.0011140595855107308
-0.0008540828620451027
-0.000854086530978228
-0.000854086518307683
-0.000854082824024955
-0.0005954809088962772
-0.000595479734989679
-0.0005954797208334619
-0.0005954808664305301
-0.00036146382160653456
-0.00036145772279373435
-0.0003614577086996775
-0.00036146377932174317
-0.00017216837156416677
-0.00017215967046136957
-0.00017215965697950128
-0.00017216833112297463
-4.59025247927435e-05
-4.588451773005744e-05
-4.588450018396608e-05
-4.5902472151085904e-05
-3.677772541332545e-05
-3.676334618872846e-05
-3.676333027758728e-05
-3.6777677676398535e-05
-0.00013715713246297923
-0.00013715022929817832
-0.00013715021677574547
-0.0001371570948995172
-0.0002859672265745073
-0.0002859622355301757
-0.0002859622220648271
-0.0002859671861755804
-0.00046706125600228773
-0.000467059802760029
-0.0004670597895045127
-0.0004670612162364035
-0.0006627924728810502
-0.0006627939629776358
-0.0006627939490209951
-0.0006627924310117635
-0.0008540828619604557
-0.0008540865308935808
-0.0008540865182230372
-0.0008540828239403108
-0.001022429545392095
-0.0010224341153920093
-0.001022434099909603
-0.0010224294989812975
-0.001152828799813127
-0.0011528335222693279
-0.00115283350716115
-0.0011528287543177084
-0.0012349119446333167
-0.0012349164088703275
-0.0012349164051794971
-0.0012349119343737641
-0.0012628719881904724
-0.0012628763984723346
-0.0012628763354963159
-0.0012628717963020675
-0.0012349119446673515
-0.0012349164089043622
-0.0012349164052135307
-0.001234911934407797
-0.0011528287998752477
-0.001152833522331448
-0.0011528335072232717
-0.0011528287543798295
-0.0010224295454732749
-0.001022434115473191
-0.0010224340999907837
-0.0010224294990624798
-0.0008540828620491076
-0.0008540865309822337
-0.0008540865183116885
-0.0008540828240289606
-0.0006627924729636389
-0.000662793963060225
-0.0006627939491035856
-0.0006627924310943543
-0.00046706125606937556
-0.00046705980282711677
-0.0004670597895716001
-0.0004670612163034913
-0.0002859672266209505
-0.0002859622355766195
-0.00028596222211127166
-0.0002859671862220256
-0.00013715713248792566
-0.00013715022932312408
-0.0001371502168006903
-0.00013715709492446288
-3.677772542066877e-05
-3.6763346196069445e-05
-3.676333028492866e-05
-3.67776776837426e-05
-2.684068562613129e-05
-2.6830169946629773e-05
-2.6830155755741528e-05
-2.6840643051170476e-05
-9.944647037663659e-05
-9.944126005455258e-05
-9.944124849713582e-05
-9.944643570851416e-05
-0.0002056917331730552
-0.0002056874968681544
-0.00020568748424762613
-0.00020569169531029643
-0.00033272336816611374
-0.0003327209522793085
-0.00033272093929285297
-0.00033272332920854806
-0.00046706125602067857
-0.00046705980277842043
-0.0004670597895229042
-0.00046706121625479413
-0.0005954809088519094
-0.0005954797349453117
-0.0005954797207890933
-0.0005954808663861585
-0.0007065281103892166
-0.0007065266130510929
-0.0007065265990819725
-0.0007065280684728564
-0.0007914870835400414
-0.0007914849860112031
-0.0007914849706176578
-0.0007914870374188998
-0.0008445635931198358
-0.0008445609748787205
-0.0008445609560110379
-0.0008445635362201823
-0.00086259371796787
-0.0008625908852169769
-0.0008625908783694507
-0.0008625936985131857
-0.000844563593134509
-0.0008445609748933904
-0.0008445609560257076
-0.0008445635362348534
-0.0007914870835704393
-0.0007914849860415996
-0.0007914849706480542
-0.0007914870374493003
-0.000706528110432893
-0.0007065266130947681
-0.0007065265991256459
-0.0007065280685165307
-0.0005954809089041201
-0.0005954797349975224
-0.0005954797208413046
-0.0005954808664383711
-0.0004670612560738558
-0.00046705980283159794
-0.00046705978957608114
-0.0004670612163079709
-0.0003327233682117241
-0.0003327209523249194
-0.00033272093933846395
-0.0003327233292541591
-0.00020569173320592605
-0.00020568749690102507
-0.00020568748428049662
-0.00020569169534316654
-9.944647039443968e-05
-9.944126007235552e-05
-9.944124851493897e-05
-9.944643572631779e-05
-2.6840685631412136e-05
-2.683016995190883e-05
-2.683015576102059e-05
-2.6840643056451442e-05
-1.7003685529524463e-05
-1.6996860708017822e-05
-1.699684819505014e-05
-1.700364798680737e-05
-6.257989820984599e-05
-6.257594588648538e-05
-6.257593523154278e-05
-6.257986624664347e-05
-0.0001283717875651061
-0.0001283675881137833
-0.00012836757611025832
-0.00012837175155084823
-0.00020569173318089664
-0.00020568749687599605
-0.00020568748425546765
-0.00020569169531813782
-0.0002859672265972367
-0.00028596223555290597
-0.0002859622220875578
-0.00028596718619831066
-0.00036146382158859275
-0.0003614577227757951
-0.0003614577086817387
-0.00036146377930380315
-0.00042591829044716286
-0.00042591090916157653
-0.0004259108940613008
-0.00042591824514594305
-0.0004747856574576937
-0.0004747771141344146
-0.0004747770984852608
-0.0004747856104882822
-0.0005051519065280841
-0.0005051425631495552
-0.0005051425474224805
-0.0005051518594467422
-0.0005154368788072958
-0.0005154272530454358
-0.0005154272345333609
-0.0005154368228917057
-0.0005051519065327756
-0.000505142563154245
-0.0005051425474271707
-0.0005051518594514335
-0.0004747856574691737
-0.0004747771141458925
-0.0004747770984967385
-0.000474785610499761
-0.00042591829046626303
-0.00042591090918067524
-0.00042591089408039944
-0.00042591824516504355
-0.0003614638216143824
-0.00036145772280158305
-0.00036145770870752624
-0.00036146377932959117
-0.00028596722662673564
-0.00028596223558240543
-0.0002859622221170572
-0.0002859671862278102
-0.00020569173320844937
-0.0002056874969035489
-0.00020568748428302064
-0.00020569169534569027
-0.0001283717875855155
-0.00012836758813419293
-0.00012836757613066824
-0.00012837175157125836
-6.257989822111294e-05
-6.257594589775196e-05
-6.257593524280925e-05
-6.25798662579101e-05
-1.7003685532888017e-05
-1.699686071138027e-05
-1.6996848198412648e-05
-1.7003647990171134e-05
-8.39622389400682e-06
-8.392611505016085e-06
-8.392601241056603e-06
-8.396193102246176e-06
-3.073335830625926e-05
-3.0730525355327436e-05
-3.073051613840867e-05
-3.073333066039926e-05
-6.257989821202879e-05
-6.257594588866828e-05
-6.257593523372578e-05
-6.257986624882643e-05
-9.944647038419975e-05
-9.944126006211588e-05
-9.94412485046992e-05
-9.944643571607723e-05
-0.00013715713247958186
-0.00013715022931478168
-0.00013715021679234842
-0.00013715709491611967
-0.00017216837155960033
-0.00017215967045680413
-0.000172159656974935
-0.00017216833111840632
-0.0002017549572581343
-0.00020174455726152795
-0.00020174454297145484
-0.0002017549143921903
-0.00022402493329537205
-0.00022401315858062507
-0.0002240131434832606
-0.00022402488801435275
-0.00023779908959354996
-0.00023778642350617523
-0.00023778640779417273
-0.0002377990424288935
-0.0002424546791939441
-0.0002424417045372569
-0.00024244168913787874
-0.00024245463312547907
-0.0002377990895943319
-0.00023778642350695648
-0.00023778640779495357
-0.00023779904242967516
-0.00022402493329812023
-0.0002240131585833718
-0.0002240131434860074
-0.00022402488801710063
-0.0002017549572641544
-0.00020174455726754636
-0.00020174454297747286
-0.00020175491439820988
-0.00017216837156931955
-0.00017215967046652227
-0.00017215965698465333
-0.00017216833112812586
-0.00013715713249205314
-0.00013715022932725204
-0.00013715021680481867
-0.0001371570949285908
-9.944647039690007e-05
-9.944126007481594e-05
-9.944124851739919e-05
-9.944643572877765e-05
-6.257989822202374e-05
-6.257594589866288e-05
-6.257593524372024e-05
-6.257986625882089e-05
-3.073335831194325e-05
-3.07305253610113e-05
-3.0730516144092634e-05
-3.073333066608356e-05
-8.39622389572199e-06
-8.39261150673061e-06
-8.392601242771118e-06
-8.396193103961284e-06
-2.2971562076583892e-06
-2.295370527920839e-06
-2.295360667281595e-06
-2.2971266216543286e-06
-8.396223894252778e-06
-8.392611505261968e-06
-8.3926012413025e-06
-8.396193102492115e-06
-1.7003685530655855e-05
-1.6996860709148916e-05
-1.6996848196181214e-05
-1.7003647987938778e-05
-2.6840685629161997e-05
-2.6830169949659728e-05
-2.6830155758771467e-05
-2.6840643054201258e-05
-3.677772541915277e-05
-3.676334619455415e-05
-3.676333028341313e-05
-3.677767768222601e-05
-4.5902524792404555e-05
-4.5884517729719186e-05
-4.588450018362793e-05
-4.5902472150747185e-05
-5.3546062517216724e-05
-5.35249566994585e-05
-5.352493760970329e-05
-5.354600524417222e-05
-5.926221506766275e-05
-5.923875919859454e-05
-5.9238738847169716e-05
-5.926215400767687e-05
-6.278291499940823e-05
-6.275799818176433e-05
-6.27579769814278e-05
-6.278285140439608e-05
-6.397046799860672e-05
-6.394505647080182e-05
-6.394503487801764e-05
-6.397040317880273e-05
-6.278291499928314e-05
-6.275799818163896e-05
-6.275797698130237e-05
-6.278285140427066e-05
-5.9262215067855245e-05
-5.9238759198786416e-05
-5.9238738847361565e-05
-5.926215400786908e-05
-5.354606251816823e-05
-5.352495670040913e-05
-5.352493761065379e-05
-5.354600524512339e-05
-4.5902524794350746e-05
-4.588451773166416e-05
-4.588450018557275e-05
-4.5902472152693e-05
-3.6777725422041844e-05
-3.676334619744191e-05
-3.676333028630082e-05
-3.67776776851149e-05
-2.68406856323748e-05
-2.683016995287128e-05
-2.683015576198304e-05
-2.6840643057414064e-05
-1.700368553338827e-05
-1.6996860711880398e-05
-1.69968481989127e-05
-1.7003647990671195e-05
-8.396223895863262e-06
-8.392611506871863e-06
-8.392601242912367e-06
-8.39619310410253e-06
-2.297156208150114e-06
-2.295370528412235e-06
-2.295360667773006e-06
-2.297126622146092e-06
SCALARS von_mises_stress float
LOOKUP_TABLE default
631.2407032686149
760.7416571358191
611.3641061889417
646.8287636744697
677.2678414247185
597.3274892691278
693.2883055657702
618.4926750847173
495.86789818470777
732.43588549996
1088.1540091182485
1485.3029556032466
1922.3676687328875
2344.352518346551
2666.3778581571755
2954.1819332735504
3160.6616517593898
3195.773412886204
3167.0660815972933
2943.0184642642776
2685.5286200989917
2312.366501153539
1914.8868964126657
1485.7879166545665
1114.6171086029472
774.6416474012841
503.4431612814195
540.4543375948813
779.7793500508463
1093.576938241369
1507.2297304364154
1939.3625896093936
2332.8895866805215
2673.011561559001
2969.223176319224
3120.704225592958
3200.755109961968
3137.865419470805
2938.9137542562207
2683.862255699964
2317.1756049490937
1895.0549421863398
1492.7334646333095
1081.7916276892913
755.4198503966304
462.45575726639385
486.71180446072873
732.6476747252053
1106.5326967531446
1493.4765414459587
1938.1284610584753
2323.593441711701
2682.412508934007
2966.131102613772
3172.947437706879
3184.7304049189383
3131.4402745237103
2996.420430700417
2657.7938182913886
2298.7145397542768
1926.858541846443
1515.3351130065591
1091.15948042165
745.3990356651345
495.97825916056917
495.8193760033646
722.805557080037
1049.9986465621118
1473.7355222866513
1910.3102839072715
2371.646018243351
2697.243485822612
2969.874428324628
3131.4306601592425
3217.372964587507
3131.672933971457
2953.8093526302428
2670.0799786832326
2374.2636349666454
1935.2652010438508
1532.5271983484986
1117.0656154454684
724.2394786300872
485.6440224447032
476.7531472194517
720.0304374140895
1074.5053225997956
1526.6274154133212
1928.2320299149794
2356.6013716004845
2711.551018499674
2971.8213897929663
3144.3056658850346
3209.6149945234392
3121.653028734961
3009.423659981343
2762.3916325699142
2359.202529602661
1967.3902886344351
1517.0718665863485
1085.1719240655875
690.4062918932955
517.9139655777573
483.0048899367417
721.2815019416319
1085.317419004556
1489.2993628404722
1932.912183522219
2359.428743132232
2727.521665823902
2958.910298222293
3134.1633147571983
3212.865492701606
3162.107052311384
2999.0598537546316
2719.060898654601
2339.5472813075617
1928.899228549969
1506.7858738091431
1053.0765984307918
696.9899179376004
512.4216458747441
483.53315562372944
774.6898672446981
1107.8988080727588
1492.364952811914
1939.5753231597564
2352.5617566130136
2730.8187237799752
2980.000902558372
3068.5872810047126
3216.1679665936367
3141.5248020487243
2942.8926465465092
2749.075536793948
2406.2372946051782
1928.5459864937995
1474.36606026653
1048.8229798234925
741.5069899033034
466.37117142936825
487.3140330618992
702.0492749929359
1082.038257892192
1532.3719273522127
1958.7875692193982
2322.8431384565943
2665.5351681174734
2931.664870691372
3158.674415286713
3183.630915359681
3144.4036818197465
2981.9097635333055
2691.630187235768
2287.159663396811
1922.5984648020217
1498.1526624244582
1111.2298343848893
744.1503953969698
468.72258552363985
375.58017998337033
142.72736526990667
178.9319588791211
419.99736613318646
491.8964652642312
234.80921437726715
109.33491924631417
333.5047743898106
357.4277627138618
130.83722584960967
194.34941566662366
436.4147195006194
399.23525092422994
169.5504713198404
147.42564933728093
371.76305734387677
650.6428272287662
1260.2448375018946
2286.8814454731805
3469.2756076893374
4739.409505834298
5910.420033853736
6942.970105373086
7733.5953651641385
8190.138355429596
8373.755902878342
8190.737855444273
7714.9979360957395
6941.684746552664
5910.973771326571
4725.517413150271
3475.554230923562
2285.988022928358
1274.144461271646
692.7312040304914
1271.4444520422135
1233.654308766754
1605.8410512503594
2150.3458572246486
2820.0537469031874
3527.8220495225523
4213.104404846614
4745.8049207948125
5072.4137426364105
5249.844682120019
5100.454949641601
4773.874132707511
4183.622775072923
3550.453549941211
2849.6488767243745
2155.735792075221
1614.6361272259508
1211.5155694033056
1270.5837763035297
2284.2717048728086
1634.258117137349
1585.5541181686483
1612.8356393625604
1860.2606630907155
2259.292091902585
2717.1289041208092
3140.8237619329593
3427.993535763762
3517.988599599804
3429.5346117516488
3130.2131336714533
2705.2956316505997
2232.6566671087608
1885.1434918957768
1634.9092518573761
1603.6144617184254
1617.0350906069302
2299.0352025356274
3453.9707397559987
2146.415223554559
1607.5862718352475
1005.2997958299466
613.417763482373
485.74902987524075
593.7366692562675
790.9832079192845
969.5319013450288
1046.6842434043806
956.6415010032541
791.3541602109702
595.6359841556614
465.2762158550708
616.3114271158386
1010.4202070357911
1620.993734257986
2136.0757231610683
3466.1322608394107
4741.978116641463
2828.1022792086396
1876.6886780227046
617.7919144741498
519.7019421548304
1372.936625854533
1766.14664420982
1810.4728432356073
1778.9135651205863
1736.9826815397344
1753.673218209782
1834.3586182846414
1771.9614839028236
1380.8242462258434
532.6938598323229
598.2111887851531
1870.6147783830304
2831.9935385466083
4732.2059536604365
5919.014705254987
3525.693708757011
2258.749759407059
465.2633029993474
1357.8654080377964
3157.3488981372157
4426.069015107998
4979.682844227877
5140.742253941086
5063.7492378719
5142.929135952333
4974.540303672445
4428.9171505040795
3158.7527188478293
1378.4666107245666
479.8271166014993
2261.3538396100475
3536.992013495269
5928.311436327959
6954.6463940468275
4206.555604401416
2715.1329742881185
603.4147357717334
1731.2865278661213
4416.3926786699685
7132.014889343946
8862.372354788291
9262.966645185843
9627.87864966448
9242.471353223784
8872.913602484916
7151.4346880300045
4404.381971176402
1771.7818583761987
599.0070183728711
2740.118550791079
4230.80528122919
6933.086712734247
7723.244828907295
4749.314803160766
3127.0319655075305
805.055599374072
1836.0178449350117
4996.9833144963095
8840.59730785053
13121.932619017341
15304.567274606296
14463.304262501704
15279.44408762342
13162.318273415529
8866.556663272919
4971.596579716749
1846.1644417467664
791.4222795056631
3127.7761576324338
4748.113209711659
7703.842159628999
8193.85601334672
5108.2534900610035
3429.8685558990846
982.0505756231923
1792.7770555328862
5125.6136150688935
9224.164012429806
15334.7256587349
23060.750223762712
28114.372519900935
23083.16015887458
15288.227100113425
9257.946548593969
5125.985408240284
1783.3867638547385
960.2634460767216
3393.9634356551637
5095.688103178264
8193.708554244935
8353.83256346904
5221.622540386822
3496.6321472896707
1052.9035828062697
1730.1524552310866
5081.691684180151
9676.412651292922
14456.557037018005
28104.182673218893
31485.88485810325
28085.185380884228
14471.479432573704
9639.638244368769
5078.554946885566
1740.0307178867222
1067.192240297337
3554.735926929304
5219.847891191545
8350.15495056349
8188.161222956296
5100.504693788186
3450.3390304104855
982.2895774769491
1782.7308056257968
5135.339889384771
9242.644375839747
15288.221436192805
23049.17658490016
28139.36172459995
23075.375235171236
15250.979094974206
9235.074937306077
5133.500154137636
1791.8008938579558
976.2008115925707
3431.3079303352533
5121.156040058193
8157.337841765634
7750.908065640049
4757.267607960129
3119.7041889807356
767.5516327241648
1831.5398154346549
4960.982769986367
8853.516914252317
13121.418154635205
15315.963278956717
14452.320157975586
15305.255169047523
13119.497683740203
8849.31295583121
5012.825651539189
1845.6208871162717
796.5251880840026
3159.9723970815066
4724.139230109601
7713.944326396035
6965.741851567737
4183.878173385537
2741.3179497985807
587.0921982070614
1753.8794828890225
4430.9194081317755
7150.653147416699
8839.48196044899
9271.180517724979
9638.912560037517
9215.70574555498
8871.655895952643
7149.418849272742
4432.770389301594
1757.217092076222
585.9309002973353
2723.74087619341
4233.193656908851
6947.123937907888
5919.951733614532
3520.2314375149163
2240.7292369247475
485.23903456335233
1365.4918135226121
3149.6457200599043
4432.522062303815
4963.647578251934
5114.025055984354
5068.326626472118
5136.738249520123
4959.963749210492
4440.002720701785
3163.4027524860376
1363.2725551061546
471.10407866545586
2261.296359427627
3515.2308160902676
5944.014335970435
4715.947966987716
2832.185086261047
1884.5281229741008
628.4171121232473
539.7595269898695
1344.7898734024238
1742.9729000615566
1816.6075532837945
1758.236856420994
1765.3859136385918
1766.159560518504
1857.6938880025011
1722.8043185584243
1358.0926253185585
556.6721314746997
630.4677997654734
1878.566200557387
2829.1462710638484
4727.882039772464
3472.6298143019526
2131.7116381828287
1613.2121526135127
980.675793854356
606.1781107696156
483.3584546975006
568.7708040575827
791.8637404631324
951.8695457811078
1066.5161768941698
988.0747001278987
788.215502053714
564.7308876762463
503.56714893438425
636.0843385179852
973.3335040319929
1623.0258225744185
2159.1353253810553
3474.6378930930855
2297.30287688201
1633.6653841870343
1571.1397746989949
1609.8716222173928
1877.6327224884703
2274.021121555155
2715.91811598277
3145.0936338066545
3447.859519917567
3528.3122382345164
3452.4758657729144
3148.6312174551863
2697.5203629271464
2273.856914720015
1875.7895387968401
1612.8407465188263
1595.7035934297423
1626.4049028272832
2269.8559966328385
1253.7227168343536
1218.1700897046221
1609.2286603200441
2183.492662565741
2814.36740458544
3540.5211375992653
4216.471941227176
4768.066006751447
5094.006469440348
5236.839510914946
5088.731975284166
4751.095012976531
4226.529633372035
3560.0899768394493
2792.4077452152005
2141.7280008823413
1652.1433508119162
1182.85953440121
1304.1666257605734
668.482726632688
1264.2210111157517
2284.907445901462
3487.456365670577
4726.231951624305
5940.979496306236
6950.2470419738165
7704.600390426374
8234.757917560235
8385.882990360278
8224.327185585904
7733.009183093264
6925.561369220478
5919.681234432921
4731.253583801646
3480.854478540872
2290.691510773347
1268.0184771042163
715.8400847375805
664.1204555747534
1260.2511813762787
2270.7045563711586
3476.954301064505
4739.551675353617
5903.15435709085
6925.557111325674
7732.954098268632
8215.751678907065
8393.536643254101
8198.048000432693
7737.212858234697
6941.833849460117
5920.031334509777
4719.917424546026
3484.979520761593
2292.1916439319475
1284.2729072997563
679.6701139567317
1259.488482011046
1235.648942308836
1605.6872209734606
2159.7379094849985
2818.770707340123
3548.465181133603
4210.457846744093
4756.599365620757
5083.349364671893
5232.685603200408
5115.723108046218
4774.403091481991
4204.3025041125065
3542.2488054391256
2855.6174714645163
2159.408723347616
1609.5194699242543
1216.003292726509
1301.2459865703797
2296.181528407561
1617.4007648261752
1592.8751493996626
1631.9485062446108
1873.3305591279216
2238.4093156895588
2723.2407556859807
3143.5878371855824
3457.282023911655
3522.8457036131404
3433.298380469526
3137.3242803734497
2725.5063933790434
2242.085882575529
1891.7347549168458
1639.8962754057218
1594.8777937841605
1637.5450012223223
2301.4732088150563
3471.6109849210998
2191.8149241469227
1593.9951449990508
994.1136705173517
623.900482074548
498.3757999266521
581.4753792405521
811.2109824895088
979.0293677791648
1036.2244138971491
961.6115121329192
769.646864645273
588.3571106313448
466.22278052339936
618.3580409626372
972.735065304702
1618.9545222901313
2138.9641696058416
3456.225940571587
4714.610518965144
2811.3096513709165
1849.0292518575477
606.7039183511322
509.5379853734836
1370.1235841957448
1746.637745657818
1850.6145653189799
1761.5231890946777
1752.7325228663415
1771.312675148234
1826.5768028166324
1751.5426546316232
1351.0106673229507
545.5674220826938
623.8279817245453
1880.5698131811896
2841.722276440435
4742.42436985663
5943.331268449062
3528.6377921807753
2245.320857305453
486.8018624230037
1340.940794263544
3153.346539778074
4424.597778880126
5001.618244345071
5144.488990189663
5056.856815606221
5147.9043803256245
4964.040674464891
4423.153903409946
3166.2985397590373
1393.3509999900248
483.9199719637295
2249.5896880749915
3541.220636509794
5901.908207074186
6960.681489750669
4207.982088271205
2736.060822866223
603.1160810675956
1750.00598167862
4401.561048462127
7135.0415319441745
8823.006932750279
9257.941732937607
9628.021044017303
9265.132923213763
8870.125541173784
7140.313748786728
4436.589285706489
1755.13865548154
589.5574370843862
2734.623084951701
4213.216689586469
6952.091502856712
7713.281787910314
4743.760157754023
3141.36666850547
802.2358426828573
1830.8856795691
4974.026159431286
8846.526976805668
13144.829203282512
15294.023400233344
14458.500530056195
15293.069237282985
13155.128674519332
8863.417096731895
4963.450268445102
1834.9803913321466
800.0300949596513
3143.487495949599
4752.4201103742125
7707.617380192634
8201.006400817112
5102.038524382969
3437.6097344840446
979.8436585233878
1765.0003040008228
5114.132197287934
9235.101768389588
15310.791990652498
23074.511528323532
28166.06446959298
23033.43430348173
15288.07645486967
9236.140972014173
5123.245293268345
1783.9552346888522
965.5682391300459
3424.182000341813
5118.9375373559
8187.100207686849
8372.178235941352
5248.035912029183
3505.955466774246
1089.8920281068292
1768.1665804057561
5091.664349358523
9647.14345674324
14459.243890373977
28171.234173545363
31578.034336718556
28155.98961421368
14454.334850128569
9624.045798801626
5080.916568598132
1748.4778552177513
1062.1183804639334
3558.371092245385
5238.411287622316
8342.786555086108
8202.427620827442
5108.178649072004
3428.0809688587988
985.838028629185
1773.9653812356098
5131.739786568649
9249.757952966505
15291.913691728838
23049.75932187923
28151.897059444986
23048.48849066683
15313.379876594445
9204.441273599357
5132.455153969651
1809.2175348383462
989.5369743213047
3428.4068283504735
5110.857046773747
8209.55175040904
7720.026893748073
4767.513907736466
3134.5930358445853
773.4906402969468
1828.4458017685115
4969.150772082704
8872.926897957326
13127.41954416487
15301.795182703043
14462.36399266915
15307.221860982494
13116.245195546331
8849.072272730204
4976.092554096638
1823.0555980684496
782.9953333218272
3177.4320655174015
4749.8404958932715
7715.16532739849
6944.100445404246
4213.660271686058
2752.8070090281176
594.8924940184754
1763.1617876952353
4441.406017160448
7127.199251326227
8869.50655674816
9231.951660056497
9645.107138410567
9209.023657336202
8869.382790004802
7141.177304755008
4445.469844657108
1743.2938943503432
573.2873852609232
2733.671347950764
4206.63532811436
6927.733758048056
5918.493895535262
3524.6310779099376
2250.845920114015
480.5938752285036
1319.868471615738
3147.312192181343
4428.931695721451
4950.379827485
5126.322707327164
5044.6737035498145
5145.489710152407
4956.336274319839
4438.996057887425
3142.780007900854
1360.1562358087053
492.42669505806083
2235.8949685643156
3522.517165247782
5952.034216334311
4728.271847241558
2813.2995263166636
1884.6306327799514
606.9260875596507
546.4205055891174
1356.976904506783
1743.0812759819044
1837.4129785891544
1770.3961944219946
1751.0082232901568
1754.6560223516835
1873.1098818486173
1757.0434145539612
1340.45523181877
537.7077232505534
606.0027394431748
1886.197007732791
2818.685487461164
4755.189768218267
3476.9513821117184
2166.6657909840324
1612.5519598286855
987.9648218817255
601.011184381951
494.23334138846025
581.8598146525792
805.1032914108704
974.1836056504275
1054.5216052745832
993.6321417512022
786.0394343700473
602.2041227882969
484.78641065230903
627.0491972032519
997.413544870151
1619.7624468352485
2143.488020827652
3463.095900139231
2279.870883486125
1588.5884487860312
1580.834387409096
1619.025075666904
1898.9093360178963
2271.2801511264056
2718.4934083608014
3174.0847121614584
3430.417308798706
3544.978615814199
3435.80558930778
3158.147683291914
2730.470528166474
2264.0687888742923
1871.7715295356466
1620.9641664515837
1605.9270471872042
1604.7697544580067
2280.3075730195565
1238.1438335432476
1201.0351932018282
1647.4702408554285
2175.3938996089287
2814.0589968768104
3543.394695011566
4208.503835577054
4768.198329773052
5100.078036424168
5256.058027406123
5075.298125836769
4777.621703416556
4199.440315234149
3556.669685911046
2807.310915608074
2151.6984441228083
1626.5171309843215
1231.0575921851614
1278.1154391310072
680.2576230899915
1300.7412453724698
2262.120562617692
3493.0560543136307
4742.183017202832
5924.566166390079
6950.496229363266
7725.107157842248
8219.74436113745
8374.952729431787
8243.76060583329
7725.823261363211
6917.850429372297
5948.322850631997
4720.444064234975
3479.250609209694
2293.899293740987
1281.2572802707418
692.4344748378528
305.7620608286116
138.0345442520302
124.62700532893345
287.63476839479097
468.09013345346796
257.89279915823374
251.27703031793834
456.9301175636717
715.4287577561944
435.66627155696693
429.1719780065053
703.3455781261817
986.5877138043436
631.923301324512
649.5590412274703
1021.4945344123809
1294.446568635562
848.7575048229131
851.175230225208
1299.3722277465063
1582.3562432655174
1044.5064109872426
1049.3439372065366
1592.3794665782189
1803.2765322280625
1202.6072771860267
1220.7909164088242
1840.8066122546475
2000.0300574790922
1331.3099110156572
1338.917663088647
2015.359693543043
2140.5501508094994
1418.3068014067799
1411.5062003290457
2126.714232677474
2163.0971902875376
1436.9063782108963
1441.9382333443314
2173.8529212060644
2149.432637426295
1425.3480880806364
1406.3828698210473
2110.8166569695295
1987.4451415319054
1324.3876344843325
1351.3725560592454
2042.898743428868
1807.487999312677
1198.6610998729766
1230.9094499789535
1872.8278793614131
1559.798112446086
1036.1278135312891
1056.0238283521544
1600.000058425014
1283.3263046416428
841.0336620299656
862.8615118681416
1327.4406470150116
988.2752620298002
633.5097839746537
647.122966420994
1015.0664046763713
732.589792891807
442.1547139301827
428.3615950253707
706.9264938916829
504.35815223703304
280.779035691453
236.81863710350288
429.18852262457534
304.71215642065005
131.1756354598261
140.16468428280612
317.31718964447646
339.1562014365791
157.91751224466293
117.39798976957874
284.5274793955564
502.7137688423428
274.5815957953185
242.61795128109898
449.5888802382681
717.0423675342778
434.1884615466042
430.1215714029526
709.6109221968759
1006.630727693389
641.8478729060448
634.3538279195038
991.7008103528992
1303.9963807012575
850.0578519998315
848.0790041367746
1299.5202574062387
1573.4453749653974
1040.3122714965027
1051.639259520994
1596.2699822945087
1804.0959243022598
1199.8009742886536
1222.4957027281464
1850.3138690683159
2012.873298937573
1337.8250537241677
1333.4276592515375
2003.9919880780765
2114.331986940354
1408.9679853887824
1414.8339386286675
2126.1432871461957
2165.61071571041
1437.838963507143
1443.0684826371025
2176.1330769349725
2122.789070202791
1410.6804277170427
1420.0644807708584
2142.404630675523
1985.8331552402256
1324.0923616811601
1348.6959533507545
2036.2936978255511
1812.9304446481235
1203.8143511109129
1218.4494156948426
1842.7433611816007
1566.523773814013
1040.118076232004
1048.9756432960583
1584.8772804075115
1275.4712302557652
841.4772483429001
855.670202202065
1304.19097616473
994.4006403580084
635.7835868846274
641.5600921599582
1005.9771010861939
714.5092955176575
437.8645072915698
424.5530838210071
689.4380920848475
488.39166239359344
270.4551653038433
240.2084705010298
436.6573156198051
274.1374396185046
115.7390067381961
149.6780004598638
320.8114809698262
297.3540618894872
132.61814016607977
131.2493107782956
295.1122149555643
458.6475925685511
246.65455019861008
269.7251935420619
496.86878662448856
722.6985277934252
434.59245578911947
435.24077523841027
723.9158205513285
997.2389831844401
639.296764528616
639.3071530810284
996.951549136295
1302.0742485708186
848.4437697117658
849.5568233634178
1303.9874041138305
1568.2109968706304
1039.1056213902582
1051.380496742273
1593.0226868409857
1810.384429893987
1202.5495872780136
1222.7895411273837
1851.5240927620864
2007.4876018974978
1333.8357068249206
1339.3524201947318
2018.9070678014702
2161.0767487303165
1433.988822655009
1391.3867531911299
2073.4586647798815
2154.1347717123417
1432.3351733742286
1444.7384545419966
2179.877062157269
2121.150650941122
1411.0409161291138
1414.6415278668496
2128.9227238692197
2034.3603436534784
1348.4671144037416
1326.688503663427
1989.5971659724423
1790.7314547855208
1193.2079688899985
1230.570554448627
1867.2368521004746
1542.5760069810497
1023.9089770088408
1068.2801061850344
1632.9037461916873
1297.5070970357335
849.6263958891458
850.0781013190085
1298.5855237451592
1015.5069571776114
648.1911855870595
630.4226281492628
980.4807764387111
722.18554055888
441.9692736060051
421.9805831533163
684.757588313032
473.9821702692137
257.3866838036445
254.5800430306841
469.6927380331048
307.6043493610131
140.97864019887174
120.66925703679048
279.84748736126045
303.93165956661284
135.65898993207756
129.75034370087016
295.94740677944264
464.54724434653116
259.0483654754441
247.68149227788888
445.4100073526514
687.6828221662582
424.4218119875429
438.88658787675377
715.239484228648
977.311587352601
627.5844595317947
653.070901634711
1027.4657392855945
1281.0767693021367
840.0978901632099
860.2182553898843
1321.7760885181303
1605.9448344449065
1055.9882476156263
1035.6387715909054
1564.6719608488966
1831.2729004804942
1216.506677576024
1202.9197939877367
1803.8373547555784
2018.310179300722
1343.1651802842186
1326.7553177057541
1985.1571548416798
2118.712788027283
1408.6057418282576
1418.8422487422008
2140.3323308463146
2182.041134667435
1447.2581068319196
1433.1960886273946
2153.403477867639
2120.828436844631
1410.6762792050633
1415.4188194881276
2130.885994017642
1998.2888008770144
1329.468667986515
1340.939820192615
2021.8353981519506
1808.6872111134192
1205.99038289349
1214.4763073683666
1826.366705385635
1614.3835225259595
1064.3350522885287
1027.9359807977492
1540.3567563053614
1303.7458433568652
851.8084356999519
846.3230529223566
1292.8159311685688
1023.2999706090757
648.0859223594563
632.9419525095408
993.7420062540482
729.086917483716
435.82966397279694
433.11432296896544
724.0541414768452
458.27695378832425
250.9714483850828
261.49291691446024
476.06332971394517
299.50411813347347
136.682559983468
125.65885311658204
284.10180094801353
375.6816919951617
121.33707836807928
134.42675711851336
389.0801015645334
736.446120737355
248.78054571004571
249.01359645734195
736.6295192997235
1342.1251485594755
452.74405385100266
438.6466336074675
1327.1793659128414
2032.4132958414652
675.4072157895706
682.343685979067
2039.6895512880426
2779.7522776164965
925.4361571651008
924.7856639628229
2779.3625130636856
3467.4725327124947
1154.7066035749647
1149.2384371138191
3461.398959769415
4075.0496452818315
1358.8233727378622
1344.1202109935537
4059.343730681852
4536.9362557010745
1507.926174370226
1505.2479111869402
4534.931050391316
4800.772406598491
1588.4376331679352
1606.8027944709054
4821.670288145004
4909.207619128032
1625.6807845778292
1639.8149381664123
4925.3265136154505
4804.265441302231
1595.0586244661615
1596.9386063285963
4807.978500649489
4522.486995116262
1497.011526781792
1513.379269756125
4540.92059068867
4072.137907685348
1353.6576351048252
1352.24557232112
4071.2528109529762
3465.1788633740657
1149.4421218323353
1157.9695434733367
3473.9628704641127
2772.5642383685413
924.8684216736253
918.6770971567885
2766.554892005508
2036.4355612102565
676.8940705905956
683.6672430250431
2044.176406449452
1338.313532110196
445.5933677671731
449.8841364802824
1343.3142149311443
743.4915306058629
248.79276128081662
256.57294173628
752.2264693004843
405.15605469401515
138.70076208791343
127.88657845878947
393.44995033381065
745.8056501881262
255.9644723834592
243.7307754040454
733.4410168240535
716.2277039683665
237.716143604523
239.34197658948509
718.0230821798455
934.283195669246
311.99463297359426
311.9651258828497
934.247072410103
1251.082224185128
416.1669744242393
423.26472285796956
1259.0516970439858
1643.5222295786075
549.6981310799837
549.0696143997691
1642.664941864851
2052.893028530604
679.2110678471771
698.4464536821861
2072.8354683404627
2457.619268811466
820.5415472501212
817.2925068394363
2454.54370146708
2767.1835548146973
920.1971643587268
925.684774215272
2774.5081757229
2957.2877611650956
982.7404045138409
988.9644196920991
2965.1571260127857
3065.5737736140836
1025.9320952736643
1008.8613786005172
3048.3178470440644
2972.8983361781357
986.2663200174757
997.1592044156271
2985.348108690229
2784.842947198847
928.1692148398519
926.7020135336467
2784.0315098434394
2436.605646343478
807.4578746555248
823.5313460011972
2454.393120736285
2071.826843782585
694.5464844677641
686.3452087487618
2063.5318193100225
1659.8494358148776
552.9855697566052
558.4650760355644
1665.584897928225
1254.942970007391
418.8270523808892
421.43266933364094
1257.9867530748309
940.3854522919195
315.57406624973163
310.76185861945265
935.4210409719635
702.6080969359051
232.58414335813325
236.4068962494279
706.7240271746065
738.3654436619474
241.87016322994737
265.75937123424194
764.9753552564284
1336.5746485317309
443.66591790899105
452.22515604293847
1346.3586351687711
953.9585178093889
323.1610188669921
308.3792089201947
938.3010467926182
921.5907349001062
300.5375425516416
307.0936145257799
928.445546400433
937.0191921162193
304.97504508694163
318.8898397702451
952.733148279396
1082.6840239213955
353.4555006252278
362.9978258226594
1093.427876288648
1321.2630870892503
440.80744401154834
422.4857130390981
1302.0618151957983
1585.1781232503229
520.0557457820724
523.9995940581886
1589.8522862532336
1834.8536833768328
604.4876102728455
601.567823546822
1833.8183451293992
1998.0728539039626
650.0722692026085
671.4395021023632
2022.0958483152938
2053.7084736646934
674.4605921139741
676.7663199488607
2056.866095887473
2002.6198853376536
658.2891253974763
658.7984510289456
2004.2178565782351
1826.8844942867672
599.4937002964379
603.2294360907263
1831.7485313707193
1576.1891640335507
513.4628220203161
528.778475601427
1593.150474153663
1301.9042670715457
427.3368852417645
431.37383093418146
1307.754189313495
1098.941158594771
361.31632161124054
363.5508485451041
1102.653723328377
951.5332334176957
312.8703045873383
316.7955322499453
955.83746271803
934.2976810425292
308.65925454050966
302.8672041394688
927.5456852148546
937.4519655109365
307.1315317333301
325.0403658679375
956.4734066768789
1347.1720876078773
450.2240116706346
449.6331915368837
1347.6164464768865
2022.7386726732245
670.5925880343701
683.3266411586628
2037.2545303053885
1243.8322853366255
404.8382688075547
440.31839694333695
1283.108980805956
938.8218833537704
314.39696816283146
300.9748114663446
925.3007225538938
588.0481775746459
203.7898629016366
193.4841093536419
577.2068357225705
357.79400916185483
127.34938584932114
133.82464265733037
366.036434042717
285.19044707165955
109.66636165773686
116.44257235296996
294.7400533020704
351.90280262160144
134.78488324014378
123.5088384947505
339.2873654398815
461.6768237192637
158.8671865052526
173.2351154438698
478.68510562465366
568.0953992346155
194.5766924318709
199.14246889186907
574.4521233473167
616.144284383822
216.22721228382878
206.74578518041932
606.0056399460723
560.417921075466
192.41057760843978
195.5747772928128
564.2759525955363
468.42053221543114
171.84922919093128
153.1817844888076
447.7733785738383
351.6278268517574
132.5132682063715
126.43258026136934
344.6330533476209
274.30171517718355
108.7878477225507
109.28622047704634
275.0075685495136
360.4846719929145
129.9894681759587
131.0437263890792
361.93093834859803
595.5381456023812
213.6854662697459
180.54714539615247
560.0111527395305
944.6493269822068
312.74739810071014
310.2000826943914
942.270671557474
1244.0526332645265
416.08247190272385
416.57115909715964
1245.3751769210787
2033.5230209735282
680.7211755375392
672.265789945649
2024.529927664329
2785.1646114518117
934.3950649945498
911.5381697047677
2760.649712144886
1650.4989293764734
555.989846074384
543.0416359529013
1636.1266921090191
1098.5218472523245
369.70729634408093
345.2946286503686
1072.9613905294812
363.27060305408696
133.936929766575
125.00115435829971
353.0175509964444
307.76876902361465
114.60057818192438
107.03435606706329
298.80420615179827
801.9804266081962
270.047788697613
268.7606635230839
800.1670806614401
1031.2091728858452
347.96013732087016
332.5083713480987
1014.2588357822405
1044.262855042608
333.03265976328044
369.6411578058989
1082.2860278640783
1033.6456485239216
345.1095093354378
332.0058569901191
1019.0488008250037
1003.8811174512273
324.66667009622074
337.28464174616886
1017.5873046222765
1013.7968399737808
329.57607578792863
344.5180365780499
1029.7375953360568
1066.4940969552733
354.346873163954
348.4799341888195
1059.9671990386285
1035.4715226905114
350.41208087850504
331.90968376831535
1016.1695989014006
811.5242010838726
281.408932894125
255.22569840369016
783.7123016611123
311.5774834298424
109.69163493108117
120.29626032294993
323.6232900707339
346.53364744680766
120.20541912975516
138.20299430112706
368.2654436779624
1089.3282390873276
356.61980157591375
363.24200351069624
1097.0911056126374
1650.0046243014392
550.1052130883036
555.5453721870037
1656.956720639472
2774.4692876134523
921.5738466549616
927.8218530682357
2782.1256852497045
3467.811042167414
1146.305315287086
1166.908041561277
3489.8125094429292
2054.8614863271446
685.2820892781465
688.1665787813239
2057.797460673552
1320.1105242865717
438.75594091631007
425.72158501680855
1306.9297342227148
271.7561472556185
104.26915351929286
117.44461180645267
289.44188016261234
795.0591115665575
271.2906079647465
258.94250568652325
780.9859309536962
1842.2859509930097
609.5498011294167
607.1745756765907
1839.3652143147192
2579.497315630155
850.2599669666649
850.3575248497323
2579.1011494369463
2894.719467269216
945.820677957717
967.0512351563765
2916.261042218876
2988.8853789244595
979.4197128310774
984.5197168182284
2993.557274756544
2946.1458830753395
976.2852508733879
969.7969307813165
2939.4980117086175
2990.4076986209107
980.0432427819748
985.0329146333798
2995.419594103315
2896.955673629245
955.8657928557545
948.4303497926409
2888.4859448182624
2582.6056343133732
853.3759149542705
847.3766918853481
2576.6889147245456
1841.7520763231682
606.8123081466834
612.4943413235226
1848.0839042273942
802.3791006152223
265.3738786736665
278.9278986424653
816.5820334336424
282.06228060767717
110.00279094702019
113.4746300266806
286.17917031664985
1320.5649245266952
437.5174439114637
428.25227417021
1310.4551731767024
2061.9831216860684
688.0431168959408
689.8827464005533
2064.655848626838
3482.8514273515193
1167.1962374485374
1140.0175292369172
3455.745362584778
4079.0499432459424
1354.665356654679
1357.5756539326155
4083.037699778376
2453.3190144022556
818.3850346537562
817.8368627714149
2453.4298289519948
1581.6667620760493
514.8158088094932
531.3278558558078
1599.6712676322202
356.1586767944127
133.39404196748154
129.8598782724734
353.4018385285928
1003.9109672642383
327.71972070142675
346.4081733193565
1022.7952727528262
2576.017281861547
852.9703493834835
841.3242977049613
2563.269698108007
4157.309534628168
1365.6579113591831
1369.874835447501
4161.14578188757
5170.049841436244
1711.240217092927
1679.2617388215872
5135.559930891658
5391.239597684889
1773.0296478459209
1772.2133527671685
5389.029293340393
5607.896418596936
1848.481661204135
1847.3890568821241
5607.254802385328
5375.525920388684
1761.069468938404
1781.691550173055
5396.878261539834
5170.3881450948065
1700.9587091852522
1700.7375932488064
5169.320987402885
4170.993279073836
1374.1745247255637
1366.1844120631397
4161.965344556016
2560.6398786844748
833.8342443648727
864.7781849415596
2592.118602252287
1033.8821586861905
347.9376548017759
335.13643097281397
1019.684556155717
353.5399352792927
133.13708147630314
126.57811965087465
345.4632812000862
1600.3363760041696
528.0551279917953
522.6823028849246
1594.9193542612304
2470.57536401558
829.11168356467
812.4434376980896
2453.4401130223955
4064.3512756391915
1346.2073730609438
1359.8268914174475
4079.8699796325004
4531.070913910264
1507.1757573746777
1500.0341190392874
4522.949862824501
2771.288655729959
925.4615474781554
918.7249470329579
2764.8732012981245
1824.1664818472498
596.944660931562
605.9949753800217
1834.9894281146896
473.1196294651089
167.87512545208838
165.14929476657395
470.2290935232505
1066.8307238768316
353.398898014662
350.5414358021892
1063.213136020698
2911.777878660187
963.5815618898938
947.146107595918
2893.1305912186053
5149.955583113555
1691.7937863465631
1699.150450816132
5156.85832773371
7648.536113713659
2506.66809205781
2526.7138541647764
7669.574464408084
8921.696832088144
2939.9289339266134
2932.161912310283
8913.002662706378
8432.496860698444
2871.2808355770135
2874.456961739257
8433.091247699938
8902.479815966777
2926.178144661
2941.0473360090796
8916.991298894534
7676.990417272106
2524.195618376875
2519.1808185160385
7671.259730090376
5166.687812122192
1699.8256334171763
1699.4528262877718
5165.3999975115585
2894.243865769341
953.5626659262058
950.1899130586152
2889.2801885604295
1073.2637716004201
356.5474521247228
350.04190956696743
1065.1682561274808
464.2011815397637
163.1132732944782
167.14416359451607
469.93001425749617
1823.8185191932241
595.7330378307988
607.7056787684579
1837.0570238561975
2769.3487154906275
922.4657171545576
923.136028518428
2771.2452159300237
4518.556706928098
1500.5023039796693
1501.8797864660862
4520.747851292869
4805.058664704882
1594.0645025682604
1599.0570412540528
4810.809993678915
2980.8335867104124
994.6398697278851
987.4446882208995
2973.883039088968
2002.3957413322712
657.3344692632647
660.6632127247574
2007.204102246493
576.6553185322183
199.65550180913934
196.3448929103409
573.5998535399743
1043.8610376003446
351.7242843802789
329.11995055395045
1019.410689935165
2981.4707478709374
980.2187951880254
974.7850972542692
2974.0171232420157
5365.680712142549
1760.109224793517
1773.1753653894364
5378.077387918642
8941.884993194273
2950.5195754765027
2930.8282120355416
8920.755452898833
13455.772787005384
4422.384580150985
4438.626723122372
13471.203764021393
16471.44272186051
5596.820475631736
5634.7016798019395
16514.8954276247
13479.673466813423
4448.564260820052
4408.962890371639
13436.624838568536
8910.696687508826
2933.73100317775
2934.153248469988
8910.952416899107
5391.418427460004
1778.4111548081692
1761.5955163292354
5372.915112593907
2981.0493772461914
978.4893422968004
978.460738552873
2980.1220979077807
1033.2949459929032
339.772971157425
342.719615972574
1035.481906543302
563.163124974792
193.99543853248406
195.3714911401055
565.881692787539
1977.700231388752
643.0447255020242
665.2429209503384
2002.580166124879
2969.3428522814397
983.4285293978996
999.7253651846322
2988.12641120701
4808.014616165878
1599.8295982071024
1590.6873970458134
4799.685029569689
4898.585302695538
1623.7554051003594
1633.8592205313635
4911.529160941571
3042.2663045687573
1006.6305143891988
1025.8514700277829
3064.0734302569776
2040.2944262799786
668.6785331560458
675.0288441277746
2047.647213698157
613.292797218407
203.68720900927713
230.40007240195624
644.2978422002031
995.0216596003552
313.97886054790234
349.7075996687906
1031.5660287707938
2953.07748228787
972.5100913396982
983.6061940147583
2963.8690759501887
5641.009331222317
1867.2154048382645
1841.851698977403
5614.29383406491
8427.085283500654
2867.245533859129
2877.204596874136
8434.863018908338
16463.63442371631
5590.837206965537
5639.566340078444
16519.689556564656
18371.45515295437
6004.413775862959
6104.394080089415
18468.814273524462
16451.96448577203
5586.23408648743
5637.8131886569545
16511.239141895912
8439.544624142543
2877.106621299353
2869.525718265305
8428.57496346263
5616.428571201063
1854.5500735611934
1842.8679813809072
5603.43308065241
2952.0173955003493
973.9150671181496
979.655803578546
2956.6640554056708
1005.7957559562141
326.1955738631852
335.50094181423185
1014.8472867628292
627.9320596893061
218.9452654529465
212.31018856004837
621.5990871521644
2076.359633584522
683.0922409366792
682.3231871732429
2077.0573967037526
3042.537203878939
1008.9424745474197
1021.1004933402698
3056.9495594415635
4900.241960520831
1631.030932012147
1619.915130269778
4890.335510836744
4800.727493661001
1590.8378965635331
1601.3405594315461
4812.554488363139
2973.845093940166
988.2914514305506
993.6751379069264
2980.0445883357297
2018.0730143548346
669.4849048462453
650.7042960737317
1998.115461402734
576.9459430660409
199.3109638096915
198.0086280753573
577.213463847496
1034.6853912485933
343.1734466814287
337.17021607776684
1027.7501456854725
2986.7776075483825
980.6450171697193
979.7526199649445
2984.9880379034225
5377.50189990457
1765.4082020832805
1774.3244960917882
5385.850463706046
8910.482619516373
2933.0006888885923
2935.706861730998
8913.55236404968
13450.812025252297
4424.159355662702
4429.893827104917
13454.828552299829
16492.86025182093
5614.879993236121
5618.813879966181
16499.849404454962
13472.107101546399
4440.557266757198
4418.322017252302
13448.285870995116
8878.889894862583
2905.7996132816834
2959.8141988316734
8935.855866650574
5378.615503527444
1775.8512031169498
1753.6427385955067
5353.562667333432
2984.643177643693
978.5099575943548
981.6730914566518
2986.41657597415
1035.2946100384206
335.28685485972267
353.75904823231156
1053.5236481496863
570.1054580266925
192.6976491636154
204.19404399447478
582.551888550806
2003.9506823363092
659.7757711788172
656.5912141730528
2000.8511407270437
2990.6630863637197
1000.844875186532
985.725607812811
2977.0190635159165
4777.302485122349
1573.5304366589203
1614.341251459354
4822.183714031126
4551.82534208604
1521.1426444477936
1492.7023460149783
4522.394282187932
2773.0621511389804
921.0496894045825
928.9589555501636
2781.838854512744
1818.7097899734747
593.7258410515013
606.401632165643
1832.1166756338114
450.24531457813293
159.13235662691517
161.6712733263568
454.0408628357797
1063.3702923071528
351.23597960084953
351.2300081828411
1062.3554507368658
2885.8070915553876
946.7221558561969
956.0520611949622
2894.779543884439
5155.51346554055
1689.9855479082753
1708.7008441021817
5174.515257901159
7651.312811913051
2512.7967078656325
2517.040782896966
7656.170197945554
8928.83678459109
2943.001818540027
2933.01533077525
8917.452593564054
8423.630620848393
2864.4672756456616
2880.013776792219
8437.736800553383
8920.37057667101
2936.1251871069753
2938.8491672107507
8922.867580277705
7651.844608191122
2515.687021325164
2511.7031372341207
7648.13032572494
5155.247876970172
1694.3233192343475
1698.776481278017
5158.146129659486
2923.3536406785684
971.4055438024955
942.7566946948723
2891.9521779911274
1074.9968958990898
360.5943226629964
343.5362617233249
1056.0110453090263
469.77176336706634
169.67350951201266
158.5225181414521
457.2505062631628
1842.5894337936436
601.441410202976
615.0098085106315
1857.4432102321205
2751.858736398802
911.0317797230713
929.3032874421334
2772.8078962006634
4525.20898591004
1503.7372951950583
1502.0584205831153
4524.498910668324
4089.216443487501
1364.7996907704048
1346.152725040316
4069.4671902808623
2434.875590908481
803.8955876989326
828.9933027400348
2461.8052453651603
1598.8396108063805
523.2458913131977
531.3401899376078
1608.063877128576
344.3543728289254
127.0453678820163
132.10172122929055
350.76245734326767
1018.2314031384446
334.44209339836317
346.67511659551934
1029.589636375817
2579.499046315014
845.7240368299427
859.1261516555452
2591.975304697302
4172.716928698922
1378.4333149275412
1359.245907388494
4152.09494657736
5145.574239171456
1683.7901738191972
1711.3874431934419
5174.052424916048
5402.310140858683
1787.214226357885
1754.7633268536583
5367.553176207808
5612.828805858618
1847.5066670250148
1853.9358923480147
5619.217185398482
5363.70298555609
1764.660433084459
1761.8265315216684
5359.582765132837
5169.942821427864
1700.9904722839633
1700.5762816625984
5168.921669780445
4169.41381296514
1372.9459170419252
1367.1189479527436
4162.783735180819
2580.424663319965
845.7736182493798
860.2027403485516
2594.332493291959
1024.4648233222044
343.6148289769173
334.25865440629883
1013.5055936435601
347.15541958099044
133.15624700364594
122.16166876362996
334.6243508396758
1589.0491371039943
520.9206375290863
526.4625185684041
1596.0783026906756
2473.8439237845996
833.2066277938063
808.0350270706242
2447.933034206148
4077.9508934773303
1360.5674278094677
1343.541821228803
4060.0562444218253
3472.1940710136987
1154.6857360263282
1154.1917561211412
3471.3835256024618
2051.5389475523007
683.9728919655023
687.7388595941975
2055.5600933392084
1306.1460560268026
428.1245696418742
433.9524635354273
1313.4416691279173
287.405779600462
114.25074325550946
109.03752381489643
281.72965837137457
803.9908132458046
282.04639381526994
245.6534889895254
763.9103753889345
1836.7016826202944
606.354122575008
607.5774694512436
1836.7474669823175
2583.472878041804
851.7977065754089
850.9815512474202
2581.742249866476
2890.7192742180882
954.2614512580116
945.4550319314314
2880.4104087006804
2971.629583158055
971.1130876893458
984.1401792096191
2984.4418059427985
2950.3621690482696
980.9182239288498
963.7675523729823
2930.9517021512634
2985.7455557534067
976.9458766743675
986.4222104254058
2995.0029239585156
2887.0881478872116
950.5614657262636
949.4877044706379
2885.170901500244
2587.2696567650155
852.1299464350972
854.0433154111923
2588.220012680053
1848.1440573839916
615.7750517699342
599.8970501231764
1830.624613740527
795.940371649823
267.9283713516915
267.3270196508627
794.4886299951547
275.0331263323065
104.61740109353376
117.98756890269925
292.7232496443369
1324.441906096233
444.6114724312227
418.6394846730701
1298.6152055917098
2048.782398845135
682.9594667827306
687.0179791604706
2053.9773631357903
3485.327672100395
1156.8863766532847
1163.0958124183705
3492.2071873980726
2763.695832182131
916.578185481011
926.9070022836939
2774.797024380835
1653.8342840706464
558.2688123575342
541.7618716302
1636.3342207928665
1099.1486109965201
362.63326276298403
360.7566980407282
1097.938609979014
371.298935347235
139.14688374649083
121.71836348278262
351.37506202313693
316.8384660382806
113.19775156299269
119.11302871025244
323.40536353941627
782.9129455173046
259.82917822013655
271.3144234067662
794.8298258223512
1013.9991406708621
336.47267489111925
338.6895842964395
1015.5401863617147
1051.0835977021097
340.770320463652
360.67322724160476
1071.4271593830467
1016.539293067252
330.9611192271402
343.90373885003453
1029.30427831432
1024.6467289890813
338.94183172287904
328.3226988337915
1012.7740309856767
1025.7062826931676
341.5152942835153
332.0105998374516
1015.4844287534105
1076.7491284486678
351.22283775088425
365.02764554229213
1091.1842074241536
997.0430886575039
321.90724906796413
351.9381170730111
1028.7881129219734
795.3860858933319
271.9146837709358
258.5483671107821
780.3670817694498
330.1393312082824
122.8824551560974
110.52211251125814
314.7744733241608
374.0536297361428
142.11403237375967
119.58530406401324
349.36180766803767
1093.9721300539275
358.2733587167319
364.22754770049244
1100.5081616531138
1650.508572409182
554.6020316711282
545.8522341701646
1641.1020842296261
2767.892718250484
913.2129131435489
937.6454232874555
2793.473651815024
2035.4164455945786
677.7431727530588
680.5741410545295
2038.7814433121048
1235.6306445980988
403.70977242205504
433.580399807147
1267.5948330177341
939.3066897526155
310.0682605627519
310.1110316016854
939.1311355027914
570.1365170879213
192.5541707777208
198.78463700117427
576.8923705447427
355.5691626837561
130.08290519365644
125.46222681288566
350.4558268939977
283.29146470244626
109.00155976573788
116.4644204485017
292.8058277663759
333.19095647118905
122.97030861516711
130.7865550471481
343.4637058486351
463.7417590077061
161.85567022936849
169.52507464936073
473.6305197724611
554.9267370457708
186.25933679391736
203.34466298392164
574.2902041930964
628.4719689411206
220.89363566531532
209.13644391728937
616.2250066243881
578.4372100747042
197.4657229410004
202.28962880479034
583.6389359153177
463.3731862268778
165.05412743204414
162.15635269286673
460.57310728646354
327.25121531060057
115.62842145139093
141.1713578863303
359.06799072131037
300.68428894470594
121.74480021160306
105.8205513324862
281.86202753846584
374.2934528442445
137.37993160862607
128.5072361168862
364.81612776198205
563.7863196011757
186.8843030702276
204.92648499022377
584.348703484124
946.11844816997
313.67376502008705
309.71647819434713
942.3932910560617
1259.603002876064
425.09806246970925
412.9557355918878
1246.1411173581787
2038.3039706520124
682.2607178072863
673.9708925452293
2028.8837167161112
1348.3787130066619
455.01214105642174
440.3470150562125
1332.6666385094259
957.1308272843481
330.93785451709766
295.12132679230564
917.8011866822898
911.5772442046036
295.20266996474027
307.22176477863627
922.8300866984877
935.8763802636441
306.33536297194723
314.38571222980306
944.3398390858076
1092.0154503758263
354.64615652256214
370.0856789178465
1109.4467807661613
1327.3489095764871
438.0886158525697
434.3687418581068
1323.9610983091457
1585.4756649839844
521.8071307070321
520.9513159417396
1585.7611669771218
1833.0347741937444
596.4211657625549
616.3652241832125
1856.0323315329467
2017.0079709041854
669.2550817032225
650.8319831448173
1998.9089089937747
2057.8541744580502
672.4011671306457
685.1596900148336
2071.91106229936
2018.9748162273252
668.9268960369419
653.1164009686593
2002.8654744591256
1838.0379248742445
603.2000530141406
607.2895887951368
1843.9277326381764
1570.0268202659624
508.44616587697845
533.0609829617033
1597.4570125423277
1328.5225194251836
440.656107010782
430.4118079162237
1318.4257680875821
1094.2854501456648
361.76403140433933
357.39054706653786
1090.0132742191386
938.4176111878209
308.09383365243895
313.4946148815785
944.7775751720596
927.6963344982652
302.3915422214477
309.75383580797546
936.017780810071
950.2226795265452
323.5892756467255
304.02560989394647
929.7330689419347
1327.57529106965
440.3932505784556
449.43155101088604
1337.2035799272921
735.531793178821
253.2136890508463
239.14562570275692
720.6737339967502
710.06072293419
240.97265445578748
226.34461623974767
694.4530174144134
930.0058805648268
299.8133435586343
332.8435271911284
965.2055238466822
1274.4590868096589
429.7633122011443
418.9562814897907
1264.4608514099211
1642.0234399724907
551.2697606671807
545.2622019750071
1637.856964989525
2064.291583224266
689.0743223046678
689.6774213473069
2065.6738852053577
2460.238331952833
822.7200295248737
815.3713571004467
2452.6034312034926
2782.584689052548
928.8849798384285
923.4153312501404
2778.9333917255094
2971.5668834651015
989.6234942329647
989.2955020396297
2973.3857385902447
3051.639889058516
1010.8710288962958
1026.0416935972721
3068.30652886817
2970.3268300876043
993.2991540413376
979.7571838125418
2956.6877793034055
2767.6160094485617
915.8313340123929
935.1714590995384
2789.5707615714687
2469.434818237467
831.3031155937305
807.1093734409054
2444.0150022273688
2076.5259941448217
694.4455006785279
690.7986876144387
2072.9270019040164
1625.8100563664145
540.8899759904634
550.3818501155167
1637.2592832209643
1246.4439072638997
415.1644758013049
421.06464574618457
1253.7865378260367
965.8640729072004
329.45398328953644
307.01338473571474
942.0974077349423
678.4833918865023
212.43086421325918
253.82511517694388
722.6149612842347
766.4552202713805
265.68116534594435
244.33774227169008
743.1651018489666
387.3877399579653
126.7274450194381
135.35979851329833
397.20834669009054
733.5476515206128
238.5274768478545
267.87449640565393
765.8434659482443
1342.7925992245625
455.8201503876806
433.57297882106536
1320.1614910001126
2043.7501566478538
679.9574127800857
684.3531760888789
2048.607382128798
2768.9875074633756
916.9967502768142
931.0114933007809
2783.7772667849495
3487.5619256399855
1164.477437384805
1149.4473219371323
3471.9888181840506
4076.494863409433
1354.3581584571198
1354.7333717031395
4076.8477494739923
4516.195515843639
1494.9847932017137
1510.8099822010179
4533.68281991313
4832.801544903963
1609.385222276191
1595.3586763322915
4818.378821145629
4920.568543121066
1637.283767241678
1626.8332024273227
4909.891205146733
4821.857646887596
1597.0578285889007
1610.226927214299
4837.218813154409
4537.510607757165
1509.8610589793714
1501.5995782462396
4529.561718852911
4063.305839680937
1352.414930395676
1345.5216610627037
4056.111798484669
3468.032760014047
1145.7277955998256
1168.6865412606794
3493.0549988420366
2777.3490428988916
928.5368412000453
916.4715969596872
2765.612787774789
2041.8509356902646
682.2780158980161
678.2495912667299
2038.6255110558582
1341.0500343026695
446.7349067390625
449.81087548986534
1344.216480335394
738.3644120603353
245.08888315808707
257.9715086174866
751.6077376939825
420.00669490865494
145.91862647577318
127.7911457088978
399.9155500166232
