# vtk DataFile Version 2.0
Generated Volume Mesh
ASCII
DATASET UNSTRUCTURED_GRID
POINTS 177 float
0.0 -0.009999999776482582 0.0
0.05999999865889549 -0.009999999776482582 0.0
0.05999999865889549 0.009999999776482582 0.0
0.0 0.009999999776482582 0.0
0.004999999888241291 -0.009999999776482582 0.0
0.009999999776482582 -0.009999999776482582 0.0
0.014999999664723873 -0.009999999776482582 0.0
0.019999999552965164 -0.009999999776482582 0.0
0.02500000037252903 -0.009999999776482582 0.0
0.029999999329447746 -0.009999999776482582 0.0
0.03500000014901161 -0.009999999776482582 0.0
0.03999999910593033 -0.009999999776482582 0.0
0.04500000178813934 -0.009999999776482582 0.0
0.05000000074505806 -0.009999999776482582 0.0
0.054999999701976776 -0.009999999776482582 0.0
0.0024999999441206455 -0.009999999776482582 0.0
0.007499999832361937 -0.009999999776482582 0.0
0.012500000186264515 -0.009999999776482582 0.0
0.017500000074505806 -0.009999999776482582 0.0
0.02250000089406967 -0.009999999776482582 0.0
0.027499999850988388 -0.009999999776482582 0.0
0.032499998807907104 -0.009999999776482582 0.0
0.03750000149011612 -0.009999999776482582 0.0
0.042500000447034836 -0.009999999776482582 0.0
0.04749999940395355 -0.009999999776482582 0.0
0.05249999836087227 -0.009999999776482582 0.0
0.057500001043081284 -0.009999999776482582 0.0
0.05999999865889549 -0.004999999888241291 0.0
0.05999999865889549 -2.538941279439655e-14 0.0
0.05999999865889549 0.004999999888241291 0.0
0.05999999865889549 -0.007499999832361937 0.0
0.05999999865889549 -0.0024999999441206455 0.0
0.05999999865889549 0.0024999999441206455 0.0
0.05999999865889549 0.007499999832361937 0.0
0.054999999701976776 0.009999999776482582 0.0
0.05000000074505806 0.009999999776482582 0.0
0.04500000178813934 0.009999999776482582 0.0
0.03999999910593033 0.009999999776482582 0.0
0.03500000014901161 0.009999999776482582 0.0
0.029999999329447746 0.009999999776482582 0.0
0.02500000037252903 0.009999999776482582 0.0
0.019999999552965164 0.009999999776482582 0.0
0.014999999664723873 0.009999999776482582 0.0
0.009999999776482582 0.009999999776482582 0.0
0.004999999888241291 0.009999999776482582 0.0
0.057500001043081284 0.009999999776482582 0.0
0.05249999836087227 0.009999999776482582 0.0
0.04749999940395355 0.009999999776482582 0.0
0.042500000447034836 0.009999999776482582 0.0
0.03750000149011612 0.009999999776482582 0.0
0.032499998807907104 0.009999999776482582 0.0
0.027499999850988388 0.009999999776482582 0.0
0.02250000089406967 0.009999999776482582 0.0
0.017500000074505806 0.009999999776482582 0.0
0.012500000186264515 0.009999999776482582 0.0
0.007499999832361937 0.009999999776482582 0.0
0.0024999999441206455 0.009999999776482582 0.0
0.0 0.004999999888241291 0.0
0.0 2.538941279439655e-14 0.0
0.0 -0.004999999888241291 0.0
0.0 0.007499999832361937 0.0
0.0 0.0024999999441206455 0.0
0.0 -0.0024999999441206455 0.0
0.0 -0.007499999832361937 0.0
0.004999999888241291 -0.004999999888241291 0.0
0.004999999888241291 2.1157554874751128e-14 0.0
0.004999999888241291 0.004999999888241291 0.0
0.009999999776482582 -0.004999999888241291 0.0
0.009999999776482582 1.6926564316843695e-14 0.0
0.009999999776482582 0.004999999888241291 0.0
0.014999999664723873 -0.004999999888241291 0.0
0.014999999664723873 1.2694706397198274e-14 0.0
0.014999999664723873 0.004999999888241291 0.0
0.019999999552965164 -0.004999999888241291 0.0
0.019999999552965164 8.462848477552853e-15 0.0
0.019999999552965164 0.004999999888241291 0.0
0.02500000037252903 -0.004999999888241291 0.0
0.02500000037252903 4.231857919645421e-15 0.0
0.02500000037252903 0.004999999888241291 0.0
0.029999999329447746 -0.004999999888241291 0.0
0.029999999329447746 0.0 0.0
0.029999999329447746 0.004999999888241291 0.0
0.03500000014901161 -0.004999999888241291 0.0
0.03500000014901161 -4.231857919645421e-15 0.0
0.03500000014901161 0.004999999888241291 0.0
0.03999999910593033 -0.004999999888241291 0.0
0.03999999910593033 -8.462848477552853e-15 0.0
0.03999999910593033 0.004999999888241291 0.0
0.04500000178813934 -0.004999999888241291 0.0
0.04500000178813934 -1.2694706397198274e-14 0.0
0.04500000178813934 0.004999999888241291 0.0
0.05000000074505806 -0.004999999888241291 0.0
0.05000000074505806 -1.692623905619195e-14 0.0
0.05000000074505806 0.004999999888241291 0.0
0.054999999701976776 -0.004999999888241291 0.0
0.054999999701976776 -2.1157663294968376e-14 0.0
0.054999999701976776 0.004999999888241291 0.0
0.004999999888241291 -0.007499999832361937 0.0
0.0024999999441206455 -0.004999999888241291 0.0
0.004999999888241291 -0.0024999999441206455 0.0
0.0024999999441206455 2.3273483834573838e-14 0.0
0.004999999888241291 0.0024999999441206455 0.0
0.0024999999441206455 0.004999999888241291 0.0
0.004999999888241291 0.007499999832361937 0.0
0.009999999776482582 -0.007499999832361937 0.0
0.007499999832361937 -0.004999999888241291 0.0
0.009999999776482582 -0.0024999999441206455 0.0
0.007499999832361937 1.904205959579741e-14 0.0
0.009999999776482582 0.0024999999441206455 0.0
0.007499999832361937 0.004999999888241291 0.0
0.009999999776482582 0.007499999832361937 0.0
0.014999999664723873 -0.007499999832361937 0.0
0.012500000186264515 -0.004999999888241291 0.0
0.014999999664723873 -0.0024999999441206455 0.0
0.012500000186264515 1.4810635357020985e-14 0.0
0.014999999664723873 0.0024999999441206455 0.0
0.012500000186264515 0.004999999888241291 0.0
0.014999999664723873 0.007499999832361937 0.0
0.019999999552965164 -0.007499999832361937 0.0
0.017500000074505806 -0.004999999888241291 0.0
0.019999999552965164 -0.0024999999441206455 0.0
0.017500000074505806 1.0578777437375564e-14 0.0
0.019999999552965164 0.0024999999441206455 0.0
0.017500000074505806 0.004999999888241291 0.0
0.019999999552965164 0.007499999832361937 0.0
0.02500000037252903 -0.007499999832361937 0.0
0.02250000089406967 -0.004999999888241291 0.0
0.02500000037252903 -0.0024999999441206455 0.0
0.02250000089406967 6.347353198599137e-15 0.0
0.02500000037252903 0.0024999999441206455 0.0
0.02250000089406967 0.004999999888241291 0.0
0.02500000037252903 0.007499999832361937 0.0
0.029999999329447746 -0.007499999832361937 0.0
0.027499999850988388 -0.004999999888241291 0.0
0.029999999329447746 -0.0024999999441206455 0.0
0.027499999850988388 2.1159289598227105e-15 0.0
0.029999999329447746 0.0024999999441206455 0.0
0.027499999850988388 0.004999999888241291 0.0
0.029999999329447746 0.007499999832361937 0.0
0.03500000014901161 -0.007499999832361937 0.0
0.032499998807907104 -0.004999999888241291 0.0
0.03500000014901161 -0.0024999999441206455 0.0
0.032499998807907104 -2.1159289598227105e-15 0.0
0.03500000014901161 0.0024999999441206455 0.0
0.032499998807907104 0.004999999888241291 0.0
0.03500000014901161 0.007499999832361937 0.0
0.03999999910593033 -0.007499999832361937 0.0
0.03750000149011612 -0.004999999888241291 0.0
0.03999999910593033 -0.0024999999441206455 0.0
0.03750000149011612 -6.347353198599137e-15 0.0
0.03999999910593033 0.0024999999441206455 0.0
0.03750000149011612 0.004999999888241291 0.0
0.03999999910593033 0.007499999832361937 0.0
0.04500000178813934 -0.007499999832361937 0.0
0.042500000447034836 -0.004999999888241291 0.0
0.04500000178813934 -0.0024999999441206455 0.0
0.042500000447034836 -1.0578777437375564e-14 0.0
0.04500000178813934 0.0024999999441206455 0.0
0.042500000447034836 0.004999999888241291 0.0
0.04500000178813934 0.007499999832361937 0.0
0.05000000074505806 -0.007499999832361937 0.0
0.04749999940395355 -0.004999999888241291 0.0
0.05000000074505806 -0.0024999999441206455 0.0
0.04749999940395355 -1.4810472726695112e-14 0.0
0.05000000074505806 0.0024999999441206455 0.0
0.04749999940395355 0.004999999888241291 0.0
0.05000000074505806 0.007499999832361937 0.0
0.054999999701976776 -0.007499999832361937 0.0
0.05249999836087227 -0.004999999888241291 0.0
0.054999999701976776 -0.0024999999441206455 0.0
0.05249999836087227 -1.9041951175580163e-14 0.0
0.054999999701976776 0.0024999999441206455 0.0
0.05249999836087227 0.004999999888241291 0.0
0.054999999701976776 0.007499999832361937 0.0
0.057500001043081284 -0.004999999888241291 0.0
0.057500001043081284 -2.3273538044682462e-14 0.0
0.057500001043081284 0.004999999888241291 0.0
CELLS 48 432
8 0 4 64 59 15 97 98 63
8 59 64 65 58 98 99 100 62
8 58 65 66 57 100 101 102 61
8 57 66 44 3 102 103 56 60
8 4 5 67 64 16 104 105 97
8 64 67 68 65 105 106 107 99
8 65 68 69 66 107 108 109 101
8 66 69 43 44 109 110 55 103
8 5 6 70 67 17 111 112 104
8 67 70 71 68 112 113 114 106
8 68 71 72 69 114 115 116 108
8 69 72 42 43 116 117 54 110
8 6 7 73 70 18 118 119 111
8 70 73 74 71 119 120 121 113
8 71 74 75 72 121 122 123 115
8 72 75 41 42 123 124 53 117
8 7 8 76 73 19 125 126 118
8 73 76 77 74 126 127 128 120
8 74 77 78 75 128 129 130 122
8 75 78 40 41 130 131 52 124
8 8 9 79 76 20 132 133 125
8 76 79 80 77 133 134 135 127
8 77 80 81 78 135 136 137 129
8 78 81 39 40 137 138 51 131
8 9 10 82 79 21 139 140 132
8 79 82 83 80 140 141 142 134
8 80 83 84 81 142 143 144 136
8 81 84 38 39 144 145 50 138
8 10 11 85 82 22 146 147 139
8 82 85 86 83 147 148 149 141
8 83 86 87 84 149 150 151 143
8 84 87 37 38 151 152 49 145
8 11 12 88 85 23 153 154 146
8 85 88 89 86 154 155 156 148
8 86 89 90 87 156 157 158 150
8 87 90 36 37 158 159 48 152
8 12 13 91 88 24 160 161 153
8 88 91 92 89 161 162 163 155
8 89 92 93 90 163 164 165 157
8 90 93 35 36 165 166 47 159
8 13 14 94 91 25 167 168 160
8 91 94 95 92 168 169 170 162
8 92 95 96 93 170 171 172 164
8 93 96 34 35 172 173 46 166
8 14 1 27 94 26 30 174 167
8 94 27 28 95 174 31 175 169
8 95 28 29 96 175 32 176 171
8 96 29 2 34 176 33 45 173
CELL_TYPES 48
23
23
23
23
23
23
23
23
23
23
23
23
23
23
23
23
23
23
23
23
23
23
23
23
23
23
23
23
23
23
23
23
23
23
23
23
23
23
23
23
23
23
23
23
23
23
23
23
POINT_DATA 177
SCALARS stress11 float
LOOKUP_TABLE default
285391.83302521706
-80912229.00655937
80911986.0103283
-286378.3818809986
-3014202.4031779766
-11330926.203565925
-17956516.53246355
-23913026.389113188
-29875689.992671013
-35822832.27522802
-41768791.27129555
-47717156.13468456
-53585641.43109226
-58779939.99020767
-65404548.6744442
-1238763.4649546146
-7752037.771947622
-14760324.81970042
-20907205.066185474
-26897042.946266174
-32845697.44556904
-38795602.19055748
-44735730.11883354
-50669046.49649906
-56398565.44453716
-60868933.17873573
-72025442.29037476
-31574043.016853333
-141.1638298034668
31573694.17306137
-54917533.99078941
-14881822.978162766
14881538.96055603
54917148.513277054
65404330.96531868
58779559.61567688
53585345.34671497
47716633.39131355
41769016.42409611
35823334.92654991
29875819.03083992
23913091.29107952
17956404.39742589
11331160.5858289
3014214.050195217
72024939.4012909
60868571.25078964
56398318.83288288
50668376.06871128
44735597.18932533
38795644.059988976
32845928.589367867
26896642.88137245
20907007.24026227
14760469.957909703
7752152.713732958
1237571.5936000347
275636.05822086334
-207.6745524406433
-274858.205283165
-1480126.7775669098
7758576.161118031
-7757926.271088123
1480317.2181487083
-5583750.268707514
-381.4400670528412
5583719.1564490795
-6269466.8373885155
264.8367005586624
6269324.682237148
-9055318.919675112
-201.31309205293655
9055563.21344924
-11998166.111467123
462.94029712677
11998578.816719055
-15004716.176403046
146.16943502426147
15005551.540889263
-18005997.393088818
-4.834415912628174
18006185.496814728
-21007558.73534584
-102.97335815429688
21007544.870894432
-24007767.600458145
17.102368354797363
24007652.725297928
-27056504.518380165
-75.42671298980713
27056251.469604492
-30298824.607019424
-139.4302864074707
30298625.657432556
-34640721.805490494
-122.97395515441895
34640403.396261215
-4073460.913433552
-2105657.864631653
-3806260.1448936462
-286.9509029388428
3805512.1328265667
2105791.6488084793
4073679.190478325
-8909008.433024168
-5184965.590560913
-3820064.6540397406
-37.474058389663696
3820387.2286798954
5184909.939288616
8908758.343375564
-13442818.857784867
-7758613.024400979
-4572224.228787661
158.61585199832916
4572000.563154101
7758369.1491653025
13442958.809592009
-18002405.256109953
-10521747.767831564
-6014685.145608187
103.99421060085297
6015557.879251003
10522281.553295493
18002446.120123863
-22501278.298386574
-13508255.167111874
-7500005.0815291405
235.81028175354004
7500320.681005478
13508549.945942879
22501719.092428207
-27003657.169768333
-16504796.69431591
-9001605.472061157
103.70575952529907
9001746.368752956
16505234.391829014
27003715.9535141
-31504989.987416267
-19507079.9583683
-10500385.487415314
-89.80307674407959
10500199.075872421
19507003.0130167
31505057.556430817
-35990878.86760712
-22511175.879476547
-12023056.258691788
-25.2011137008667
12023107.592882156
22510964.12111473
35990614.74420929
-40500521.24081421
-25518836.498823166
-13499231.583374023
-47.29812812805176
13499032.342206001
25518663.023952484
40500359.10608864
-45247136.93704033
-28717291.4272871
-15340657.786523819
-98.63536167144775
15340464.877742767
28717120.375641823
45246857.61598587
-49963044.96559334
-31664850.850860596
-16878786.577251434
-123.98774528503418
16878451.66558647
31664521.7131958
49962631.11327171
-32209862.04206276
-120.34767723083496
32209557.040872574
SCALARS stress22 float
LOOKUP_TABLE default
2048838.835707903
-30274595.144088745
30274436.40820694
-2047764.8926563263
407758.04932558537
92494.76109755039
-76680.22368240356
-4984.829412460327
-22941.173221588135
-26175.992441177368
-26458.261547088623
-82090.78430175781
75602.85359954834
-475979.99228286743
1379012.0567054749
-451160.06252765656
794.2549780607224
-17093.3775742054
-25184.46559715271
-14614.479610443115
-23836.344638824463
-26008.069528579712
-53103.96572494507
3895.8168964385986
-409477.0526008606
1675056.124988556
-8338224.816730499
-12414073.170028687
-71.92238235473633
12413883.221572876
-21178846.813468933
-6194080.298404694
6193944.997028351
21178671.502830505
-1378888.0248146057
475778.84900283813
-75646.30249404907
82080.23941993713
26768.059356689453
26713.418384552002
22919.13665008545
7094.351190567017
76154.7246260643
-91459.96037018299
-409769.1789755821
8338176.638011932
-1675073.3388786316
409432.29555130005
-4186.723545074463
53298.74641227722
26038.192987442017
23578.497898101807
14673.554445266724
26157.693902015686
17500.83014678955
-1767.220780968666
449304.17394018173
7816990.311491966
-323.154088973999
-7814659.882839203
243487.1868338585
20536639.221387863
-20535174.253647804
-241667.97527837753
-898125.443295002
1021.3739905357361
900815.3032007217
523337.38934093714
300.6752828359604
-521703.63624197245
80890.36540222168
1511.0818355083466
-80749.31790208817
19855.908401489258
-309.1348123550415
-19847.010192871094
795.7864627838135
-360.4742841720581
318.0009717941284
342.8803234100342
497.95084381103516
35.707801818847656
1320.2847709655762
451.47534370422363
-453.00154304504395
15197.705142974854
67.2594051361084
-14895.257656097412
31724.31785964966
79.83137893676758
-31706.47487258911
354798.7301597595
15.127784729003906
-354773.0422592163
-3057869.571117401
44.465843200683594
3057949.778945923
178476.08886027336
-1363710.3598146439
-222374.06518650055
378.874990940094
223903.0727596283
1365895.4140872955
-177836.60955238342
105685.86039632559
201080.48526263237
108467.29624569416
813.0486643314362
-107074.6979585886
-198854.59665441513
-104655.53795266151
55974.9046626091
242532.54470980167
76170.6885547638
1124.8228398561478
-74813.84437417984
-242079.5870989561
-56215.93928146362
4527.639470100403
32439.60686826706
7515.548282623291
511.4779853820801
-7335.569585800171
-32089.035706996918
-4338.159220695496
835.3467712402344
4585.486991882324
1165.3900060653687
-422.3385601043701
-1511.6225061416626
-4342.36616230011
-324.64426040649414
-752.1274681091309
632.3077640533447
-283.1292381286621
68.95247459411621
1167.2605171203613
-43.983259201049805
610.7809982299805
771.1990451812744
-128.05812072753906
1712.5078449249268
524.0843143463135
-938.5278873443604
500.54664611816406
-322.3180751800537
1814.5392303466797
7632.380661010742
2270.588779449463
117.07218170166016
-1808.775333404541
-7168.20888710022
-1522.3277168273926
50042.387508392334
3689.815553665161
60018.65317153931
134.46090507507324
-59881.429054260254
-3494.184066772461
-49887.3000793457
-52192.44339752197
239456.30417633057
-58213.80097961426
77.34624862670898
58316.59889602661
-239310.0821685791
52182.57466888428
-1136490.4096946716
-700514.7695808411
-852435.2198600769
49.77018737792969
852355.0450057983
700573.4841308594
1136414.5197906494
-4184301.2255096436
-13.155643463134766
4184298.6324386597
SCALARS stress12 float
LOOKUP_TABLE default
-761119.6370269135
15186622.037004352
15186563.169621825
-762356.9484502524
744838.3471189961
432170.0240330994
408180.35203902423
357479.8280875012
361193.2431979701
362344.4206038788
368760.1751042381
372020.9962634258
389139.66573658586
102691.20980469882
-155503.04979741573
204581.9626184553
588717.7689710632
327109.92913169414
297987.1483144462
287242.17299506813
289259.6148344949
292397.66710976884
300859.867872484
295895.26058074087
340921.87646630406
-220033.3635642454
6889787.14820388
1815000.544813715
-985120.3595784158
1814953.5755039006
8217485.840017676
-381126.1867241934
-381137.2116979733
8217422.55089201
-155399.57300242782
102683.95426096022
389193.9551254809
371996.9491658099
369060.1853523068
362608.00632087886
361291.750909362
357327.26155050844
408567.379188098
432440.32369244844
745002.4717294127
6889796.533317044
-219993.11599178612
340829.9729876071
295856.4535084367
300878.8377137147
292527.61013350263
289323.39365198463
287100.37936299294
297923.9701038301
327177.53514187783
588296.8482243791
204141.70989765972
1892793.7903875783
13498991.193481386
1892535.8155169338
-164939.38726340234
7795032.658511408
7794849.982211724
-164284.49981179833
5929883.412376314
3437906.180874862
5929792.0790769085
4876519.2472601235
5557611.045111977
4876294.488119885
4694198.22941038
6056777.195434332
4693969.710285105
4656680.289396435
6149280.1737154275
4656576.3200265765
4653279.742973156
6158554.7746910155
4653406.598178357
4652638.390590243
6157847.112773888
4652817.372472703
4652517.578506265
6158458.149258107
4652496.828715328
4646822.564912289
6162654.050194658
4646849.2010747865
4623477.387521435
6249420.430952158
4623533.656576395
4677178.370596945
6283160.959069684
4677209.35832243
5488308.516191572
5874250.273264788
5488323.954731554
3279346.793857008
4310799.254824549
4662169.636087567
7725608.801594652
4662114.0874534175
4310931.2027691975
3279269.9770952687
2838878.227010995
4874051.833060443
5358095.488791496
4841465.526013389
5357941.972827904
4873716.393749252
2838861.61895895
2620036.598202318
4683333.540698081
5503101.541904241
5821741.8586392775
5502940.168463811
4683450.846080698
2620118.873001002
2570293.6999215335
4574807.764719769
5561163.654152513
6014199.982872501
5561088.561631255
4574271.379728757
2570053.654501766
2563365.7595225275
4566133.7240514755
5563087.085877664
6064580.610452503
5563197.72356572
4566080.271926478
2563504.5607838742
2563586.9162494726
4562263.886092879
5563572.061410662
6066091.032419167
5563590.005189311
4562585.666922558
2563680.614114631
2561689.524633661
4561663.3421783
5562859.984201267
6066221.083850931
5562897.365838144
4561674.3602142185
2561775.9039722793
2563975.379988119
4562491.00822264
5567159.254748598
6069982.009277802
5567182.727541387
4562459.120801177
2563947.8246657364
2502055.119918853
4539844.989927664
5596933.975116551
6097612.444614682
5596968.033831101
4539806.27599242
2502087.1366118714
2472163.3353940398
4564736.309860155
5716303.606838629
6186812.28288891
5716318.35083445
4564790.545792703
2472186.724869378
2514463.3825708777
4669658.963293061
5385035.632567182
6104654.678520743
5385034.89727883
4669687.958836079
2514469.770542279
3837012.4371184856
2774782.3783975244
3837010.702515565
SCALARS strain11 float
LOOKUP_TABLE default
-5.39340554853553e-07
-6.182303747230694e-05
6.182287462998602e-05
5.38023980343875e-07
-2.9019498596347722e-06
-1.0347215406722259e-05
-1.631052470442917e-05
-2.1758909027965942e-05
-2.7177930258417472e-05
-3.258856540370558e-05
-3.7999279965830724e-05
-4.3390595523364566e-05
-4.879241592923634e-05
-5.330411506605614e-05
-6.00559574800293e-05
-9.513222816959167e-07
-7.054663628738812e-06
-1.3425228304338285e-05
-1.901573515752182e-05
-2.4470609900089377e-05
-2.988028943755875e-05
-3.529385466086212e-05
-4.068880430367424e-05
-4.6110353879530176e-05
-5.1162997210716464e-05
-5.604399601221319e-05
-6.229123996746645e-05
-2.3890891635009115e-05
-1.0040605010559669e-10
2.3890645925224823e-05
-4.171520748183167e-05
-1.112676763772212e-05
1.1126560995897524e-05
4.1714920708091704e-05
6.0055705924714293e-05
5.330384754525548e-05
4.8792167683834106e-05
4.33901237996007e-05
3.799936532041602e-05
3.25888174363634e-05
2.7178057588268724e-05
2.1758145611671027e-05
1.6310628216235608e-05
1.0347025324218486e-05
2.902744763208509e-06
6.229080502778066e-05
5.604368169130306e-05
5.1162794984960493e-05
4.6109853021042476e-05
4.0688607748560774e-05
3.52938801591454e-05
2.988059958680927e-05
2.447022197209431e-05
1.9015175384736783e-05
1.342520249100255e-05
7.0551484227591695e-06
9.509615388903891e-07
-2.797797407405752e-06
-6.35568505377021e-11
2.7975966175332843e-06
-1.441875416351851e-06
-9.489857815110723e-07
9.490051895757459e-07
1.4413391088993017e-06
-4.7309436244839884e-06
-7.454075693280257e-10
4.7298664710042956e-06
-5.909316239268185e-06
1.237452737935102e-10
5.90854994212916e-06
-8.271887263373683e-06
-7.725010700565527e-10
8.272055260933123e-06
-1.092607490452293e-05
5.418394395271739e-10
1.092644640755835e-05
-1.3654601873258306e-05
2.7362837045014424e-10
1.3654927986341242e-05
-1.6385590900380004e-05
-1.9862493057633615e-10
1.638561489442124e-05
-1.9117392873726797e-05
-2.697799661346544e-10
1.911704308161987e-05
-2.1852996081149414e-05
-1.0721137817587198e-11
2.185277349546529e-05
-2.4633792418603316e-05
-9.969001156257679e-11
2.4633554243043854e-05
-2.771030160889055e-05
-1.327316245195581e-10
2.771010940497751e-05
-3.0330488606828204e-05
-1.2931508390956383e-10
3.0330166378331294e-05
-3.7764553212910187e-06
-1.384301504280417e-06
-3.376970933529678e-06
-4.0888525876768556e-10
3.3756938179864762e-06
1.3835712718806951e-06
3.7764043661854324e-06
-8.148415595213981e-06
-4.7967399115499436e-06
-3.5185610396641512e-06
-3.5122131093225095e-10
3.518311471684913e-06
4.795821370057727e-06
8.147785780350525e-06
-1.2254794948506173e-05
-7.154925583826807e-06
-4.190430524337696e-06
-2.943398573918704e-10
4.189697658790151e-06
7.154526521079441e-06
1.22550163422216e-05
-1.6383954508056384e-05
-9.587442165046684e-06
-5.476294571039354e-06
-1.0487987279865496e-10
5.477018337470257e-06
9.58779060296626e-06
1.6383917596338995e-05
-2.047648948205733e-05
-1.229430107615667e-05
-6.82545871329485e-06
3.7919594455529046e-10
6.825881025976962e-06
1.2294474170623164e-05
2.047669102628807e-05
-2.457303459315615e-05
-1.5019611548942034e-05
-8.191350770201788e-06
6.744660055067395e-11
8.19113330262312e-06
1.5019780651783356e-05
2.457314262866784e-05
-2.8669840375588175e-05
-1.775139209672259e-05
-9.556018746276776e-06
-2.8611619025615057e-10
9.555546706993708e-06
1.775117622560045e-05
2.8669727770796257e-05
-3.275240900933892e-05
-2.0488145111015256e-05
-1.0941866485622906e-05
-6.846691470068292e-11
1.0941733072891496e-05
2.048777319586673e-05
3.275205470627094e-05
-3.687498948012105e-05
-2.3223579352187594e-05
-1.2307708351867806e-05
-9.550459980690353e-11
1.2307473113993609e-05
2.322334628525861e-05
3.687478249584801e-05
-4.115454019673967e-05
-2.6226122315397356e-05
-1.3937295590765947e-05
-1.1998009478834427e-10
1.3937079108196199e-05
2.6225912178210083e-05
4.115428859759232e-05
-4.502313892342056e-05
-2.8541812721653305e-05
-1.5027246052529619e-05
-1.3213536991326822e-10
1.5026972664870191e-05
2.854149188469292e-05
4.5022793336828065e-05
-2.7679094464362402e-05
-1.0448391186534262e-10
2.7678821584192932e-05
SCALARS strain22 float
LOOKUP_TABLE default
1.7531405478275622e-06
4.005889832799092e-06
-4.005936311293756e-06
-1.7517784792018144e-06
1.5465988851159256e-06
4.503231590898254e-06
6.933262423459031e-06
9.321544400231127e-06
1.1630642668787432e-05
1.3947084201939089e-05
1.6265751318456784e-05
1.853498818447409e-05
2.0967198098175224e-05
2.2491036165570022e-05
2.676267758409262e-05
7.256208742808384e-08
3.0240173909036215e-06
5.7409715974673665e-06
8.13089277652444e-06
1.0476548549122507e-05
1.2788131444896322e-05
1.5106616639249185e-05
1.7398611173247494e-05
1.9764476343069395e-05
2.1622816743241402e-05
2.5263183455997984e-05
2.0502134486569817e-05
1.0170706769042914e-06
-1.04695349611994e-11
-1.0171069256582899e-06
2.1450887471297087e-06
1.6729823320779658e-07
-1.6731005426928736e-07
-2.1450974800676925e-06
-2.676247813701571e-05
-2.2491071984166375e-05
-2.0967124115077798e-05
-1.8534794371074734e-05
-1.626555794590097e-05
-1.3946791831287095e-05
-1.1630713955003077e-05
-9.31964909886649e-06
-6.933697123998484e-06
-4.502381473596396e-06
-1.5484333994856582e-06
-2.0501986107406694e-05
-2.5263061738212828e-05
-2.1622762723421535e-05
-1.9764475260935013e-05
-1.7398381730216947e-05
-1.5106606698419775e-05
-1.2788456346897459e-05
-1.0476337918547025e-05
-8.129929641051154e-06
-5.740657585139508e-06
-3.024948011574424e-06
-7.378617352391589e-08
7.0059630392473385e-06
-2.126578357852793e-10
-7.004146040692251e-06
7.988228993606201e-07
1.5662498104079305e-05
-1.5661416791021548e-05
-7.972415298094712e-07
1.3603683943735467e-06
1.0781436680928902e-09
-1.357908520090113e-06
2.921329156560428e-06
1.7030522906627196e-10
-2.9197870790480317e-06
3.6051846463843948e-06
1.4535892092857466e-09
-3.6051517986353514e-06
4.69735382632383e-06
-4.6186818042012745e-10
-4.697506380150172e-06
5.8525633619219836e-06
-3.8506234138757645e-10
-5.851876128200664e-06
7.022650797467757e-06
4.5505386524896663e-10
-7.022380023682419e-06
8.194149623080849e-06
4.509913970052182e-10
-8.193355225461982e-06
9.376860023569897e-06
5.457904093952859e-11
-9.37653955370571e-06
1.058090671038521e-05
1.0204692472981503e-10
-1.0580791072524812e-05
1.2139408471218208e-05
6.809657698836347e-11
-1.2139307128383042e-05
1.0727221303741263e-05
8.843821508452976e-11
-1.0727023336074698e-05
1.7510631665658676e-06
-4.197698664836977e-07
1.2820811568622827e-06
4.5678558938805347e-10
-1.280398018789139e-06
4.2170595267653974e-07
-1.750566234956616e-06
3.5706876830104116e-06
2.2051198571696774e-06
1.5885305246749306e-06
7.54488110443069e-10
-1.5873890329978703e-06
-2.2030725913435188e-06
-3.5696524406968796e-06
5.2936363726802105e-06
3.2465637716169986e-06
1.852482816919578e-06
9.617187382831432e-10
-1.851160781448681e-06
-3.246056167437606e-06
-5.2939106014518456e-06
7.025058321428329e-06
4.133001943552005e-06
2.3525665411331873e-06
4.248915841560674e-10
-2.3527429636382644e-06
-4.132890758087957e-06
-7.024901670048961e-06
8.776259211184904e-06
5.272392837631958e-06
2.926062351659743e-06
-4.762262997143329e-10
-2.926500534794485e-06
-5.272286143544365e-06
-8.775966286087532e-06
1.053074177831577e-05
6.437446292989306e-06
3.5103686584197352e-06
2.2338899827167857e-11
-3.509618679659217e-06
-6.437082029226056e-06
-1.0530893592347601e-05
1.228764715667692e-05
7.607644381969411e-06
4.0967088667138996e-06
5.119533772607321e-10
-4.0959315562565796e-06
-7.607275569882638e-06
-1.2287265772273695e-05
1.4038094356658842e-05
8.786303391251568e-06
4.691058298249284e-06
1.1629314178307482e-10
-4.690657800088607e-06
-8.785799102952949e-06
-1.4037726022535224e-05
1.5840741912336725e-05
9.955703954993983e-06
5.319317888434483e-06
1.408348819509353e-10
-5.319114982400494e-06
-9.955459081171375e-06
-1.5840538176785726e-05
1.7598889391146413e-05
1.1417649666485216e-05
5.929882178443147e-06
1.0891884616448522e-10
-5.929713125435443e-06
-1.1417450361648693e-05
-1.7598788685917535e-05
1.845138256111739e-05
1.171182350981001e-05
5.807011104103782e-06
9.363773992299151e-11
-5.806953310299318e-06
-1.1711642467323452e-05
-1.8451289303764162e-05
8.754131519590064e-06
3.5063795617018556e-11
-8.754016181822949e-06
SCALARS strain12 float
LOOKUP_TABLE default
-1.9789108474467293e-06
3.948521406141179e-05
3.9485062123768415e-05
-1.982127938622894e-06
1.9365795356740783e-06
1.123641959392609e-06
1.06126880397098e-06
9.294473531895576e-07
9.391023709534965e-07
9.4209543919533e-07
9.587763132264712e-07
9.672544833896896e-07
1.0117630992539196e-06
2.669971950963138e-07
-4.0430789749042683e-07
5.319129886713304e-07
1.5306661174397111e-06
8.504858037692491e-07
7.747664810764198e-07
7.468295492789421e-07
7.520749419712846e-07
7.602337225527992e-07
7.822356210960868e-07
7.693275770583665e-07
8.863967168929159e-07
-5.720866656451539e-07
1.7913444678020957e-05
4.719000930606131e-06
-2.5613126860842374e-06
4.7188788137563495e-06
2.1365460938343127e-05
-9.90927972057868e-07
-9.909567847512965e-07
2.1365297251464975e-05
-4.0403883149242917e-07
2.6697836549212394e-07
1.01190419140142e-06
9.67192026396106e-07
9.595562826009111e-07
9.427807507876758e-07
9.393584585908526e-07
9.290507820002589e-07
1.0622751187996878e-06
1.124344798017745e-06
1.937006250194215e-06
1.7913469963586997e-05
-5.719819571234884e-07
8.86157797630883e-07
7.692267999570487e-07
7.822849202807351e-07
7.605717262912007e-07
7.522406389828026e-07
7.464608064350521e-07
7.746022998835004e-07
8.506614886041473e-07
1.5295717485045845e-06
5.307684064722912e-07
4.921263339818907e-06
3.5097374076300934e-05
4.920593039140311e-06
-4.288424126697491e-07
2.026708280308023e-05
2.026660909927228e-05
-4.271396165475994e-07
1.5417695317012997e-05
8.938555574700667e-06
1.541745819110533e-05
1.267894861671677e-05
1.4449787496458299e-05
1.2678364864344483e-05
1.2204914353511112e-05
1.5747619327525215e-05
1.220432049266811e-05
1.21073679072076e-05
1.5988126890744856e-05
1.2107097756602371e-05
1.2098526497822504e-05
1.601224114197887e-05
1.2098856395676615e-05
1.2096859077880462e-05
1.601040118883861e-05
1.2097324284131221e-05
1.2096544303961617e-05
1.6011989844898667e-05
1.2096490366508643e-05
1.2081737812423077e-05
1.6022899488037456e-05
1.2081807135159566e-05
1.2021040250411767e-05
1.6248491885996254e-05
1.2021186315334768e-05
1.2160662843429713e-05
1.6336216969627392e-05
1.2160743687643198e-05
1.4269600480991477e-05
1.527304902379931e-05
1.4269640926363138e-05
8.526301208881804e-06
1.120807671149308e-05
1.21216402051836e-05
2.0086581138816238e-05
1.2121495664356755e-05
1.1208420152512762e-05
8.526101315472362e-06
7.3810827307242786e-06
1.2672534308767183e-05
1.3931047663865923e-05
1.2587809624795747e-05
1.3930647920912882e-05
1.2671661766283957e-05
7.381039329482585e-06
6.812094559507768e-06
1.2176666271739034e-05
1.4308062682135022e-05
1.513652751973464e-05
1.4307643349592306e-05
1.2176971346273502e-05
6.812308430827416e-06
6.682763135073188e-06
1.1894499311085837e-05
1.4459024063980929e-05
1.5636918472844395e-05
1.4458829103166333e-05
1.1893104716050802e-05
6.6821390120499466e-06
6.664750348691386e-06
1.1871946775334695e-05
1.4464025357091863e-05
1.5767908331966853e-05
1.4464313095647406e-05
1.1871807772167306e-05
6.6651111581981565e-06
6.6653253448891635e-06
1.1861885135224922e-05
1.4465286521766075e-05
1.5771835555783724e-05
1.4465332192537629e-05
1.1862721466649758e-05
6.665569123652249e-06
6.660392276126506e-06
1.1860323771129141e-05
1.4463434953842732e-05
1.5772173557513532e-05
1.4463531886152811e-05
1.1860352134256675e-05
6.660616883591634e-06
6.666335549486343e-06
1.1862475257630196e-05
1.4474613312670016e-05
1.5781951620728436e-05
1.4474673347820092e-05
1.1862393259205652e-05
6.666263880148032e-06
6.505342449334263e-06
1.180359561837337e-05
1.4552026699462823e-05
1.5853790934456607e-05
1.4552116180378278e-05
1.180349529070768e-05
6.505425871310337e-06
6.427623888892708e-06
1.1868312953599506e-05
1.4862388209195212e-05
1.6085710658379277e-05
1.4862426677371733e-05
1.1868454607415015e-05
6.4276849739066e-06
6.537604107231668e-06
1.214111163328678e-05
1.4001092058097883e-05
1.587210080858153e-05
1.4001089603801636e-05
1.2141188429405113e-05
6.5376208621973015e-06
9.976231446861758e-06
7.214433452784152e-06
9.976227217978076e-06
SCALARS disp_x float
LOOKUP_TABLE default
1.9451936168479733e-06
0.0
0.0
-1.9451854313956574e-06
1.9418505416979315e-06
1.9075239379162667e-06
1.8402427031105617e-06
1.7448776361561613e-06
1.6219805729633663e-06
1.471808218411752e-06
1.2943119145347737e-06
1.0895798823185032e-06
8.573747436457779e-07
5.997334824314748e-07
3.1862384730629856e-07
1.9435517515375977e-06
1.9288170278741745e-06
1.8776505612549954e-06
1.7960040850084624e-06
1.6868194734342978e-06
1.5502804444622598e-06
1.3864475931768538e-06
1.195313984680979e-06
9.768937161425129e-07
7.314271215363988e-07
4.6314630708366167e-07
1.60803040216706e-07
0.0
0.0
0.0
0.0
0.0
0.0
0.0
-3.186216588346724e-07
-5.997300149829243e-07
-8.573704803893634e-07
-1.08957306110824e-06
-1.294304411203484e-06
-1.4718009424541378e-06
-1.6219754570556688e-06
-1.7448705875722226e-06
-1.8402326986688422e-06
-1.9075141608482227e-06
-1.941844175235019e-06
-1.6080198861345707e-07
-4.6314349333442806e-07
-7.314231424970785e-07
-9.768882591743022e-07
-1.1953063676628517e-06
-1.386440203532402e-06
-1.5502743053730228e-06
-1.6868137890924118e-06
-1.7959951037482824e-06
-1.8776414663079777e-06
-1.9288081603008322e-06
-1.943546294569387e-06
-9.698648000266985e-07
7.872274013220881e-12
9.69878897194576e-07
-1.4520074955726159e-06
-4.928205612486636e-07
4.92834260512609e-07
1.4520179547616863e-06
9.631620514483075e-07
5.604736726810833e-12
-9.63152047006588e-07
9.398088991474651e-07
3.99634752373812e-12
-9.398033284924168e-07
9.037856898430618e-07
2.397199626302804e-12
-9.037821087076736e-07
8.558698709748569e-07
1.7572463666473692e-12
-8.558639592592954e-07
7.943982609504019e-07
3.76158652837244e-12
-7.943915534269763e-07
7.193150963757944e-07
4.113968280622382e-12
-7.193072519839916e-07
6.305749593593646e-07
2.5688398890694186e-12
-6.305681381491013e-07
5.28152725109976e-07
2.289707486113901e-12
-5.281476660456974e-07
4.1208099332834536e-07
1.8196384069663063e-12
-4.1207707113244396e-07
2.8071389124306734e-07
1.2057156488498588e-12
-2.807109353852866e-07
1.3907043694416643e-07
5.173002325976894e-13
-1.390691011238232e-07
1.446899432266946e-06
9.732765420267242e-07
4.855292559113877e-07
7.19914102290109e-12
-4.855184556618042e-07
-9.732638091008994e-07
-1.4468901099462528e-06
1.4167087556415936e-06
9.526476674182049e-07
4.684051475578599e-07
4.089071529295163e-12
-4.6839875267323805e-07
-9.526399935566587e-07
-1.4167018207444926e-06
1.3658135458172183e-06
9.231026183442737e-07
4.4998233761361917e-07
3.9894780187732515e-12
-4.499780459354952e-07
-9.230987529917911e-07
-1.3658072930411436e-06
1.294122739636805e-06
8.814809575596882e-07
4.2585779169712623e-07
9.496357693261626e-13
-4.2585330106703623e-07
-8.814763532427605e-07
-1.2941167142344057e-06
1.2019777386740316e-06
8.268381748166576e-07
3.951290636905469e-07
2.9662114778283843e-12
-3.951220435283176e-07
-8.26831865197164e-07
-1.2019712585242814e-06
1.0893423905145028e-06
7.585695698253403e-07
3.5758662875196023e-07
4.308959005577817e-12
-3.5757889804699516e-07
-7.585620664940507e-07
-1.0893352282437263e-06
9.562332934365259e-07
6.766580895600782e-07
3.1321621918323217e-07
3.4155263253093926e-12
-3.1321039273279894e-07
-6.766505293853697e-07
-9.562260174789117e-07
8.026462410271051e-07
5.810868515254697e-07
2.620075463255489e-07
2.21020250712467e-12
-2.620029420086212e-07
-5.810810534967459e-07
-8.026407840588945e-07
6.285999916144647e-07
4.718458797015046e-07
2.0379270893045032e-07
2.0590642905993217e-12
-2.037891420059168e-07
-4.7184133222799574e-07
-6.285957283580501e-07
4.3418603468126094e-07
3.4845240293179813e-07
1.383865964044162e-07
1.5615344304067968e-12
-1.3838412371569575e-07
-3.484491060135042e-07
-4.3418279460638587e-07
2.1720032350458496e-07
2.1074650646824011e-07
6.630633464510538e-08
8.796734499681713e-13
-6.63051409333093e-08
-2.1074431799661397e-07
-2.1719866083458328e-07
6.322447632101102e-08
2.4907200325656464e-13
-6.32238439379762e-08
SCALARS disp_y float
LOOKUP_TABLE default
-8.445989806205034e-06
0.0
0.0
-8.445976163784508e-06
-7.450832526956219e-06
-6.443577603931772e-06
-5.460351530928165e-06
-4.518606601777719e-06
-3.6315041143097915e-06
-2.8127262794441776e-06
-2.0758834580192342e-06
-1.434550767953624e-06
-9.028671001942712e-07
-4.926193923893152e-07
-2.1405094230431132e-07
-7.950585313665215e-06
-6.944997039681766e-06
-5.947706540609943e-06
-4.983489816368092e-06
-4.06736535296659e-06
-3.212731144230929e-06
-2.433209147056914e-06
-1.7424276848032605e-06
-1.1541158073669067e-06
-6.817775215495203e-07
-3.3848735370156646e-07
-1.1339474781379977e-07
0.0
0.0
0.0
0.0
0.0
0.0
0.0
-2.1404984806849825e-07
-4.926181418341002e-07
-9.028648833009356e-07
-1.4345467889143038e-06
-2.0758780010510236e-06
-2.812722414091695e-06
-3.631503886936116e-06
-4.5186061470303684e-06
-5.460346073959954e-06
-6.44356668999535e-06
-7.450817975040991e-06
-1.1339415806332909e-07
-3.384861599897704e-07
-6.817758730903734e-07
-1.1541139883775031e-06
-1.7424227962692385e-06
-2.4332057364517823e-06
-3.212730007362552e-06
-4.067367171955993e-06
-4.983486178389285e-06
-5.947698809904978e-06
-6.944985670997994e-06
-7.950577128212899e-06
-8.447620530205313e-06
-8.54142399475677e-06
-8.447625077678822e-06
-8.443242222710978e-06
-8.485592843499035e-06
-8.485592843499035e-06
-8.443251317657996e-06
-7.440066383423982e-06
-7.436482519551646e-06
-7.440056378982263e-06
-6.425691026379354e-06
-6.417917575163301e-06
-6.425685114663793e-06
-5.433885689853923e-06
-5.424604296422331e-06
-5.433877959148958e-06
-4.4834832806373015e-06
-4.471713964449009e-06
-4.483484190132003e-06
-3.5876207675755722e-06
-3.5729888168134494e-06
-3.5876228139386512e-06
-2.7600699468166567e-06
-2.7425182906881673e-06
-2.7600658540904988e-06
-2.0144423160672886e-06
-1.9939579942729324e-06
-2.014438450714806e-06
-1.364353238386684e-06
-1.3408963468464208e-06
-1.3643511920236051e-06
-8.236337976086361e-07
-7.970592719175329e-07
-8.236328312705155e-07
-4.0490985497854126e-07
-3.7523119544857764e-07
-4.0490900232725835e-07
-1.2416566619322111e-07
-9.389440691620621e-08
-1.241651830241608e-07
-7.446231848007301e-06
-7.95645610196516e-06
-7.440086847054772e-06
-7.960716175148264e-06
-7.4400809353392106e-06
-7.956448826007545e-06
-7.446215022355318e-06
-6.43338353256695e-06
-6.9315497057687026e-06
-6.41938913759077e-06
-6.9234752118063625e-06
-6.419387773348717e-06
-6.9315419750637375e-06
-6.433374892367283e-06
-5.445054284791695e-06
-5.925529421801912e-06
-5.42714315088233e-06
-5.917213456996251e-06
-5.4271363296720665e-06
-5.92552351008635e-06
-5.445047008834081e-06
-4.498104772210354e-06
-4.952696144755464e-06
-4.474634351936402e-06
-4.942283794662217e-06
-4.474636625673156e-06
-4.95269387101871e-06
-4.498107500694459e-06
-3.605909796533524e-06
-4.0278664528159425e-06
-3.5766540804615943e-06
-4.014686965092551e-06
-3.5766556720773224e-06
-4.027867362310644e-06
-3.605909341786173e-06
-2.7820108243759023e-06
-3.164458121318603e-06
-2.7469063752505463e-06
-3.1483684779232135e-06
-2.746904101513792e-06
-3.164457211823901e-06
-2.782007186397095e-06
-2.040030494754319e-06
-2.376162683503935e-06
-1.9990714008599753e-06
-2.3571458314108895e-06
-1.9990693544968963e-06
-2.3761592728988035e-06
-2.040025265159784e-06
-1.393662842019694e-06
-1.6765944792496157e-06
-1.346802719126572e-06
-1.654638936088304e-06
-1.3468019233187078e-06
-1.6765925465733744e-06
-1.3936597724750754e-06
-8.564489917262108e-07
-1.0794984746098635e-06
-8.036262784116843e-07
-1.0545093118707882e-06
-8.036256531340769e-07
-1.0794971103678108e-06
-8.56447286423645e-07
-4.429413706930063e-07
-5.981814297228993e-07
-3.8281794445538253e-07
-5.69882786294329e-07
-3.8281748970803164e-07
-5.981805202281976e-07
-4.4294020540291967e-07
-1.5638332229173102e-07
-2.460886037169985e-07
-1.0099826397436118e-07
-2.160328875788764e-07
-1.0099801528440366e-07
-2.4608800686110044e-07
-1.5638249806215754e-07
-3.347078703086481e-08
-1.814622230256191e-08
-3.3470627158749267e-08
SCALARS von_mises_stress float
LOOKUP_TABLE default
2330745.912314429
75535788.90336348
75535563.1974334
2330768.625866596
3484982.142898714
11402052.798190268
17932241.625977688
23918549.894592922
29870777.980045497
35815250.6573983
41760453.14530155
47680517.91425896
53627718.57738837
58543671.419516005
66105392.112453334
1142261.379941946
7819207.963575397
14762661.68001454
20900997.82718038
26894340.868450794
32837608.025970675
38785911.31088307
44712238.53261726
50673586.28896265
56198048.19107833
61724686.81755349
69275056.84385626
27729940.601254497
1706278.5187404014
27729635.36504801
50039686.97749981
12965024.137798395
12964779.959195752
50039336.32012926
66105109.76488034
58543390.36040378
53627445.467197604
47679999.914683476
41760531.489861794
35815492.86037278
29870921.566956148
23917553.92746492
17932416.884063017
11401794.88260454
3486203.5490898318
69274586.30080563
61724333.52085838
56197822.05785764
50673060.67897748
44712008.78529947
38785941.0709321
32837969.59715314
26893906.821640097
20900311.79072261
14762607.987692928
7819709.337972334
1141241.9202830405
8353123.569583405
23380938.599754937
8351144.123185482
1640752.3266668194
22470015.07579717
22468811.552174505
1639651.1617224067
11509150.274585037
5954628.309457027
11508552.926711611
10686555.233663013
9626064.703042783
10685601.524644544
12200177.174757985
10490645.957875803
12200042.255707318
14465428.881844861
10650865.712116454
14465667.371870715
17032688.743025612
10666929.780522889
17033038.022365417
19727220.993350286
10665704.07630358
19727346.544591956
22500733.791966874
10666762.423032314
22500303.073108014
25328183.490931924
10674029.924578996
25327945.7104767
28231957.45593543
10824313.705103453
28231733.876346946
31536052.887653716
10882754.014242506
31535861.78283767
34550947.24454745
10174499.93077902
34550616.34608429
7043741.838161113
7692266.518414141
8882461.940299358
13381146.976266118
8881774.1815705
7692601.711990076
7043562.454490427
10222565.516820962
9961728.803172357
10057165.25671769
8385664.3154641595
10056764.734703306
9960582.907837864
10221872.860391036
14214736.995980207
11310943.966714598
10588280.57719325
10083552.742851539
10587628.945730932
11310754.734515429
14215030.041135618
18546896.048042588
13184693.702606013
11357874.849886449
10416899.947738029
11358179.252130976
13184421.28527964
18546743.918172617
22935536.92811005
15655147.785077212
12210758.85386493
10504161.759778716
12211210.300004099
15655250.452081332
22935765.393231895
27365911.725123946
18299221.451489415
13186597.543894034
10506777.871885713
13186414.710005898
18299591.58531069
27366065.79667784
31816276.51033347
21046377.07114202
14251747.749697592
10507003.142869335
14251368.971154626
21046140.300334476
31816142.030955553
36264729.1602256
23861556.617155924
15413013.101761634
10513517.241920512
15412898.401262468
23861119.421044543
36264316.16392031
40756622.86384572
26704601.986660406
16643919.94225573
10561374.560199829
16643736.203874169
26704322.959321138
40756390.29833835
45423334.76405646
29901959.057027467
18233883.649602633
10715873.211943846
18233692.610606123
29901747.55097343
45423065.40981333
49596194.708360024
32347935.778847393
18926907.73131113
10573572.066996872
18926648.114654873
32347602.247011457
49595819.994819164
31054400.938131507
4806064.060691414
31054105.489141542
