# vtk DataFile Version 2.0
Generated Volume Mesh
ASCII
DATASET UNSTRUCTURED_GRID
POINTS 906 float
0.0 -0.5 0.0
30.0 -0.5 0.0
30.0 0.5 0.0
0.0 0.5 0.0
0.1999999999999457 -0.5 0.0
0.3999999999999005 -0.5 0.0
0.5999999999998632 -0.5 0.0
0.7999999999998203 -0.5 0.0
0.9999999999997445 -0.5 0.0
1.19999999999961 -0.5 0.0
1.399999999999428 -0.5 0.0
1.599999999999246 -0.5 0.0
1.799999999999094 -0.5 0.0
1.999999999999041 -0.5 0.0
2.199999999999095 -0.5 0.0
2.399999999999208 -0.5 0.0
2.599999999999322 -0.5 0.0
2.799999999999436 -0.5 0.0
2.999999999999551 -0.5 0.0
3.199999999999664 -0.5 0.0
3.399999999999779 -0.5 0.0
3.599999999999862 -0.5 0.0
3.799999999999865 -0.5 0.0
3.999999999999751 -0.5 0.0
4.199999999999569 -0.5 0.0
4.399999999999387 -0.5 0.0
4.599999999999205 -0.5 0.0
4.799999999999022 -0.5 0.0
4.999999999998839 -0.5 0.0
5.199999999998657 -0.5 0.0
5.399999999998475 -0.5 0.0
5.599999999998293 -0.5 0.0
5.799999999998111 -0.5 0.0
5.999999999997929 -0.5 0.0
6.199999999997747 -0.5 0.0
6.399999999997564 -0.5 0.0
6.599999999997382 -0.5 0.0
6.7999999999972 -0.5 0.0
6.999999999997017 -0.5 0.0
7.199999999996836 -0.5 0.0
7.399999999996654 -0.5 0.0
7.599999999996472 -0.5 0.0
7.79999999999629 -0.5 0.0
7.999999999996063 -0.5 0.0
8.199999999995583 -0.5 0.0
8.399999999994815 -0.5 0.0
8.59999999999404 -0.5 0.0
8.799999999993267 -0.5 0.0
8.999999999992493 -0.5 0.0
9.19999999999172 -0.5 0.0
9.399999999990944 -0.5 0.0
9.59999999999017 -0.5 0.0
9.799999999989396 -0.5 0.0
9.999999999988622 -0.5 0.0
10.19999999998785 -0.5 0.0
10.39999999998707 -0.5 0.0
10.5999999999863 -0.5 0.0
10.79999999998553 -0.5 0.0
10.99999999998475 -0.5 0.0
11.19999999998398 -0.5 0.0
11.3999999999832 -0.5 0.0
11.59999999998243 -0.5 0.0
11.79999999998166 -0.5 0.0
11.99999999998088 -0.5 0.0
12.19999999998011 -0.5 0.0
12.39999999997933 -0.5 0.0
12.59999999997856 -0.5 0.0
12.79999999997779 -0.5 0.0
12.99999999997701 -0.5 0.0
13.19999999997624 -0.5 0.0
13.39999999997546 -0.5 0.0
13.59999999997469 -0.5 0.0
13.79999999997391 -0.5 0.0
13.99999999997314 -0.5 0.0
14.19999999997236 -0.5 0.0
14.39999999997159 -0.5 0.0
14.59999999997082 -0.5 0.0
14.7999999999701 -0.5 0.0
14.99999999996962 -0.5 0.0
15.19999999996973 -0.5 0.0
15.39999999997009 -0.5 0.0
15.5999999999705 -0.5 0.0
15.79999999997091 -0.5 0.0
15.99999999997132 -0.5 0.0
16.19999999997173 -0.5 0.0
16.39999999997214 -0.5 0.0
16.59999999997255 -0.5 0.0
16.79999999997296 -0.5 0.0
16.99999999997337 -0.5 0.0
17.19999999997378 -0.5 0.0
17.39999999997419 -0.5 0.0
17.5999999999746 -0.5 0.0
17.799999999975 -0.5 0.0
17.99999999997542 -0.5 0.0
18.19999999997583 -0.5 0.0
18.39999999997624 -0.5 0.0
18.59999999997665 -0.5 0.0
18.79999999997706 -0.5 0.0
18.99999999997747 -0.5 0.0
19.19999999997787 -0.5 0.0
19.39999999997828 -0.5 0.0
19.59999999997869 -0.5 0.0
19.7999999999791 -0.5 0.0
19.99999999997951 -0.5 0.0
20.19999999997992 -0.5 0.0
20.39999999998033 -0.5 0.0
20.59999999998075 -0.5 0.0
20.79999999998115 -0.5 0.0
20.99999999998156 -0.5 0.0
21.19999999998197 -0.5 0.0
21.39999999998238 -0.5 0.0
21.59999999998279 -0.5 0.0
21.7999999999832 -0.5 0.0
21.99999999998361 -0.5 0.0
22.19999999998402 -0.5 0.0
22.39999999998443 -0.5 0.0
22.59999999998484 -0.5 0.0
22.79999999998525 -0.5 0.0
22.99999999998566 -0.5 0.0
23.19999999998607 -0.5 0.0
23.39999999998648 -0.5 0.0
23.59999999998689 -0.5 0.0
23.7999999999873 -0.5 0.0
23.99999999998771 -0.5 0.0
24.19999999998812 -0.5 0.0
24.39999999998853 -0.5 0.0
24.59999999998893 -0.5 0.0
24.79999999998935 -0.5 0.0
24.99999999998976 -0.5 0.0
25.19999999999017 -0.5 0.0
25.39999999999057 -0.5 0.0
25.59999999999098 -0.5 0.0
25.7999999999914 -0.5 0.0
25.9999999999918 -0.5 0.0
26.19999999999221 -0.5 0.0
26.39999999999262 -0.5 0.0
26.59999999999303 -0.5 0.0
26.79999999999344 -0.5 0.0
26.99999999999385 -0.5 0.0
27.19999999999426 -0.5 0.0
27.39999999999467 -0.5 0.0
27.59999999999508 -0.5 0.0
27.79999999999549 -0.5 0.0
27.9999999999959 -0.5 0.0
28.19999999999631 -0.5 0.0
28.39999999999672 -0.5 0.0
28.59999999999713 -0.5 0.0
28.79999999999754 -0.5 0.0
28.99999999999795 -0.5 0.0
29.19999999999835 -0.5 0.0
29.39999999999877 -0.5 0.0
29.59999999999918 -0.5 0.0
29.79999999999959 -0.5 0.0
30.0 -0.3000000000005547 0.0
30.0 -0.1000000000011089 0.0
30.0 0.09999999999889131 0.0
30.0 0.2999999999994456 0.0
29.7999999999995 0.5 0.0
29.59999999999899 0.5 0.0
29.39999999999849 0.5 0.0
29.19999999999798 0.5 0.0
28.99999999999748 0.5 0.0
28.79999999999697 0.5 0.0
28.59999999999647 0.5 0.0
28.39999999999596 0.5 0.0
28.19999999999546 0.5 0.0
27.99999999999496 0.5 0.0
27.79999999999445 0.5 0.0
27.59999999999394 0.5 0.0
27.39999999999344 0.5 0.0
27.19999999999294 0.5 0.0
26.99999999999243 0.5 0.0
26.79999999999193 0.5 0.0
26.59999999999142 0.5 0.0
26.39999999999092 0.5 0.0
26.19999999999041 0.5 0.0
25.99999999998991 0.5 0.0
25.7999999999894 0.5 0.0
25.5999999999889 0.5 0.0
25.3999999999884 0.5 0.0
25.19999999998789 0.5 0.0
24.99999999998739 0.5 0.0
24.79999999998688 0.5 0.0
24.59999999998638 0.5 0.0
24.39999999998587 0.5 0.0
24.19999999998537 0.5 0.0
23.99999999998487 0.5 0.0
23.79999999998436 0.5 0.0
23.59999999998385 0.5 0.0
23.39999999998335 0.5 0.0
23.19999999998284 0.5 0.0
22.99999999998234 0.5 0.0
22.79999999998184 0.5 0.0
22.59999999998133 0.5 0.0
22.39999999998083 0.5 0.0
22.19999999998032 0.5 0.0
21.99999999998 0.5 0.0
21.79999999998068 0.5 0.0
21.59999999998253 0.5 0.0
21.39999999998439 0.5 0.0
21.19999999998625 0.5 0.0
20.99999999998812 0.5 0.0
20.79999999998998 0.5 0.0
20.59999999999184 0.5 0.0
20.39999999999371 0.5 0.0
20.19999999999557 0.5 0.0
19.99999999999744 0.5 0.0
19.7999999999993 0.5 0.0
19.60000000000116 0.5 0.0
19.40000000000303 0.5 0.0
19.20000000000489 0.5 0.0
19.00000000000676 0.5 0.0
18.80000000000862 0.5 0.0
18.60000000001048 0.5 0.0
18.40000000001235 0.5 0.0
18.20000000001421 0.5 0.0
18.00000000001607 0.5 0.0
17.80000000001794 0.5 0.0
17.6000000000198 0.5 0.0
17.40000000002166 0.5 0.0
17.20000000002353 0.5 0.0
17.00000000002539 0.5 0.0
16.80000000002726 0.5 0.0
16.60000000002912 0.5 0.0
16.40000000003098 0.5 0.0
16.20000000003285 0.5 0.0
16.0000000000342 0.5 0.0
15.80000000003507 0.5 0.0
15.60000000003575 0.5 0.0
15.40000000003643 0.5 0.0
15.20000000003705 0.5 0.0
15.00000000003744 0.5 0.0
14.80000000003723 0.5 0.0
14.60000000003678 0.5 0.0
14.40000000003627 0.5 0.0
14.20000000003577 0.5 0.0
14.00000000003527 0.5 0.0
13.80000000003476 0.5 0.0
13.60000000003426 0.5 0.0
13.40000000003376 0.5 0.0
13.20000000003325 0.5 0.0
13.00000000003275 0.5 0.0
12.80000000003224 0.5 0.0
12.60000000003174 0.5 0.0
12.40000000003123 0.5 0.0
12.20000000003073 0.5 0.0
12.00000000003023 0.5 0.0
11.80000000002972 0.5 0.0
11.60000000002922 0.5 0.0
11.40000000002872 0.5 0.0
11.20000000002821 0.5 0.0
11.00000000002771 0.5 0.0
10.8000000000272 0.5 0.0
10.6000000000267 0.5 0.0
10.4000000000262 0.5 0.0
10.20000000002569 0.5 0.0
10.00000000002519 0.5 0.0
9.800000000024689 0.5 0.0
9.600000000024181 0.5 0.0
9.400000000023677 0.5 0.0
9.200000000023174 0.5 0.0
9.00000000002267 0.5 0.0
8.80000000002217 0.5 0.0
8.600000000021666 0.5 0.0
8.400000000021162 0.5 0.0
8.200000000020655 0.5 0.0
8.000000000020151 0.5 0.0
7.800000000019647 0.5 0.0
7.600000000019147 0.5 0.0
7.40000000001864 0.5 0.0
7.200000000018136 0.5 0.0
7.000000000017632 0.5 0.0
6.800000000017128 0.5 0.0
6.600000000016621 0.5 0.0
6.400000000016117 0.5 0.0
6.200000000015617 0.5 0.0
6.000000000015113 0.5 0.0
5.800000000014609 0.5 0.0
5.600000000014106 0.5 0.0
5.400000000013602 0.5 0.0
5.200000000013098 0.5 0.0
5.000000000012594 0.5 0.0
4.800000000012091 0.5 0.0
4.600000000011587 0.5 0.0
4.400000000011083 0.5 0.0
4.200000000010579 0.5 0.0
4.000000000010075 0.5 0.0
3.800000000009572 0.5 0.0
3.600000000009068 0.5 0.0
3.400000000008564 0.5 0.0
3.20000000000806 0.5 0.0
3.000000000007557 0.5 0.0
2.800000000007053 0.5 0.0
2.600000000006549 0.5 0.0
2.400000000006045 0.5 0.0
2.200000000005538 0.5 0.0
2.000000000005034 0.5 0.0
1.80000000000453 0.5 0.0
1.600000000004027 0.5 0.0
1.400000000003523 0.5 0.0
1.200000000003019 0.5 0.0
1.000000000002519 0.5 0.0
0.8000000000020151 0.5 0.0
0.6000000000015078 0.5 0.0
0.400000000001004 0.5 0.0
0.2000000000005002 0.5 0.0
0.0 0.3000000000005547 0.0
0.0 0.1000000000011089 0.0
0.0 -0.09999999999889131 0.0
0.0 -0.2999999999994456 0.0
0.2000000000000566 -0.2999999999994528 0.0
0.2000000000001675 -0.09999999999890603 0.0
0.2000000000002785 0.1000000000010941 0.0
0.2000000000003893 0.3000000000005472 0.0
0.4000000000001212 -0.2999999999994603 0.0
0.4000000000003419 -0.09999999999892091 0.0
0.4000000000005627 0.1000000000010793 0.0
0.4000000000007833 0.3000000000005397 0.0
0.6000000000001922 -0.2999999999994677 0.0
0.6000000000005211 -0.09999999999893568 0.0
0.6000000000008501 0.1000000000010645 0.0
0.6000000000011788 0.3000000000005324 0.0
0.8000000000002593 -0.299999999999475 0.0
0.8000000000006983 -0.09999999999895041 0.0
0.8000000000011374 0.1000000000010497 0.0
0.8000000000015759 0.300000000000525 0.0
1.000000000000299 -0.2999999999994825 0.0
1.000000000000854 -0.09999999999896518 0.0
1.000000000001409 0.100000000001035 0.0
1.000000000001964 0.3000000000005175 0.0
1.200000000000292 -0.2999999999994898 0.0
1.200000000000974 -0.09999999999897997 0.0
1.200000000001656 0.1000000000010202 0.0
1.200000000002337 0.3000000000005101 0.0
1.400000000000247 -0.2999999999994972 0.0
1.400000000001066 -0.09999999999899474 0.0
1.400000000001885 0.1000000000010054 0.0
1.400000000002704 0.3000000000005027 0.0
1.600000000000202 -0.2999999999995045 0.0
1.600000000001158 -0.09999999999900962 0.0
1.600000000002114 0.1000000000009906 0.0
1.600000000003071 0.3000000000004954 0.0
1.800000000000181 -0.299999999999512 0.0
1.800000000001269 -0.09999999999902436 0.0
1.800000000002356 0.1000000000009758 0.0
1.800000000003443 0.3000000000004879 0.0
2.00000000000024 -0.2999999999995194 0.0
2.000000000001438 -0.09999999999903912 0.0
2.000000000002637 0.1000000000009611 0.0
2.000000000003836 0.3000000000004806 0.0
2.200000000000383 -0.2999999999995269 0.0
2.200000000001672 -0.09999999999905389 0.0
2.200000000002961 0.1000000000009463 0.0
2.20000000000425 0.3000000000004732 0.0
2.400000000000575 -0.2999999999995341 0.0
2.400000000001943 -0.09999999999906871 0.0
2.400000000003311 0.1000000000009315 0.0
2.400000000004678 0.3000000000004658 0.0
2.600000000000768 -0.2999999999995416 0.0
2.600000000002213 -0.09999999999908353 0.0
2.600000000003658 0.1000000000009167 0.0
2.600000000005104 0.3000000000004585 0.0
2.800000000000959 -0.299999999999549 0.0
2.800000000002483 -0.09999999999909824 0.0
2.800000000004006 0.1000000000009019 0.0
2.800000000005531 0.3000000000004511 0.0
3.000000000001152 -0.2999999999995563 0.0
3.000000000002753 -0.09999999999911303 0.0
3.000000000004355 0.1000000000008871 0.0
3.000000000005955 0.3000000000004436 0.0
3.200000000001343 -0.2999999999995638 0.0
3.200000000003023 -0.09999999999912786 0.0
3.200000000004702 0.1000000000008724 0.0
3.200000000006381 0.3000000000004363 0.0
3.400000000001536 -0.2999999999995711 0.0
3.400000000003294 -0.0999999999991426 0.0
3.400000000005051 0.1000000000008575 0.0
3.400000000006807 0.3000000000004289 0.0
3.600000000001704 -0.2999999999995786 0.0
3.600000000003544 -0.09999999999915736 0.0
3.600000000005385 0.1000000000008427 0.0
3.600000000007227 0.3000000000004214 0.0
3.800000000001806 -0.299999999999586 0.0
3.800000000003748 -0.09999999999917218 0.0
3.800000000005689 0.100000000000828 0.0
3.800000000007631 0.300000000000414 0.0
4.000000000001816 -0.2999999999995933 0.0
4.00000000000388 -0.09999999999918695 0.0
4.000000000005944 0.1000000000008132 0.0
4.00000000000801 0.3000000000004067 0.0
4.200000000001771 -0.2999999999996006 0.0
4.200000000003973 -0.09999999999920177 0.0
4.200000000006175 0.1000000000007984 0.0
4.200000000008377 0.3000000000003993 0.0
4.400000000001725 -0.2999999999996081 0.0
4.400000000004066 -0.09999999999921654 0.0
4.400000000006404 0.1000000000007836 0.0
4.400000000008744 0.3000000000003918 0.0
4.60000000000168 -0.2999999999996156 0.0
4.600000000004158 -0.0999999999992313 0.0
4.600000000006634 0.1000000000007688 0.0
4.600000000009111 0.3000000000003845 0.0
4.800000000001637 -0.2999999999996229 0.0
4.80000000000425 -0.09999999999924607 0.0
4.800000000006863 0.1000000000007541 0.0
4.800000000009478 0.3000000000003771 0.0
5.00000000000159 -0.2999999999996302 0.0
5.000000000004341 -0.09999999999926086 0.0
5.000000000007091 0.1000000000007393 0.0
5.000000000009845 0.3000000000003696 0.0
5.200000000001545 -0.2999999999996377 0.0
5.200000000004433 -0.09999999999927563 0.0
5.200000000007321 0.1000000000007245 0.0
5.200000000010212 0.3000000000003623 0.0
5.400000000001501 -0.2999999999996451 0.0
5.400000000004527 -0.09999999999929045 0.0
5.400000000007552 0.1000000000007097 0.0
5.400000000010576 0.300000000000355 0.0
5.600000000001454 -0.2999999999996525 0.0
5.600000000004618 -0.09999999999930516 0.0
5.60000000000778 0.1000000000006949 0.0
5.600000000010943 0.3000000000003475 0.0
5.800000000001412 -0.2999999999996599 0.0
5.800000000004712 -0.09999999999931998 0.0
5.80000000000801 0.1000000000006801 0.0
5.800000000011309 0.3000000000003401 0.0
6.000000000001366 -0.2999999999996673 0.0
6.000000000004803 -0.09999999999933475 0.0
6.000000000008241 0.1000000000006653 0.0
6.000000000011676 0.3000000000003328 0.0
6.200000000001321 -0.2999999999996746 0.0
6.200000000004894 -0.09999999999934957 0.0
6.200000000008469 0.1000000000006506 0.0
6.200000000012043 0.3000000000003253 0.0
6.400000000001274 -0.2999999999996821 0.0
6.400000000004987 -0.09999999999936433 0.0
6.400000000008697 0.1000000000006358 0.0
6.400000000012406 0.3000000000003179 0.0
6.600000000001231 -0.2999999999996895 0.0
6.600000000005078 -0.09999999999937913 0.0
6.600000000008924 0.100000000000621 0.0
6.600000000012773 0.3000000000003105 0.0
6.800000000001186 -0.2999999999996968 0.0
6.800000000005171 -0.09999999999939392 0.0
6.800000000009156 0.1000000000006062 0.0
6.800000000013144 0.3000000000003032 0.0
7.00000000000114 -0.2999999999997042 0.0
7.000000000005265 -0.09999999999940869 0.0
7.000000000009386 0.1000000000005915 0.0
7.000000000013507 0.3000000000002957 0.0
7.200000000001095 -0.2999999999997117 0.0
7.200000000005355 -0.09999999999942345 0.0
7.200000000009615 0.1000000000005766 0.0
7.200000000013874 0.3000000000002884 0.0
7.40000000000105 -0.299999999999719 0.0
7.400000000005449 -0.09999999999943827 0.0
7.400000000009845 0.1000000000005618 0.0
7.400000000014241 0.300000000000281 0.0
7.600000000001007 -0.2999999999997263 0.0
7.600000000005544 -0.09999999999945307 0.0
7.600000000010079 0.1000000000005471 0.0
7.600000000014613 0.3000000000002736 0.0
7.800000000000961 -0.2999999999997339 0.0
7.800000000005632 -0.09999999999946783 0.0
7.800000000010304 0.1000000000005323 0.0
7.800000000014975 0.3000000000002661 0.0
8.000000000000881 -0.2999999999997412 0.0
8.000000000005699 -0.0999999999994826 0.0
8.000000000010516 0.1000000000005175 0.0
8.000000000015334 0.3000000000002588 0.0
8.200000000000598 -0.2999999999997485 0.0
8.200000000005609 -0.09999999999949742 0.0
8.200000000010625 0.1000000000005027 0.0
8.20000000001564 0.3000000000002514 0.0
8.400000000000084 -0.299999999999756 0.0
8.400000000005356 -0.09999999999951224 0.0
8.400000000010625 0.1000000000004879 0.0
8.400000000015893 0.300000000000244 0.0
8.599999999999564 -0.2999999999997635 0.0
8.600000000005089 -0.09999999999952701 0.0
8.600000000010617 0.1000000000004731 0.0
8.600000000016141 0.3000000000002366 0.0
8.799999999999045 -0.2999999999997708 0.0
8.800000000004829 -0.09999999999954177 0.0
8.80000000001061 0.1000000000004584 0.0
8.80000000001639 0.3000000000002293 0.0
8.99999999999853 -0.2999999999997782 0.0
9.000000000004563 -0.09999999999955654 0.0
9.000000000010601 0.1000000000004436 0.0
9.000000000016634 0.3000000000002218 0.0
9.199999999998012 -0.2999999999997857 0.0
9.200000000004302 -0.09999999999957133 0.0
9.20000000001059 0.1000000000004288 0.0
9.200000000016882 0.3000000000002144 0.0
9.39999999999749 -0.299999999999793 0.0
9.400000000004038 -0.0999999999995861 0.0
9.400000000010586 0.100000000000414 0.0
9.40000000001713 0.3000000000002071 0.0
9.599999999996971 -0.2999999999998003 0.0
9.600000000003774 -0.09999999999960087 0.0
9.600000000010578 0.1000000000003992 0.0
9.600000000017378 0.3000000000001996 0.0
9.799999999996452 -0.2999999999998079 0.0
9.800000000003514 -0.09999999999961566 0.0
9.80000000001057 0.1000000000003844 0.0
9.800000000017627 0.3000000000001922 0.0
9.999999999995936 -0.2999999999998152 0.0
10.00000000000325 -0.09999999999963043 0.0
10.00000000001057 0.1000000000003697 0.0
10.00000000001788 0.3000000000001849 0.0
10.19999999999542 -0.2999999999998226 0.0
10.20000000000299 -0.0999999999996453 0.0
10.20000000001055 0.1000000000003549 0.0
10.20000000001813 0.3000000000001774 0.0
10.3999999999949 -0.29999999999983 0.0
10.40000000000272 -0.09999999999966004 0.0
10.40000000001055 0.1000000000003401 0.0
10.40000000001837 0.30000000000017 0.0
10.59999999999438 -0.2999999999998374 0.0
10.60000000000246 -0.09999999999967484 0.0
10.60000000001054 0.1000000000003253 0.0
10.60000000001862 0.3000000000001627 0.0
10.79999999999386 -0.2999999999998447 0.0
10.8000000000022 -0.0999999999996896 0.0
10.80000000001053 0.1000000000003105 0.0
10.80000000001887 0.3000000000001553 0.0
10.99999999999334 -0.2999999999998521 0.0
11.00000000000194 -0.09999999999970434 0.0
11.00000000001053 0.1000000000002957 0.0
11.00000000001912 0.3000000000001479 0.0
11.19999999999282 -0.2999999999998597 0.0
11.20000000000167 -0.09999999999971916 0.0
11.20000000001052 0.100000000000281 0.0
11.20000000001937 0.3000000000001405 0.0
11.3999999999923 -0.2999999999998669 0.0
11.40000000000141 -0.09999999999973395 0.0
11.40000000001051 0.1000000000002662 0.0
11.40000000001962 0.3000000000001332 0.0
11.59999999999178 -0.2999999999998742 0.0
11.60000000000115 -0.09999999999974875 0.0
11.6000000000105 0.1000000000002514 0.0
11.60000000001986 0.3000000000001257 0.0
11.79999999999127 -0.2999999999998818 0.0
11.80000000000089 -0.09999999999976356 0.0
11.8000000000105 0.1000000000002366 0.0
11.80000000002011 0.3000000000001183 0.0
11.99999999999075 -0.2999999999998891 0.0
12.00000000000062 -0.09999999999977824 0.0
12.00000000001049 0.1000000000002218 0.0
12.00000000002036 0.300000000000111 0.0
12.19999999999023 -0.2999999999998964 0.0
12.20000000000036 -0.09999999999979314 0.0
12.20000000001048 0.100000000000207 0.0
12.20000000002061 0.3000000000001035 0.0
12.39999999998972 -0.299999999999904 0.0
12.40000000000009 -0.0999999999998079 0.0
12.40000000001047 0.1000000000001923 0.0
12.40000000002086 0.3000000000000961 0.0
12.5999999999892 -0.2999999999999113 0.0
12.59999999999983 -0.09999999999982266 0.0
12.60000000001047 0.1000000000001775 0.0
12.6000000000211 0.3000000000000887 0.0
12.79999999998868 -0.2999999999999186 0.0
12.79999999999957 -0.0999999999998375 0.0
12.80000000001046 0.1000000000001627 0.0
12.80000000002135 0.3000000000000814 0.0
12.99999999998816 -0.299999999999926 0.0
12.99999999999931 -0.09999999999985221 0.0
13.00000000001045 0.1000000000001479 0.0
13.00000000002161 0.300000000000074 0.0
13.19999999998764 -0.2999999999999335 0.0
13.19999999999904 -0.09999999999986704 0.0
13.20000000001045 0.1000000000001332 0.0
13.20000000002185 0.3000000000000665 0.0
13.39999999998712 -0.2999999999999409 0.0
13.39999999999878 -0.09999999999988178 0.0
13.40000000001044 0.1000000000001184 0.0
13.4000000000221 0.3000000000000592 0.0
13.5999999999866 -0.2999999999999481 0.0
13.59999999999851 -0.0999999999998966 0.0
13.60000000001043 0.1000000000001036 0.0
13.60000000002235 0.3000000000000517 0.0
13.79999999998608 -0.2999999999999557 0.0
13.79999999999826 -0.09999999999991144 0.0
13.80000000001042 0.1000000000000888 0.0
13.80000000002259 0.3000000000000443 0.0
13.99999999998557 -0.2999999999999631 0.0
13.99999999999799 -0.09999999999992623 0.0
14.00000000001041 0.100000000000074 0.0
14.00000000002284 0.300000000000037 0.0
14.19999999998504 -0.2999999999999703 0.0
14.19999999999773 -0.09999999999994101 0.0
14.20000000001041 0.1000000000000592 0.0
14.20000000002309 0.3000000000000295 0.0
14.39999999998453 -0.2999999999999777 0.0
14.39999999999747 -0.09999999999995572 0.0
14.4000000000104 0.1000000000000445 0.0
14.40000000002334 0.3000000000000221 0.0
14.59999999998401 -0.2999999999999852 0.0
14.5999999999972 -0.09999999999997049 0.0
14.60000000001039 0.1000000000000297 0.0
14.60000000002358 0.3000000000000148 0.0
14.79999999998352 -0.2999999999999925 0.0
14.79999999999695 -0.09999999999998527 0.0
14.80000000001038 0.1000000000000149 0.0
14.80000000002381 0.3000000000000074 0.0
14.99999999998318 -0.2999999999999999 0.0
14.99999999999675 -0.1000000000000001 0.0
15.00000000001031 0.1000000000000001 0.0
15.00000000002387 0.2999999999999999 0.0
15.1999999999832 -0.3000000000000074 0.0
15.19999999999666 -0.1000000000000149 0.0
15.20000000001012 0.09999999999998531 0.0
15.20000000002359 0.2999999999999926 0.0
15.39999999998336 -0.3000000000000148 0.0
15.39999999999663 -0.1000000000000297 0.0
15.40000000000989 0.09999999999997052 0.0
15.40000000002316 0.2999999999999853 0.0
15.59999999998355 -0.3000000000000221 0.0
15.5999999999966 -0.1000000000000444 0.0
15.60000000000965 0.09999999999995575 0.0
15.6000000000227 0.2999999999999778 0.0
15.79999999998374 -0.3000000000000295 0.0
15.79999999999657 -0.1000000000000592 0.0
15.80000000000941 0.09999999999994096 0.0
15.80000000002223 0.2999999999999704 0.0
15.99999999998389 -0.300000000000037 0.0
15.99999999999647 -0.100000000000074 0.0
16.00000000000905 0.09999999999992616 0.0
16.00000000002162 0.2999999999999631 0.0
16.19999999998395 -0.3000000000000443 0.0
16.19999999999617 -0.1000000000000888 0.0
16.2000000000084 0.0999999999999114 0.0
16.20000000002062 0.2999999999999557 0.0
16.3999999999839 -0.3000000000000517 0.0
16.39999999999568 -0.1000000000001036 0.0
16.40000000000745 0.0999999999998966 0.0
16.40000000001921 0.2999999999999482 0.0
16.59999999998386 -0.3000000000000592 0.0
16.59999999999518 -0.1000000000001184 0.0
16.60000000000649 0.09999999999988181 0.0
16.6000000000178 0.2999999999999409 0.0
16.79999999998382 -0.3000000000000665 0.0
16.79999999999468 -0.1000000000001331 0.0
16.80000000000554 0.09999999999986704 0.0
16.8000000000164 0.2999999999999335 0.0
16.99999999998377 -0.3000000000000738 0.0
16.99999999999418 -0.1000000000001479 0.0
17.00000000000458 0.09999999999985225 0.0
17.00000000001499 0.2999999999999259 0.0
17.19999999998372 -0.3000000000000814 0.0
17.19999999999368 -0.1000000000001627 0.0
17.20000000000363 0.09999999999983746 0.0
17.20000000001358 0.2999999999999187 0.0
17.39999999998368 -0.3000000000000887 0.0
17.39999999999318 -0.1000000000001775 0.0
17.40000000000267 0.09999999999982269 0.0
17.40000000001217 0.2999999999999113 0.0
17.59999999998364 -0.300000000000096 0.0
17.59999999999268 -0.1000000000001923 0.0
17.60000000000172 0.09999999999980787 0.0
17.60000000001076 0.2999999999999038 0.0
17.79999999998358 -0.3000000000001035 0.0
17.79999999999218 -0.1000000000002071 0.0
17.80000000000076 0.09999999999979309 0.0
17.80000000000935 0.2999999999998964 0.0
17.99999999998354 -0.3000000000001109 0.0
17.99999999999168 -0.1000000000002218 0.0
17.99999999999981 0.09999999999977832 0.0
18.00000000000794 0.2999999999998891 0.0
18.1999999999835 -0.3000000000001182 0.0
18.19999999999118 -0.1000000000002366 0.0
18.19999999999886 0.09999999999976351 0.0
18.20000000000654 0.2999999999998817 0.0
18.39999999998346 -0.3000000000001257 0.0
18.39999999999068 -0.1000000000002514 0.0
18.3999999999979 0.09999999999974875 0.0
18.40000000000513 0.2999999999998743 0.0
18.59999999998341 -0.3000000000001331 0.0
18.59999999999018 -0.1000000000002662 0.0
18.59999999999695 0.09999999999973397 0.0
18.60000000000372 0.2999999999998669 0.0
18.79999999998337 -0.3000000000001404 0.0
18.79999999998968 -0.100000000000281 0.0
18.79999999999599 0.09999999999971913 0.0
18.80000000000231 0.2999999999998597 0.0
18.99999999998332 -0.3000000000001478 0.0
18.99999999998919 -0.1000000000002958 0.0
18.99999999999504 0.0999999999997044 0.0
19.0000000000009 0.299999999999852 0.0
19.19999999998328 -0.3000000000001554 0.0
19.19999999998867 -0.1000000000003105 0.0
19.19999999999408 0.09999999999968959 0.0
19.19999999999948 0.2999999999998448 0.0
19.39999999998323 -0.3000000000001627 0.0
19.39999999998818 -0.1000000000003253 0.0
19.39999999999313 0.09999999999967478 0.0
19.39999999999807 0.2999999999998373 0.0
19.59999999998319 -0.30000000000017 0.0
19.59999999998768 -0.1000000000003401 0.0
19.59999999999218 0.09999999999966004 0.0
19.59999999999667 0.29999999999983 0.0
19.79999999998315 -0.3000000000001775 0.0
19.79999999998718 -0.1000000000003549 0.0
19.79999999999122 0.09999999999964523 0.0
19.79999999999526 0.2999999999998226 0.0
19.9999999999831 -0.3000000000001849 0.0
19.99999999998668 -0.1000000000003697 0.0
19.99999999999027 0.09999999999963044 0.0
19.99999999999385 0.2999999999998151 0.0
20.19999999998305 -0.3000000000001922 0.0
20.19999999998618 -0.1000000000003845 0.0
20.19999999998931 0.09999999999961569 0.0
20.19999999999244 0.2999999999998078 0.0
20.39999999998302 -0.3000000000001996 0.0
20.39999999998568 -0.1000000000003992 0.0
20.39999999998836 0.09999999999960088 0.0
20.39999999999104 0.2999999999998004 0.0
20.59999999998297 -0.3000000000002072 0.0
20.59999999998519 -0.100000000000414 0.0
20.5999999999874 0.09999999999958609 0.0
20.59999999998962 0.2999999999997929 0.0
20.79999999998292 -0.3000000000002144 0.0
20.79999999998468 -0.1000000000004288 0.0
20.79999999998645 0.09999999999957133 0.0
20.79999999998821 0.2999999999997857 0.0
20.99999999998288 -0.3000000000002218 0.0
20.99999999998418 -0.1000000000004436 0.0
20.99999999998549 0.09999999999955657 0.0
20.99999999998681 0.2999999999997781 0.0
21.19999999998283 -0.3000000000002292 0.0
21.19999999998368 -0.1000000000004583 0.0
21.19999999998454 0.09999999999954175 0.0
21.1999999999854 0.2999999999997708 0.0
21.39999999998278 -0.3000000000002366 0.0
21.39999999998319 -0.1000000000004732 0.0
21.39999999998359 0.09999999999952693 0.0
21.39999999998398 0.2999999999997635 0.0
21.59999999998274 -0.3000000000002439 0.0
21.59999999998269 -0.100000000000488 0.0
21.59999999998263 0.0999999999995122 0.0
21.59999999998258 0.299999999999756 0.0
21.7999999999827 -0.3000000000002514 0.0
21.7999999999822 -0.1000000000005027 0.0
21.79999999998169 0.09999999999949737 0.0
21.79999999998119 0.2999999999997486 0.0
21.99999999998289 -0.3000000000002588 0.0
21.99999999998217 -0.1000000000005175 0.0
21.99999999998144 0.09999999999948259 0.0
21.99999999998072 0.2999999999997413 0.0
22.19999999998328 -0.3000000000002662 0.0
22.19999999998254 -0.1000000000005322 0.0
22.1999999999818 0.09999999999946785 0.0
22.19999999998106 0.2999999999997339 0.0
22.39999999998372 -0.3000000000002735 0.0
22.39999999998299 -0.1000000000005471 0.0
22.39999999998227 0.09999999999945305 0.0
22.39999999998154 0.2999999999997264 0.0
22.59999999998414 -0.300000000000281 0.0
22.59999999998344 -0.1000000000005619 0.0
22.59999999998274 0.09999999999943825 0.0
22.59999999998203 0.2999999999997191 0.0
22.79999999998456 -0.3000000000002883 0.0
22.79999999998389 -0.1000000000005767 0.0
22.7999999999832 0.09999999999942351 0.0
22.79999999998252 0.2999999999997117 0.0
22.99999999998499 -0.3000000000002956 0.0
22.99999999998433 -0.1000000000005914 0.0
22.99999999998367 0.0999999999994087 0.0
22.999999999983 0.2999999999997042 0.0
23.19999999998543 -0.3000000000003032 0.0
23.19999999998478 -0.1000000000006062 0.0
23.19999999998414 0.09999999999939393 0.0
23.19999999998349 0.2999999999996968 0.0
23.39999999998586 -0.3000000000003106 0.0
23.39999999998523 -0.100000000000621 0.0
23.3999999999846 0.09999999999937911 0.0
23.39999999998398 0.2999999999996895 0.0
23.59999999998627 -0.3000000000003178 0.0
23.59999999998568 -0.1000000000006358 0.0
23.59999999998507 0.09999999999936433 0.0
23.59999999998446 0.2999999999996821 0.0
23.79999999998671 -0.3000000000003253 0.0
23.79999999998613 -0.1000000000006506 0.0
23.79999999998554 0.0999999999993496 0.0
23.79999999998494 0.2999999999996746 0.0
23.99999999998714 -0.3000000000003327 0.0
23.99999999998658 -0.1000000000006653 0.0
23.999999999986 0.09999999999933479 0.0
23.99999999998543 0.2999999999996673 0.0
24.19999999998757 -0.3000000000003401 0.0
24.19999999998701 -0.1000000000006801 0.0
24.19999999998646 0.09999999999932001 0.0
24.19999999998592 0.29999999999966 0.0
24.399999999988 -0.3000000000003475 0.0
24.39999999998747 -0.100000000000695 0.0
24.39999999998694 0.09999999999930519 0.0
24.39999999998641 0.2999999999996525 0.0
24.59999999998843 -0.3000000000003549 0.0
24.59999999998792 -0.1000000000007097 0.0
24.5999999999874 0.09999999999929039 0.0
24.59999999998689 0.2999999999996452 0.0
24.79999999998885 -0.3000000000003623 0.0
24.79999999998836 -0.1000000000007246 0.0
24.79999999998786 0.09999999999927563 0.0
24.79999999998737 0.2999999999996378 0.0
24.99999999998929 -0.3000000000003696 0.0
24.99999999998882 -0.1000000000007393 0.0
24.99999999998834 0.09999999999926089 0.0
24.99999999998786 0.2999999999996303 0.0
25.19999999998972 -0.3000000000003772 0.0
25.19999999998926 -0.1000000000007541 0.0
25.1999999999888 0.09999999999924611 0.0
25.19999999998835 0.2999999999996229 0.0
25.39999999999014 -0.3000000000003845 0.0
25.3999999999897 -0.1000000000007688 0.0
25.39999999998926 0.0999999999992313 0.0
25.39999999998884 0.2999999999996156 0.0
25.59999999999056 -0.3000000000003918 0.0
25.59999999999015 -0.1000000000007836 0.0
25.59999999998973 0.09999999999921654 0.0
25.59999999998931 0.2999999999996081 0.0
25.799999999991 -0.3000000000003993 0.0
25.7999999999906 -0.1000000000007985 0.0
25.7999999999902 0.09999999999920177 0.0
25.7999999999898 0.2999999999996007 0.0
25.99999999999143 -0.3000000000004067 0.0
25.99999999999105 -0.1000000000008132 0.0
25.99999999999066 0.09999999999918695 0.0
25.99999999999029 0.2999999999995934 0.0
26.19999999999185 -0.300000000000414 0.0
26.1999999999915 -0.100000000000828 0.0
26.19999999999114 0.0999999999991722 0.0
26.19999999999077 0.299999999999586 0.0
26.39999999999229 -0.3000000000004215 0.0
26.39999999999194 -0.1000000000008428 0.0
26.3999999999916 0.09999999999915737 0.0
26.39999999999126 0.2999999999995785 0.0
26.59999999999271 -0.3000000000004289 0.0
26.59999999999239 -0.1000000000008576 0.0
26.59999999999206 0.09999999999914262 0.0
26.59999999999174 0.2999999999995712 0.0
26.79999999999313 -0.3000000000004363 0.0
26.79999999999283 -0.1000000000008723 0.0
26.79999999999253 0.09999999999912786 0.0
26.79999999999223 0.2999999999995638 0.0
26.99999999999357 -0.3000000000004435 0.0
26.99999999999329 -0.1000000000008871 0.0
26.99999999999301 0.099999999999113 0.0
26.99999999999272 0.2999999999995564 0.0
27.199999999994 -0.300000000000451 0.0
27.19999999999373 -0.1000000000009019 0.0
27.19999999999347 0.09999999999909828 0.0
27.1999999999932 0.299999999999549 0.0
27.39999999999442 -0.3000000000004585 0.0
27.39999999999418 -0.1000000000009167 0.0
27.39999999999393 0.09999999999908346 0.0
27.39999999999369 0.2999999999995416 0.0
27.59999999999485 -0.3000000000004657 0.0
27.59999999999462 -0.1000000000009315 0.0
27.5999999999944 0.09999999999906871 0.0
27.59999999999417 0.2999999999995343 0.0
27.79999999999528 -0.3000000000004732 0.0
27.79999999999507 -0.1000000000009463 0.0
27.79999999999487 0.09999999999905394 0.0
27.79999999999465 0.2999999999995268 0.0
27.99999999999571 -0.3000000000004806 0.0
27.99999999999552 -0.100000000000961 0.0
27.99999999999533 0.09999999999903912 0.0
27.99999999999515 0.2999999999995194 0.0
28.19999999999614 -0.3000000000004879 0.0
28.19999999999597 -0.1000000000009758 0.0
28.19999999999581 0.09999999999902433 0.0
28.19999999999563 0.2999999999995121 0.0
28.39999999999657 -0.3000000000004953 0.0
28.39999999999642 -0.1000000000009906 0.0
28.39999999999626 0.09999999999900955 0.0
28.39999999999611 0.2999999999995047 0.0
28.599999999997 -0.3000000000005029 0.0
28.59999999999686 -0.1000000000010055 0.0
28.59999999999673 0.09999999999899478 0.0
28.59999999999659 0.2999999999994972 0.0
28.79999999999742 -0.3000000000005102 0.0
28.79999999999731 -0.1000000000010202 0.0
28.7999999999972 0.09999999999897995 0.0
28.79999999999709 0.2999999999994899 0.0
28.99999999999786 -0.3000000000005175 0.0
28.99999999999776 -0.100000000001035 0.0
28.99999999999766 0.09999999999896521 0.0
28.99999999999757 0.2999999999994825 0.0
29.19999999999828 -0.3000000000005249 0.0
29.19999999999821 -0.1000000000010497 0.0
29.19999999999813 0.09999999999895037 0.0
29.19999999999806 0.299999999999475 0.0
29.39999999999872 -0.3000000000005324 0.0
29.39999999999866 -0.1000000000010646 0.0
29.3999999999986 0.09999999999893563 0.0
29.39999999999854 0.2999999999994677 0.0
29.59999999999913 -0.3000000000005397 0.0
29.5999999999991 -0.1000000000010793 0.0
29.59999999999906 0.09999999999892087 0.0
29.59999999999902 0.2999999999994603 0.0
29.79999999999956 -0.3000000000005472 0.0
29.79999999999955 -0.1000000000010941 0.0
29.79999999999954 0.09999999999890603 0.0
29.79999999999951 0.2999999999994528 0.0
CELLS 750 3750
4 0 4 310 309
4 309 310 311 308
4 308 311 312 307
4 307 312 313 306
4 306 313 305 3
4 4 5 314 310
4 310 314 315 311
4 311 315 316 312
4 312 316 317 313
4 313 317 304 305
4 5 6 318 314
4 314 318 319 315
4 315 319 320 316
4 316 320 321 317
4 317 321 303 304
4 6 7 322 318
4 318 322 323 319
4 319 323 324 320
4 320 324 325 321
4 321 325 302 303
4 7 8 326 322
4 322 326 327 323
4 323 327 328 324
4 324 328 329 325
4 325 329 301 302
4 8 9 330 326
4 326 330 331 327
4 327 331 332 328
4 328 332 333 329
4 329 333 300 301
4 9 10 334 330
4 330 334 335 331
4 331 335 336 332
4 332 336 337 333
4 333 337 299 300
4 10 11 338 334
4 334 338 339 335
4 335 339 340 336
4 336 340 341 337
4 337 341 298 299
4 11 12 342 338
4 338 342 343 339
4 339 343 344 340
4 340 344 345 341
4 341 345 297 298
4 12 13 346 342
4 342 346 347 343
4 343 347 348 344
4 344 348 349 345
4 345 349 296 297
4 13 14 350 346
4 346 350 351 347
4 347 351 352 348
4 348 352 353 349
4 349 353 295 296
4 14 15 354 350
4 350 354 355 351
4 351 355 356 352
4 352 356 357 353
4 353 357 294 295
4 15 16 358 354
4 354 358 359 355
4 355 359 360 356
4 356 360 361 357
4 357 361 293 294
4 16 17 362 358
4 358 362 363 359
4 359 363 364 360
4 360 364 365 361
4 361 365 292 293
4 17 18 366 362
4 362 366 367 363
4 363 367 368 364
4 364 368 369 365
4 365 369 291 292
4 18 19 370 366
4 366 370 371 367
4 367 371 372 368
4 368 372 373 369
4 369 373 290 291
4 19 20 374 370
4 370 374 375 371
4 371 375 376 372
4 372 376 377 373
4 373 377 289 290
4 20 21 378 374
4 374 378 379 375
4 375 379 380 376
4 376 380 381 377
4 377 381 288 289
4 21 22 382 378
4 378 382 383 379
4 379 383 384 380
4 380 384 385 381
4 381 385 287 288
4 22 23 386 382
4 382 386 387 383
4 383 387 388 384
4 384 388 389 385
4 385 389 286 287
4 23 24 390 386
4 386 390 391 387
4 387 391 392 388
4 388 392 393 389
4 389 393 285 286
4 24 25 394 390
4 390 394 395 391
4 391 395 396 392
4 392 396 397 393
4 393 397 284 285
4 25 26 398 394
4 394 398 399 395
4 395 399 400 396
4 396 400 401 397
4 397 401 283 284
4 26 27 402 398
4 398 402 403 399
4 399 403 404 400
4 400 404 405 401
4 401 405 282 283
4 27 28 406 402
4 402 406 407 403
4 403 407 408 404
4 404 408 409 405
4 405 409 281 282
4 28 29 410 406
4 406 410 411 407
4 407 411 412 408
4 408 412 413 409
4 409 413 280 281
4 29 30 414 410
4 410 414 415 411
4 411 415 416 412
4 412 416 417 413
4 413 417 279 280
4 30 31 418 414
4 414 418 419 415
4 415 419 420 416
4 416 420 421 417
4 417 421 278 279
4 31 32 422 418
4 418 422 423 419
4 419 423 424 420
4 420 424 425 421
4 421 425 277 278
4 32 33 426 422
4 422 426 427 423
4 423 427 428 424
4 424 428 429 425
4 425 429 276 277
4 33 34 430 426
4 426 430 431 427
4 427 431 432 428
4 428 432 433 429
4 429 433 275 276
4 34 35 434 430
4 430 434 435 431
4 431 435 436 432
4 432 436 437 433
4 433 437 274 275
4 35 36 438 434
4 434 438 439 435
4 435 439 440 436
4 436 440 441 437
4 437 441 273 274
4 36 37 442 438
4 438 442 443 439
4 439 443 444 440
4 440 444 445 441
4 441 445 272 273
4 37 38 446 442
4 442 446 447 443
4 443 447 448 444
4 444 448 449 445
4 445 449 271 272
4 38 39 450 446
4 446 450 451 447
4 447 451 452 448
4 448 452 453 449
4 449 453 270 271
4 39 40 454 450
4 450 454 455 451
4 451 455 456 452
4 452 456 457 453
4 453 457 269 270
4 40 41 458 454
4 454 458 459 455
4 455 459 460 456
4 456 460 461 457
4 457 461 268 269
4 41 42 462 458
4 458 462 463 459
4 459 463 464 460
4 460 464 465 461
4 461 465 267 268
4 42 43 466 462
4 462 466 467 463
4 463 467 468 464
4 464 468 469 465
4 465 469 266 267
4 43 44 470 466
4 466 470 471 467
4 467 471 472 468
4 468 472 473 469
4 469 473 265 266
4 44 45 474 470
4 470 474 475 471
4 471 475 476 472
4 472 476 477 473
4 473 477 264 265
4 45 46 478 474
4 474 478 479 475
4 475 479 480 476
4 476 480 481 477
4 477 481 263 264
4 46 47 482 478
4 478 482 483 479
4 479 483 484 480
4 480 484 485 481
4 481 485 262 263
4 47 48 486 482
4 482 486 487 483
4 483 487 488 484
4 484 488 489 485
4 485 489 261 262
4 48 49 490 486
4 486 490 491 487
4 487 491 492 488
4 488 492 493 489
4 489 493 260 261
4 49 50 494 490
4 490 494 495 491
4 491 495 496 492
4 492 496 497 493
4 493 497 259 260
4 50 51 498 494
4 494 498 499 495
4 495 499 500 496
4 496 500 501 497
4 497 501 258 259
4 51 52 502 498
4 498 502 503 499
4 499 503 504 500
4 500 504 505 501
4 501 505 257 258
4 52 53 506 502
4 502 506 507 503
4 503 507 508 504
4 504 508 509 505
4 505 509 256 257
4 53 54 510 506
4 506 510 511 507
4 507 511 512 508
4 508 512 513 509
4 509 513 255 256
4 54 55 514 510
4 510 514 515 511
4 511 515 516 512
4 512 516 517 513
4 513 517 254 255
4 55 56 518 514
4 514 518 519 515
4 515 519 520 516
4 516 520 521 517
4 517 521 253 254
4 56 57 522 518
4 518 522 523 519
4 519 523 524 520
4 520 524 525 521
4 521 525 252 253
4 57 58 526 522
4 522 526 527 523
4 523 527 528 524
4 524 528 529 525
4 525 529 251 252
4 58 59 530 526
4 526 530 531 527
4 527 531 532 528
4 528 532 533 529
4 529 533 250 251
4 59 60 534 530
4 530 534 535 531
4 531 535 536 532
4 532 536 537 533
4 533 537 249 250
4 60 61 538 534
4 534 538 539 535
4 535 539 540 536
4 536 540 541 537
4 537 541 248 249
4 61 62 542 538
4 538 542 543 539
4 539 543 544 540
4 540 544 545 541
4 541 545 247 248
4 62 63 546 542
4 542 546 547 543
4 543 547 548 544
4 544 548 549 545
4 545 549 246 247
4 63 64 550 546
4 546 550 551 547
4 547 551 552 548
4 548 552 553 549
4 549 553 245 246
4 64 65 554 550
4 550 554 555 551
4 551 555 556 552
4 552 556 557 553
4 553 557 244 245
4 65 66 558 554
4 554 558 559 555
4 555 559 560 556
4 556 560 561 557
4 557 561 243 244
4 66 67 562 558
4 558 562 563 559
4 559 563 564 560
4 560 564 565 561
4 561 565 242 243
4 67 68 566 562
4 562 566 567 563
4 563 567 568 564
4 564 568 569 565
4 565 569 241 242
4 68 69 570 566
4 566 570 571 567
4 567 571 572 568
4 568 572 573 569
4 569 573 240 241
4 69 70 574 570
4 570 574 575 571
4 571 575 576 572
4 572 576 577 573
4 573 577 239 240
4 70 71 578 574
4 574 578 579 575
4 575 579 580 576
4 576 580 581 577
4 577 581 238 239
4 71 72 582 578
4 578 582 583 579
4 579 583 584 580
4 580 584 585 581
4 581 585 237 238
4 72 73 586 582
4 582 586 587 583
4 583 587 588 584
4 584 588 589 585
4 585 589 236 237
4 73 74 590 586
4 586 590 591 587
4 587 591 592 588
4 588 592 593 589
4 589 593 235 236
4 74 75 594 590
4 590 594 595 591
4 591 595 596 592
4 592 596 597 593
4 593 597 234 235
4 75 76 598 594
4 594 598 599 595
4 595 599 600 596
4 596 600 601 597
4 597 601 233 234
4 76 77 602 598
4 598 602 603 599
4 599 603 604 600
4 600 604 605 601
4 601 605 232 233
4 77 78 606 602
4 602 606 607 603
4 603 607 608 604
4 604 608 609 605
4 605 609 231 232
4 78 79 610 606
4 606 610 611 607
4 607 611 612 608
4 608 612 613 609
4 609 613 230 231
4 79 80 614 610
4 610 614 615 611
4 611 615 616 612
4 612 616 617 613
4 613 617 229 230
4 80 81 618 614
4 614 618 619 615
4 615 619 620 616
4 616 620 621 617
4 617 621 228 229
4 81 82 622 618
4 618 622 623 619
4 619 623 624 620
4 620 624 625 621
4 621 625 227 228
4 82 83 626 622
4 622 626 627 623
4 623 627 628 624
4 624 628 629 625
4 625 629 226 227
4 83 84 630 626
4 626 630 631 627
4 627 631 632 628
4 628 632 633 629
4 629 633 225 226
4 84 85 634 630
4 630 634 635 631
4 631 635 636 632
4 632 636 637 633
4 633 637 224 225
4 85 86 638 634
4 634 638 639 635
4 635 639 640 636
4 636 640 641 637
4 637 641 223 224
4 86 87 642 638
4 638 642 643 639
4 639 643 644 640
4 640 644 645 641
4 641 645 222 223
4 87 88 646 642
4 642 646 647 643
4 643 647 648 644
4 644 648 649 645
4 645 649 221 222
4 88 89 650 646
4 646 650 651 647
4 647 651 652 648
4 648 652 653 649
4 649 653 220 221
4 89 90 654 650
4 650 654 655 651
4 651 655 656 652
4 652 656 657 653
4 653 657 219 220
4 90 91 658 654
4 654 658 659 655
4 655 659 660 656
4 656 660 661 657
4 657 661 218 219
4 91 92 662 658
4 658 662 663 659
4 659 663 664 660
4 660 664 665 661
4 661 665 217 218
4 92 93 666 662
4 662 666 667 663
4 663 667 668 664
4 664 668 669 665
4 665 669 216 217
4 93 94 670 666
4 666 670 671 667
4 667 671 672 668
4 668 672 673 669
4 669 673 215 216
4 94 95 674 670
4 670 674 675 671
4 671 675 676 672
4 672 676 677 673
4 673 677 214 215
4 95 96 678 674
4 674 678 679 675
4 675 679 680 676
4 676 680 681 677
4 677 681 213 214
4 96 97 682 678
4 678 682 683 679
4 679 683 684 680
4 680 684 685 681
4 681 685 212 213
4 97 98 686 682
4 682 686 687 683
4 683 687 688 684
4 684 688 689 685
4 685 689 211 212
4 98 99 690 686
4 686 690 691 687
4 687 691 692 688
4 688 692 693 689
4 689 693 210 211
4 99 100 694 690
4 690 694 695 691
4 691 695 696 692
4 692 696 697 693
4 693 697 209 210
4 100 101 698 694
4 694 698 699 695
4 695 699 700 696
4 696 700 701 697
4 697 701 208 209
4 101 102 702 698
4 698 702 703 699
4 699 703 704 700
4 700 704 705 701
4 701 705 207 208
4 102 103 706 702
4 702 706 707 703
4 703 707 708 704
4 704 708 709 705
4 705 709 206 207
4 103 104 710 706
4 706 710 711 707
4 707 711 712 708
4 708 712 713 709
4 709 713 205 206
4 104 105 714 710
4 710 714 715 711
4 711 715 716 712
4 712 716 717 713
4 713 717 204 205
4 105 106 718 714
4 714 718 719 715
4 715 719 720 716
4 716 720 721 717
4 717 721 203 204
4 106 107 722 718
4 718 722 723 719
4 719 723 724 720
4 720 724 725 721
4 721 725 202 203
4 107 108 726 722
4 722 726 727 723
4 723 727 728 724
4 724 728 729 725
4 725 729 201 202
4 108 109 730 726
4 726 730 731 727
4 727 731 732 728
4 728 732 733 729
4 729 733 200 201
4 109 110 734 730
4 730 734 735 731
4 731 735 736 732
4 732 736 737 733
4 733 737 199 200
4 110 111 738 734
4 734 738 739 735
4 735 739 740 736
4 736 740 741 737
4 737 741 198 199
4 111 112 742 738
4 738 742 743 739
4 739 743 744 740
4 740 744 745 741
4 741 745 197 198
4 112 113 746 742
4 742 746 747 743
4 743 747 748 744
4 744 748 749 745
4 745 749 196 197
4 113 114 750 746
4 746 750 751 747
4 747 751 752 748
4 748 752 753 749
4 749 753 195 196
4 114 115 754 750
4 750 754 755 751
4 751 755 756 752
4 752 756 757 753
4 753 757 194 195
4 115 116 758 754
4 754 758 759 755
4 755 759 760 756
4 756 760 761 757
4 757 761 193 194
4 116 117 762 758
4 758 762 763 759
4 759 763 764 760
4 760 764 765 761
4 761 765 192 193
4 117 118 766 762
4 762 766 767 763
4 763 767 768 764
4 764 768 769 765
4 765 769 191 192
4 118 119 770 766
4 766 770 771 767
4 767 771 772 768
4 768 772 773 769
4 769 773 190 191
4 119 120 774 770
4 770 774 775 771
4 771 775 776 772
4 772 776 777 773
4 773 777 189 190
4 120 121 778 774
4 774 778 779 775
4 775 779 780 776
4 776 780 781 777
4 777 781 188 189
4 121 122 782 778
4 778 782 783 779
4 779 783 784 780
4 780 784 785 781
4 781 785 187 188
4 122 123 786 782
4 782 786 787 783
4 783 787 788 784
4 784 788 789 785
4 785 789 186 187
4 123 124 790 786
4 786 790 791 787
4 787 791 792 788
4 788 792 793 789
4 789 793 185 186
4 124 125 794 790
4 790 794 795 791
4 791 795 796 792
4 792 796 797 793
4 793 797 184 185
4 125 126 798 794
4 794 798 799 795
4 795 799 800 796
4 796 800 801 797
4 797 801 183 184
4 126 127 802 798
4 798 802 803 799
4 799 803 804 800
4 800 804 805 801
4 801 805 182 183
4 127 128 806 802
4 802 806 807 803
4 803 807 808 804
4 804 808 809 805
4 805 809 181 182
4 128 129 810 806
4 806 810 811 807
4 807 811 812 808
4 808 812 813 809
4 809 813 180 181
4 129 130 814 810
4 810 814 815 811
4 811 815 816 812
4 812 816 817 813
4 813 817 179 180
4 130 131 818 814
4 814 818 819 815
4 815 819 820 816
4 816 820 821 817
4 817 821 178 179
4 131 132 822 818
4 818 822 823 819
4 819 823 824 820
4 820 824 825 821
4 821 825 177 178
4 132 133 826 822
4 822 826 827 823
4 823 827 828 824
4 824 828 829 825
4 825 829 176 177
4 133 134 830 826
4 826 830 831 827
4 827 831 832 828
4 828 832 833 829
4 829 833 175 176
4 134 135 834 830
4 830 834 835 831
4 831 835 836 832
4 832 836 837 833
4 833 837 174 175
4 135 136 838 834
4 834 838 839 835
4 835 839 840 836
4 836 840 841 837
4 837 841 173 174
4 136 137 842 838
4 838 842 843 839
4 839 843 844 840
4 840 844 845 841
4 841 845 172 173
4 137 138 846 842
4 842 846 847 843
4 843 847 848 844
4 844 848 849 845
4 845 849 171 172
4 138 139 850 846
4 846 850 851 847
4 847 851 852 848
4 848 852 853 849
4 849 853 170 171
4 139 140 854 850
4 850 854 855 851
4 851 855 856 852
4 852 856 857 853
4 853 857 169 170
4 140 141 858 854
4 854 858 859 855
4 855 859 860 856
4 856 860 861 857
4 857 861 168 169
4 141 142 862 858
4 858 862 863 859
4 859 863 864 860
4 860 864 865 861
4 861 865 167 168
4 142 143 866 862
4 862 866 867 863
4 863 867 868 864
4 864 868 869 865
4 865 869 166 167
4 143 144 870 866
4 866 870 871 867
4 867 871 872 868
4 868 872 873 869
4 869 873 165 166
4 144 145 874 870
4 870 874 875 871
4 871 875 876 872
4 872 876 877 873
4 873 877 164 165
4 145 146 878 874
4 874 878 879 875
4 875 879 880 876
4 876 880 881 877
4 877 881 163 164
4 146 147 882 878
4 878 882 883 879
4 879 883 884 880
4 880 884 885 881
4 881 885 162 163
4 147 148 886 882
4 882 886 887 883
4 883 887 888 884
4 884 888 889 885
4 885 889 161 162
4 148 149 890 886
4 886 890 891 887
4 887 891 892 888
4 888 892 893 889
4 889 893 160 161
4 149 150 894 890
4 890 894 895 891
4 891 895 896 892
4 892 896 897 893
4 893 897 159 160
4 150 151 898 894
4 894 898 899 895
4 895 899 900 896
4 896 900 901 897
4 897 901 158 159
4 151 152 902 898
4 898 902 903 899
4 899 903 904 900
4 900 904 905 901
4 901 905 157 158
4 152 1 153 902
4 902 153 154 903
4 903 154 155 904
4 904 155 156 905
4 905 156 2 157
CELL_TYPES 750
9
9
9
9
9
9
9
9
9
9
9
9
9
9
9
9
9
9
9
9
9
9
9
9
9
9
9
9
9
9
9
9
9
9
9
9
9
9
9
9
9
9
9
9
9
9
9
9
9
9
9
9
9
9
9
9
9
9
9
9
9
9
9
9
9
9
9
9
9
9
9
9
9
9
9
9
9
9
9
9
9
9
9
9
9
9
9
9
9
9
9
9
9
9
9
9
9
9
9
9
9
9
9
9
9
9
9
9
9
9
9
9
9
9
9
9
9
9
9
9
9
9
9
9
9
9
9
9
9
9
9
9
9
9
9
9
9
9
9
9
9
9
9
9
9
9
9
9
9
9
9
9
9
9
9
9
9
9
9
9
9
9
9
9
9
9
9
9
9
9
9
9
9
9
9
9
9
9
9
9
9
9
9
9
9
9
9
9
9
9
9
9
9
9
9
9
9
9
9
9
9
9
9
9
9
9
9
9
9
9
9
9
9
9
9
9
9
9
9
9
9
9
9
9
9
9
9
9
9
9
9
9
9
9
9
9
9
9
9
9
9
9
9
9
9
9
9
9
9
9
9
9
9
9
9
9
9
9
9
9
9
9
9
9
9
9
9
9
9
9
9
9
9
9
9
9
9
9
9
9
9
9
9
9
9
9
9
9
9
9
9
9
9
9
9
9
9
9
9
9
9
9
9
9
9
9
9
9
9
9
9
9
9
9
9
9
9
9
9
9
9
9
9
9
9
9
9
9
9
9
9
9
9
9
9
9
9
9
9
9
9
9
9
9
9
9
9
9
9
9
9
9
9
9
9
9
9
9
9
9
9
9
9
9
9
9
9
9
9
9
9
9
9
9
9
9
9
9
9
9
9
9
9
9
9
9
9
9
9
9
9
9
9
9
9
9
9
9
9
9
9
9
9
9
9
9
9
9
9
9
9
9
9
9
9
9
9
9
9
9
9
9
9
9
9
9
9
9
9
9
9
9
9
9
9
9
9
9
9
9
9
9
9
9
9
9
9
9
9
9
9
9
9
9
9
9
9
9
9
9
9
9
9
9
9
9
9
9
9
9
9
9
9
9
9
9
9
9
9
9
9
9
9
9
9
9
9
9
9
9
9
9
9
9
9
9
9
9
9
9
9
9
9
9
9
9
9
9
9
9
9
9
9
9
9
9
9
9
9
9
9
9
9
9
9
9
9
9
9
9
9
9
9
9
9
9
9
9
9
9
9
9
9
9
9
9
9
9
9
9
9
9
9
9
9
9
9
9
9
9
9
9
9
9
9
9
9
9
9
9
9
9
9
9
9
9
9
9
9
9
9
9
9
9
9
9
9
9
9
9
9
9
9
9
9
9
9
9
9
9
9
9
9
9
9
9
9
9
9
9
9
9
9
9
9
9
9
9
9
9
9
9
9
9
9
9
9
9
9
9
9
9
9
9
9
9
9
9
9
9
9
9
9
9
9
9
9
9
9
9
9
9
9
9
9
9
9
9
9
9
9
9
9
9
9
9
9
9
9
9
9
9
9
9
9
9
9
9
9
9
9
9
9
9
9
9
9
9
9
9
9
9
9
9
9
9
9
9
9
9
9
9
9
9
9
9
9
9
9
9
9
9
9
9
9
9
9
9
9
9
9
9
9
9
9
9
9
9
9
9
9
9
9
9
9
9
9
9
9
9
9
9
9
9
9
9
9
9
9
9
POINT_DATA 906
SCALARS stress11 float
LOOKUP_TABLE default
0.0
0.0
0.0
0.0
0.0
0.0
0.0
0.0
0.0
0.0
0.0
0.0
0.0
0.0
0.0
0.0
0.0
0.0
0.0
0.0
0.0
0.0
0.0
0.0
0.0
0.0
0.0
0.0
0.0
0.0
0.0
0.0
0.0
0.0
0.0
0.0
0.0
0.0
0.0
0.0
0.0
0.0
0.0
0.0
0.0
0.0
0.0
0.0
0.0
0.0
0.0
0.0
0.0
0.0
0.0
0.0
0.0
0.0
0.0
0.0
0.0
0.0
0.0
0.0
0.0
0.0
0.0
0.0
0.0
0.0
0.0
0.0
0.0
0.0
0.0
0.0
0.0
0.0
0.0
0.0
0.0
0.0
0.0
0.0
0.0
0.0
0.0
0.0
0.0
0.0
0.0
0.0
0.0
0.0
0.0
0.0
0.0
0.0
0.0
0.0
0.0
0.0
0.0
0.0
0.0
0.0
0.0
0.0
0.0
0.0
0.0
0.0
0.0
0.0
0.0
0.0
0.0
0.0
0.0
0.0
0.0
0.0
0.0
0.0
0.0
0.0
0.0
0.0
0.0
0.0
0.0
0.0
0.0
0.0
0.0
0.0
0.0
0.0
0.0
0.0
0.0
0.0
0.0
0.0
0.0
0.0
0.0
0.0
0.0
0.0
0.0
0.0
0.0
0.0
0.0
0.0
0.0
0.0
0.0
0.0
0.0
0.0
0.0
0.0
0.0
0.0
0.0
0.0
0.0
0.0
0.0
0.0
0.0
0.0
0.0
0.0
0.0
0.0
0.0
0.0
0.0
0.0
0.0
0.0
0.0
0.0
0.0
0.0
0.0
0.0
0.0
0.0
0.0
0.0
0.0
0.0
0.0
0.0
0.0
0.0
0.0
0.0
0.0
0.0
0.0
0.0
0.0
0.0
0.0
0.0
0.0
0.0
0.0
0.0
0.0
0.0
0.0
0.0
0.0
0.0
0.0
0.0
0.0
0.0
0.0
0.0
0.0
0.0
0.0
0.0
0.0
0.0
0.0
0.0
0.0
0.0
0.0
0.0
0.0
0.0
0.0
0.0
0.0
0.0
0.0
0.0
0.0
0.0
0.0
0.0
0.0
0.0
0.0
0.0
0.0
0.0
0.0
0.0
0.0
0.0
0.0
0.0
0.0
0.0
0.0
0.0
0.0
0.0
0.0
0.0
0.0
0.0
0.0
0.0
0.0
0.0
0.0
0.0
0.0
0.0
0.0
0.0
0.0
0.0
0.0
0.0
0.0
0.0
0.0
0.0
0.0
0.0
0.0
0.0
0.0
0.0
0.0
0.0
0.0
0.0
0.0
0.0
0.0
0.0
0.0
0.0
0.0
0.0
0.0
0.0
0.0
0.0
0.0
0.0
0.0
0.0
0.0
0.0
0.0
0.0
0.0
0.0
0.0
0.0
0.0
0.0
0.0
0.0
0.0
0.0
0.0
0.0
0.0
0.0
0.0
0.0
0.0
0.0
0.0
0.0
0.0
0.0
0.0
0.0
0.0
0.0
0.0
0.0
0.0
0.0
0.0
0.0
0.0
0.0
0.0
0.0
0.0
0.0
0.0
0.0
0.0
0.0
0.0
0.0
0.0
0.0
0.0
0.0
0.0
0.0
0.0
0.0
0.0
0.0
0.0
0.0
0.0
0.0
0.0
0.0
0.0
0.0
0.0
0.0
0.0
0.0
0.0
0.0
0.0
0.0
0.0
0.0
0.0
0.0
0.0
0.0
0.0
0.0
0.0
0.0
0.0
0.0
0.0
0.0
0.0
0.0
0.0
0.0
0.0
0.0
0.0
0.0
0.0
0.0
0.0
0.0
0.0
0.0
0.0
0.0
0.0
0.0
0.0
0.0
0.0
0.0
0.0
0.0
0.0
0.0
0.0
0.0
0.0
0.0
0.0
0.0
0.0
0.0
0.0
0.0
0.0
0.0
0.0
0.0
0.0
0.0
0.0
0.0
0.0
0.0
0.0
0.0
0.0
0.0
0.0
0.0
0.0
0.0
0.0
0.0
0.0
0.0
0.0
0.0
0.0
0.0
0.0
0.0
0.0
0.0
0.0
0.0
0.0
0.0
0.0
0.0
0.0
0.0
0.0
0.0
0.0
0.0
0.0
0.0
0.0
0.0
0.0
0.0
0.0
0.0
0.0
0.0
0.0
0.0
0.0
0.0
0.0
0.0
0.0
0.0
0.0
0.0
0.0
0.0
0.0
0.0
0.0
0.0
0.0
0.0
0.0
0.0
0.0
0.0
0.0
0.0
0.0
0.0
0.0
0.0
0.0
0.0
0.0
0.0
0.0
0.0
0.0
0.0
0.0
0.0
0.0
0.0
0.0
0.0
0.0
0.0
0.0
0.0
0.0
0.0
0.0
0.0
0.0
0.0
0.0
0.0
0.0
0.0
0.0
0.0
0.0
0.0
0.0
0.0
0.0
0.0
0.0
0.0
0.0
0.0
0.0
0.0
0.0
0.0
0.0
0.0
0.0
0.0
0.0
0.0
0.0
0.0
0.0
0.0
0.0
0.0
0.0
0.0
0.0
0.0
0.0
0.0
0.0
0.0
0.0
0.0
0.0
0.0
0.0
0.0
0.0
0.0
0.0
0.0
0.0
0.0
0.0
0.0
0.0
0.0
0.0
0.0
0.0
0.0
0.0
0.0
0.0
0.0
0.0
0.0
0.0
0.0
0.0
0.0
0.0
0.0
0.0
0.0
0.0
0.0
0.0
0.0
0.0
0.0
0.0
0.0
0.0
0.0
0.0
0.0
0.0
0.0
0.0
0.0
0.0
0.0
0.0
0.0
0.0
0.0
0.0
0.0
0.0
0.0
0.0
0.0
0.0
0.0
0.0
0.0
0.0
0.0
0.0
0.0
0.0
0.0
0.0
0.0
0.0
0.0
0.0
0.0
0.0
0.0
0.0
0.0
0.0
0.0
0.0
0.0
0.0
0.0
0.0
0.0
0.0
0.0
0.0
0.0
0.0
0.0
0.0
0.0
0.0
0.0
0.0
0.0
0.0
0.0
0.0
0.0
0.0
0.0
0.0
0.0
0.0
0.0
0.0
0.0
0.0
0.0
0.0
0.0
0.0
0.0
0.0
0.0
0.0
0.0
0.0
0.0
0.0
0.0
0.0
0.0
0.0
0.0
0.0
0.0
0.0
0.0
0.0
0.0
0.0
0.0
0.0
0.0
0.0
0.0
0.0
0.0
0.0
0.0
0.0
0.0
0.0
0.0
0.0
0.0
0.0
0.0
0.0
0.0
0.0
0.0
0.0
0.0
0.0
0.0
0.0
0.0
0.0
0.0
0.0
0.0
0.0
0.0
0.0
0.0
0.0
0.0
0.0
0.0
0.0
0.0
0.0
0.0
0.0
0.0
0.0
0.0
0.0
0.0
0.0
0.0
0.0
0.0
0.0
0.0
0.0
0.0
0.0
0.0
0.0
0.0
0.0
0.0
0.0
0.0
0.0
0.0
0.0
0.0
0.0
0.0
0.0
0.0
0.0
0.0
0.0
0.0
0.0
0.0
0.0
0.0
0.0
0.0
0.0
0.0
0.0
0.0
0.0
0.0
0.0
0.0
0.0
0.0
0.0
0.0
0.0
0.0
0.0
0.0
0.0
0.0
0.0
0.0
0.0
0.0
0.0
0.0
0.0
0.0
0.0
0.0
0.0
0.0
0.0
0.0
0.0
0.0
0.0
0.0
0.0
0.0
0.0
0.0
0.0
0.0
0.0
0.0
0.0
0.0
0.0
0.0
0.0
0.0
0.0
0.0
0.0
0.0
0.0
0.0
0.0
0.0
0.0
0.0
0.0
0.0
0.0
0.0
0.0
0.0
0.0
0.0
0.0
0.0
0.0
0.0
0.0
0.0
0.0
0.0
0.0
0.0
0.0
0.0
0.0
0.0
0.0
0.0
0.0
0.0
0.0
0.0
0.0
0.0
0.0
0.0
0.0
0.0
0.0
0.0
0.0
0.0
0.0
0.0
SCALARS stress22 float
LOOKUP_TABLE default
0.0
0.0
0.0
0.0
0.0
0.0
0.0
0.0
0.0
0.0
0.0
0.0
0.0
0.0
0.0
0.0
0.0
0.0
0.0
0.0
0.0
0.0
0.0
0.0
0.0
0.0
0.0
0.0
0.0
0.0
0.0
0.0
0.0
0.0
0.0
0.0
0.0
0.0
0.0
0.0
0.0
0.0
0.0
0.0
0.0
0.0
0.0
0.0
0.0
0.0
0.0
0.0
0.0
0.0
0.0
0.0
0.0
0.0
0.0
0.0
0.0
0.0
0.0
0.0
0.0
0.0
0.0
0.0
0.0
0.0
0.0
0.0
0.0
0.0
0.0
0.0
0.0
0.0
0.0
0.0
0.0
0.0
0.0
0.0
0.0
0.0
0.0
0.0
0.0
0.0
0.0
0.0
0.0
0.0
0.0
0.0
0.0
0.0
0.0
0.0
0.0
0.0
0.0
0.0
0.0
0.0
0.0
0.0
0.0
0.0
0.0
0.0
0.0
0.0
0.0
0.0
0.0
0.0
0.0
0.0
0.0
0.0
0.0
0.0
0.0
0.0
0.0
0.0
0.0
0.0
0.0
0.0
0.0
0.0
0.0
0.0
0.0
0.0
0.0
0.0
0.0
0.0
0.0
0.0
0.0
0.0
0.0
0.0
0.0
0.0
0.0
0.0
0.0
0.0
0.0
0.0
0.0
0.0
0.0
0.0
0.0
0.0
0.0
0.0
0.0
0.0
0.0
0.0
0.0
0.0
0.0
0.0
0.0
0.0
0.0
0.0
0.0
0.0
0.0
0.0
0.0
0.0
0.0
0.0
0.0
0.0
0.0
0.0
0.0
0.0
0.0
0.0
0.0
0.0
0.0
0.0
0.0
0.0
0.0
0.0
0.0
0.0
0.0
0.0
0.0
0.0
0.0
0.0
0.0
0.0
0.0
0.0
0.0
0.0
0.0
0.0
0.0
0.0
0.0
0.0
0.0
0.0
0.0
0.0
0.0
0.0
0.0
0.0
0.0
0.0
0.0
0.0
0.0
0.0
0.0
0.0
0.0
0.0
0.0
0.0
0.0
0.0
0.0
0.0
0.0
0.0
0.0
0.0
0.0
0.0
0.0
0.0
0.0
0.0
0.0
0.0
0.0
0.0
0.0
0.0
0.0
0.0
0.0
0.0
0.0
0.0
0.0
0.0
0.0
0.0
0.0
0.0
0.0
0.0
0.0
0.0
0.0
0.0
0.0
0.0
0.0
0.0
0.0
0.0
0.0
0.0
0.0
0.0
0.0
0.0
0.0
0.0
0.0
0.0
0.0
0.0
0.0
0.0
0.0
0.0
0.0
0.0
0.0
0.0
0.0
0.0
0.0
0.0
0.0
0.0
0.0
0.0
0.0
0.0
0.0
0.0
0.0
0.0
0.0
0.0
0.0
0.0
0.0
0.0
0.0
0.0
0.0
0.0
0.0
0.0
0.0
0.0
0.0
0.0
0.0
0.0
0.0
0.0
0.0
0.0
0.0
0.0
0.0
0.0
0.0
0.0
0.0
0.0
0.0
0.0
0.0
0.0
0.0
0.0
0.0
0.0
0.0
0.0
0.0
0.0
0.0
0.0
0.0
0.0
0.0
0.0
0.0
0.0
0.0
0.0
0.0
0.0
0.0
0.0
0.0
0.0
0.0
0.0
0.0
0.0
0.0
0.0
0.0
0.0
0.0
0.0
0.0
0.0
0.0
0.0
0.0
0.0
0.0
0.0
0.0
0.0
0.0
0.0
0.0
0.0
0.0
0.0
0.0
0.0
0.0
0.0
0.0
0.0
0.0
0.0
0.0
0.0
0.0
0.0
0.0
0.0
0.0
0.0
0.0
0.0
0.0
0.0
0.0
0.0
0.0
0.0
0.0
0.0
0.0
0.0
0.0
0.0
0.0
0.0
0.0
0.0
0.0
0.0
0.0
0.0
0.0
0.0
0.0
0.0
0.0
0.0
0.0
0.0
0.0
0.0
0.0
0.0
0.0
0.0
0.0
0.0
0.0
0.0
0.0
0.0
0.0
0.0
0.0
0.0
0.0
0.0
0.0
0.0
0.0
0.0
0.0
0.0
0.0
0.0
0.0
0.0
0.0
0.0
0.0
0.0
0.0
0.0
0.0
0.0
0.0
0.0
0.0
0.0
0.0
0.0
0.0
0.0
0.0
0.0
0.0
0.0
0.0
0.0
0.0
0.0
0.0
0.0
0.0
0.0
0.0
0.0
0.0
0.0
0.0
0.0
0.0
0.0
0.0
0.0
0.0
0.0
0.0
0.0
0.0
0.0
0.0
0.0
0.0
0.0
0.0
0.0
0.0
0.0
0.0
0.0
0.0
0.0
0.0
0.0
0.0
0.0
0.0
0.0
0.0
0.0
0.0
0.0
0.0
0.0
0.0
0.0
0.0
0.0
0.0
0.0
0.0
0.0
0.0
0.0
0.0
0.0
0.0
0.0
0.0
0.0
0.0
0.0
0.0
0.0
0.0
0.0
0.0
0.0
0.0
0.0
0.0
0.0
0.0
0.0
0.0
0.0
0.0
0.0
0.0
0.0
0.0
0.0
0.0
0.0
0.0
0.0
0.0
0.0
0.0
0.0
0.0
0.0
0.0
0.0
0.0
0.0
0.0
0.0
0.0
0.0
0.0
0.0
0.0
0.0
0.0
0.0
0.0
0.0
0.0
0.0
0.0
0.0
0.0
0.0
0.0
0.0
0.0
0.0
0.0
0.0
0.0
0.0
0.0
0.0
0.0
0.0
0.0
0.0
0.0
0.0
0.0
0.0
0.0
0.0
0.0
0.0
0.0
0.0
0.0
0.0
0.0
0.0
0.0
0.0
0.0
0.0
0.0
0.0
0.0
0.0
0.0
0.0
0.0
0.0
0.0
0.0
0.0
0.0
0.0
0.0
0.0
0.0
0.0
0.0
0.0
0.0
0.0
0.0
0.0
0.0
0.0
0.0
0.0
0.0
0.0
0.0
0.0
0.0
0.0
0.0
0.0
0.0
0.0
0.0
0.0
0.0
0.0
0.0
0.0
0.0
0.0
0.0
0.0
0.0
0.0
0.0
0.0
0.0
0.0
0.0
0.0
0.0
0.0
0.0
0.0
0.0
0.0
0.0
0.0
0.0
0.0
0.0
0.0
0.0
0.0
0.0
0.0
0.0
0.0
0.0
0.0
0.0
0.0
0.0
0.0
0.0
0.0
0.0
0.0
0.0
0.0
0.0
0.0
0.0
0.0
0.0
0.0
0.0
0.0
0.0
0.0
0.0
0.0
0.0
0.0
0.0
0.0
0.0
0.0
0.0
0.0
0.0
0.0
0.0
0.0
0.0
0.0
0.0
0.0
0.0
0.0
0.0
0.0
0.0
0.0
0.0
0.0
0.0
0.0
0.0
0.0
0.0
0.0
0.0
0.0
0.0
0.0
0.0
0.0
0.0
0.0
0.0
0.0
0.0
0.0
0.0
0.0
0.0
0.0
0.0
0.0
0.0
0.0
0.0
0.0
0.0
0.0
0.0
0.0
0.0
0.0
0.0
0.0
0.0
0.0
0.0
0.0
0.0
0.0
0.0
0.0
0.0
0.0
0.0
0.0
0.0
0.0
0.0
0.0
0.0
0.0
0.0
0.0
0.0
0.0
0.0
0.0
0.0
0.0
0.0
0.0
0.0
0.0
0.0
0.0
0.0
0.0
0.0
0.0
0.0
0.0
0.0
0.0
0.0
0.0
0.0
0.0
0.0
0.0
0.0
0.0
0.0
0.0
0.0
0.0
0.0
0.0
0.0
0.0
0.0
0.0
0.0
0.0
0.0
0.0
0.0
0.0
0.0
0.0
0.0
0.0
0.0
0.0
0.0
0.0
0.0
0.0
0.0
0.0
0.0
0.0
0.0
0.0
0.0
0.0
0.0
0.0
0.0
0.0
0.0
0.0
0.0
0.0
0.0
0.0
0.0
0.0
0.0
0.0
0.0
0.0
0.0
0.0
0.0
0.0
0.0
SCALARS stress12 float
LOOKUP_TABLE default
0.0
0.0
0.0
0.0
0.0
0.0
0.0
0.0
0.0
0.0
0.0
0.0
0.0
0.0
0.0
0.0
0.0
0.0
0.0
0.0
0.0
0.0
0.0
0.0
0.0
0.0
0.0
0.0
0.0
0.0
0.0
0.0
0.0
0.0
0.0
0.0
0.0
0.0
0.0
0.0
0.0
0.0
0.0
0.0
0.0
0.0
0.0
0.0
0.0
0.0
0.0
0.0
0.0
0.0
0.0
0.0
0.0
0.0
0.0
0.0
0.0
0.0
0.0
0.0
0.0
0.0
0.0
0.0
0.0
0.0
0.0
0.0
0.0
0.0
0.0
0.0
0.0
0.0
0.0
0.0
0.0
0.0
0.0
0.0
0.0
0.0
0.0
0.0
0.0
0.0
0.0
0.0
0.0
0.0
0.0
0.0
0.0
0.0
0.0
0.0
0.0
0.0
0.0
0.0
0.0
0.0
0.0
0.0
0.0
0.0
0.0
0.0
0.0
0.0
0.0
0.0
0.0
0.0
0.0
0.0
0.0
0.0
0.0
0.0
0.0
0.0
0.0
0.0
0.0
0.0
0.0
0.0
0.0
0.0
0.0
0.0
0.0
0.0
0.0
0.0
0.0
0.0
0.0
0.0
0.0
0.0
0.0
0.0
0.0
0.0
0.0
0.0
0.0
0.0
0.0
0.0
0.0
0.0
0.0
0.0
0.0
0.0
0.0
0.0
0.0
0.0
0.0
0.0
0.0
0.0
0.0
0.0
0.0
0.0
0.0
0.0
0.0
0.0
0.0
0.0
0.0
0.0
0.0
0.0
0.0
0.0
0.0
0.0
0.0
0.0
0.0
0.0
0.0
0.0
0.0
0.0
0.0
0.0
0.0
0.0
0.0
0.0
0.0
0.0
0.0
0.0
0.0
0.0
0.0
0.0
0.0
0.0
0.0
0.0
0.0
0.0
0.0
0.0
0.0
0.0
0.0
0.0
0.0
0.0
0.0
0.0
0.0
0.0
0.0
0.0
0.0
0.0
0.0
0.0
0.0
0.0
0.0
0.0
0.0
0.0
0.0
0.0
0.0
0.0
0.0
0.0
0.0
0.0
0.0
0.0
0.0
0.0
0.0
0.0
0.0
0.0
0.0
0.0
0.0
0.0
0.0
0.0
0.0
0.0
0.0
0.0
0.0
0.0
0.0
0.0
0.0
0.0
0.0
0.0
0.0
0.0
0.0
0.0
0.0
0.0
0.0
0.0
0.0
0.0
0.0
0.0
0.0
0.0
0.0
0.0
0.0
0.0
0.0
0.0
0.0
0.0
0.0
0.0
0.0
0.0
0.0
0.0
0.0
0.0
0.0
0.0
0.0
0.0
0.0
0.0
0.0
0.0
0.0
0.0
0.0
0.0
0.0
0.0
0.0
0.0
0.0
0.0
0.0
0.0
0.0
0.0
0.0
0.0
0.0
0.0
0.0
0.0
0.0
0.0
0.0
0.0
0.0
0.0
0.0
0.0
0.0
0.0
0.0
0.0
0.0
0.0
0.0
0.0
0.0
0.0
0.0
0.0
0.0
0.0
0.0
0.0
0.0
0.0
0.0
0.0
0.0
0.0
0.0
0.0
0.0
0.0
0.0
0.0
0.0
0.0
0.0
0.0
0.0
0.0
0.0
0.0
0.0
0.0
0.0
0.0
0.0
0.0
0.0
0.0
0.0
0.0
0.0
0.0
0.0
0.0
0.0
0.0
0.0
0.0
0.0
0.0
0.0
0.0
0.0
0.0
0.0
0.0
0.0
0.0
0.0
0.0
0.0
0.0
0.0
0.0
0.0
0.0
0.0
0.0
0.0
0.0
0.0
0.0
0.0
0.0
0.0
0.0
0.0
0.0
0.0
0.0
0.0
0.0
0.0
0.0
0.0
0.0
0.0
0.0
0.0
0.0
0.0
0.0
0.0
0.0
0.0
0.0
0.0
0.0
0.0
0.0
0.0
0.0
0.0
0.0
0.0
0.0
0.0
0.0
0.0
0.0
0.0
0.0
0.0
0.0
0.0
0.0
0.0
0.0
0.0
0.0
0.0
0.0
0.0
0.0
0.0
0.0
0.0
0.0
0.0
0.0
0.0
0.0
0.0
0.0
0.0
0.0
0.0
0.0
0.0
0.0
0.0
0.0
0.0
0.0
0.0
0.0
0.0
0.0
0.0
0.0
0.0
0.0
0.0
0.0
0.0
0.0
0.0
0.0
0.0
0.0
0.0
0.0
0.0
0.0
0.0
0.0
0.0
0.0
0.0
0.0
0.0
0.0
0.0
0.0
0.0
0.0
0.0
0.0
0.0
0.0
0.0
0.0
0.0
0.0
0.0
0.0
0.0
0.0
0.0
0.0
0.0
0.0
0.0
0.0
0.0
0.0
0.0
0.0
0.0
0.0
0.0
0.0
0.0
0.0
0.0
0.0
0.0
0.0
0.0
0.0
0.0
0.0
0.0
0.0
0.0
0.0
0.0
0.0
0.0
0.0
0.0
0.0
0.0
0.0
0.0
0.0
0.0
0.0
0.0
0.0
0.0
0.0
0.0
0.0
0.0
0.0
0.0
0.0
0.0
0.0
0.0
0.0
0.0
0.0
0.0
0.0
0.0
0.0
0.0
0.0
0.0
0.0
0.0
0.0
0.0
0.0
0.0
0.0
0.0
0.0
0.0
0.0
0.0
0.0
0.0
0.0
0.0
0.0
0.0
0.0
0.0
0.0
0.0
0.0
0.0
0.0
0.0
0.0
0.0
0.0
0.0
0.0
0.0
0.0
0.0
0.0
0.0
0.0
0.0
0.0
0.0
0.0
0.0
0.0
0.0
0.0
0.0
0.0
0.0
0.0
0.0
0.0
0.0
0.0
0.0
0.0
0.0
0.0
0.0
0.0
0.0
0.0
0.0
0.0
0.0
0.0
0.0
0.0
0.0
0.0
0.0
0.0
0.0
0.0
0.0
0.0
0.0
0.0
0.0
0.0
0.0
0.0
0.0
0.0
0.0
0.0
0.0
0.0
0.0
0.0
0.0
0.0
0.0
0.0
0.0
0.0
0.0
0.0
0.0
0.0
0.0
0.0
0.0
0.0
0.0
0.0
0.0
0.0
0.0
0.0
0.0
0.0
0.0
0.0
0.0
0.0
0.0
0.0
0.0
0.0
0.0
0.0
0.0
0.0
0.0
0.0
0.0
0.0
0.0
0.0
0.0
0.0
0.0
0.0
0.0
0.0
0.0
0.0
0.0
0.0
0.0
0.0
0.0
0.0
0.0
0.0
0.0
0.0
0.0
0.0
0.0
0.0
0.0
0.0
0.0
0.0
0.0
0.0
0.0
0.0
0.0
0.0
0.0
0.0
0.0
0.0
0.0
0.0
0.0
0.0
0.0
0.0
0.0
0.0
0.0
0.0
0.0
0.0
0.0
0.0
0.0
0.0
0.0
0.0
0.0
0.0
0.0
0.0
0.0
0.0
0.0
0.0
0.0
0.0
0.0
0.0
0.0
0.0
0.0
0.0
0.0
0.0
0.0
0.0
0.0
0.0
0.0
0.0
0.0
0.0
0.0
0.0
0.0
0.0
0.0
0.0
0.0
0.0
0.0
0.0
0.0
0.0
0.0
0.0
0.0
0.0
0.0
0.0
0.0
0.0
0.0
0.0
0.0
0.0
0.0
0.0
0.0
0.0
0.0
0.0
0.0
0.0
0.0
0.0
0.0
0.0
0.0
0.0
0.0
0.0
0.0
0.0
0.0
0.0
0.0
0.0
0.0
0.0
0.0
0.0
0.0
0.0
0.0
0.0
0.0
0.0
0.0
0.0
0.0
0.0
0.0
0.0
0.0
0.0
0.0
0.0
0.0
0.0
0.0
0.0
0.0
0.0
0.0
0.0
0.0
0.0
0.0
0.0
0.0
0.0
0.0
0.0
0.0
0.0
0.0
0.0
0.0
0.0
0.0
0.0
0.0
0.0
0.0
0.0
0.0
0.0
0.0
0.0
0.0
0.0
SCALARS strain11 float
LOOKUP_TABLE default
0.0
0.0
0.0
0.0
0.0
0.0
0.0
0.0
0.0
0.0
0.0
0.0
0.0
0.0
0.0
0.0
0.0
0.0
0.0
0.0
0.0
0.0
0.0
0.0
0.0
0.0
0.0
0.0
0.0
0.0
0.0
0.0
0.0
0.0
0.0
0.0
0.0
0.0
0.0
0.0
0.0
0.0
0.0
0.0
0.0
0.0
0.0
0.0
0.0
0.0
0.0
0.0
0.0
0.0
0.0
0.0
0.0
0.0
0.0
0.0
0.0
0.0
0.0
0.0
0.0
0.0
0.0
0.0
0.0
0.0
0.0
0.0
0.0
0.0
0.0
0.0
0.0
0.0
0.0
0.0
0.0
0.0
0.0
0.0
0.0
0.0
0.0
0.0
0.0
0.0
0.0
0.0
0.0
0.0
0.0
0.0
0.0
0.0
0.0
0.0
0.0
0.0
0.0
0.0
0.0
0.0
0.0
0.0
0.0
0.0
0.0
0.0
0.0
0.0
0.0
0.0
0.0
0.0
0.0
0.0
0.0
0.0
0.0
0.0
0.0
0.0
0.0
0.0
0.0
0.0
0.0
0.0
0.0
0.0
0.0
0.0
0.0
0.0
0.0
0.0
0.0
0.0
0.0
0.0
0.0
0.0
0.0
0.0
0.0
0.0
0.0
0.0
0.0
0.0
0.0
0.0
0.0
0.0
0.0
0.0
0.0
0.0
0.0
0.0
0.0
0.0
0.0
0.0
0.0
0.0
0.0
0.0
0.0
0.0
0.0
0.0
0.0
0.0
0.0
0.0
0.0
0.0
0.0
0.0
0.0
0.0
0.0
0.0
0.0
0.0
0.0
0.0
0.0
0.0
0.0
0.0
0.0
0.0
0.0
0.0
0.0
0.0
0.0
0.0
0.0
0.0
0.0
0.0
0.0
0.0
0.0
0.0
0.0
0.0
0.0
0.0
0.0
0.0
0.0
0.0
0.0
0.0
0.0
0.0
0.0
0.0
0.0
0.0
0.0
0.0
0.0
0.0
0.0
0.0
0.0
0.0
0.0
0.0
0.0
0.0
0.0
0.0
0.0
0.0
0.0
0.0
0.0
0.0
0.0
0.0
0.0
0.0
0.0
0.0
0.0
0.0
0.0
0.0
0.0
0.0
0.0
0.0
0.0
0.0
0.0
0.0
0.0
0.0
0.0
0.0
0.0
0.0
0.0
0.0
0.0
0.0
0.0
0.0
0.0
0.0
0.0
0.0
0.0
0.0
0.0
0.0
0.0
0.0
0.0
0.0
0.0
0.0
0.0
0.0
0.0
0.0
0.0
0.0
0.0
0.0
0.0
0.0
0.0
0.0
0.0
0.0
0.0
0.0
0.0
0.0
0.0
0.0
0.0
0.0
0.0
0.0
0.0
0.0
0.0
0.0
0.0
0.0
0.0
0.0
0.0
0.0
0.0
0.0
0.0
0.0
0.0
0.0
0.0
0.0
0.0
0.0
0.0
0.0
0.0
0.0
0.0
0.0
0.0
0.0
0.0
0.0
0.0
0.0
0.0
0.0
0.0
0.0
0.0
0.0
0.0
0.0
0.0
0.0
0.0
0.0
0.0
0.0
0.0
0.0
0.0
0.0
0.0
0.0
0.0
0.0
0.0
0.0
0.0
0.0
0.0
0.0
0.0
0.0
0.0
0.0
0.0
0.0
0.0
0.0
0.0
0.0
0.0
0.0
0.0
0.0
0.0
0.0
0.0
0.0
0.0
0.0
0.0
0.0
0.0
0.0
0.0
0.0
0.0
0.0
0.0
0.0
0.0
0.0
0.0
0.0
0.0
0.0
0.0
0.0
0.0
0.0
0.0
0.0
0.0
0.0
0.0
0.0
0.0
0.0
0.0
0.0
0.0
0.0
0.0
0.0
0.0
0.0
0.0
0.0
0.0
0.0
0.0
0.0
0.0
0.0
0.0
0.0
0.0
0.0
0.0
0.0
0.0
0.0
0.0
0.0
0.0
0.0
0.0
0.0
0.0
0.0
0.0
0.0
0.0
0.0
0.0
0.0
0.0
0.0
0.0
0.0
0.0
0.0
0.0
0.0
0.0
0.0
0.0
0.0
0.0
0.0
0.0
0.0
0.0
0.0
0.0
0.0
0.0
0.0
0.0
0.0
0.0
0.0
0.0
0.0
0.0
0.0
0.0
0.0
0.0
0.0
0.0
0.0
0.0
0.0
0.0
0.0
0.0
0.0
0.0
0.0
0.0
0.0
0.0
0.0
0.0
0.0
0.0
0.0
0.0
0.0
0.0
0.0
0.0
0.0
0.0
0.0
0.0
0.0
0.0
0.0
0.0
0.0
0.0
0.0
0.0
0.0
0.0
0.0
0.0
0.0
0.0
0.0
0.0
0.0
0.0
0.0
0.0
0.0
0.0
0.0
0.0
0.0
0.0
0.0
0.0
0.0
0.0
0.0
0.0
0.0
0.0
0.0
0.0
0.0
0.0
0.0
0.0
0.0
0.0
0.0
0.0
0.0
0.0
0.0
0.0
0.0
0.0
0.0
0.0
0.0
0.0
0.0
0.0
0.0
0.0
0.0
0.0
0.0
0.0
0.0
0.0
0.0
0.0
0.0
0.0
0.0
0.0
0.0
0.0
0.0
0.0
0.0
0.0
0.0
0.0
0.0
0.0
0.0
0.0
0.0
0.0
0.0
0.0
0.0
0.0
0.0
0.0
0.0
0.0
0.0
0.0
0.0
0.0
0.0
0.0
0.0
0.0
0.0
0.0
0.0
0.0
0.0
0.0
0.0
0.0
0.0
0.0
0.0
0.0
0.0
0.0
0.0
0.0
0.0
0.0
0.0
0.0
0.0
0.0
0.0
0.0
0.0
0.0
0.0
0.0
0.0
0.0
0.0
0.0
0.0
0.0
0.0
0.0
0.0
0.0
0.0
0.0
0.0
0.0
0.0
0.0
0.0
0.0
0.0
0.0
0.0
0.0
0.0
0.0
0.0
0.0
0.0
0.0
0.0
0.0
0.0
0.0
0.0
0.0
0.0
0.0
0.0
0.0
0.0
0.0
0.0
0.0
0.0
0.0
0.0
0.0
0.0
0.0
0.0
0.0
0.0
0.0
0.0
0.0
0.0
0.0
0.0
0.0
0.0
0.0
0.0
0.0
0.0
0.0
0.0
0.0
0.0
0.0
0.0
0.0
0.0
0.0
0.0
0.0
0.0
0.0
0.0
0.0
0.0
0.0
0.0
0.0
0.0
0.0
0.0
0.0
0.0
0.0
0.0
0.0
0.0
0.0
0.0
0.0
0.0
0.0
0.0
0.0
0.0
0.0
0.0
0.0
0.0
0.0
0.0
0.0
0.0
0.0
0.0
0.0
0.0
0.0
0.0
0.0
0.0
0.0
0.0
0.0
0.0
0.0
0.0
0.0
0.0
0.0
0.0
0.0
0.0
0.0
0.0
0.0
0.0
0.0
0.0
0.0
0.0
0.0
0.0
0.0
0.0
0.0
0.0
0.0
0.0
0.0
0.0
0.0
0.0
0.0
0.0
0.0
0.0
0.0
0.0
0.0
0.0
0.0
0.0
0.0
0.0
0.0
0.0
0.0
0.0
0.0
0.0
0.0
0.0
0.0
0.0
0.0
0.0
0.0
0.0
0.0
0.0
0.0
0.0
0.0
0.0
0.0
0.0
0.0
0.0
0.0
0.0
0.0
0.0
0.0
0.0
0.0
0.0
0.0
0.0
0.0
0.0
0.0
0.0
0.0
0.0
0.0
0.0
0.0
0.0
0.0
0.0
0.0
0.0
0.0
0.0
0.0
0.0
0.0
0.0
0.0
0.0
0.0
0.0
0.0
0.0
0.0
0.0
0.0
0.0
0.0
0.0
0.0
0.0
0.0
0.0
0.0
0.0
0.0
0.0
0.0
0.0
0.0
0.0
0.0
0.0
0.0
0.0
0.0
0.0
0.0
0.0
0.0
0.0
0.0
0.0
0.0
0.0
0.0
0.0
0.0
0.0
SCALARS strain22 float
LOOKUP_TABLE default
0.0
0.0
0.0
0.0
0.0
0.0
0.0
0.0
0.0
0.0
0.0
0.0
0.0
0.0
0.0
0.0
0.0
0.0
0.0
0.0
0.0
0.0
0.0
0.0
0.0
0.0
0.0
0.0
0.0
0.0
0.0
0.0
0.0
0.0
0.0
0.0
0.0
0.0
0.0
0.0
0.0
0.0
0.0
0.0
0.0
0.0
0.0
0.0
0.0
0.0
0.0
0.0
0.0
0.0
0.0
0.0
0.0
0.0
0.0
0.0
0.0
0.0
0.0
0.0
0.0
0.0
0.0
0.0
0.0
0.0
0.0
0.0
0.0
0.0
0.0
0.0
0.0
0.0
0.0
0.0
0.0
0.0
0.0
0.0
0.0
0.0
0.0
0.0
0.0
0.0
0.0
0.0
0.0
0.0
0.0
0.0
0.0
0.0
0.0
0.0
0.0
0.0
0.0
0.0
0.0
0.0
0.0
0.0
0.0
0.0
0.0
0.0
0.0
0.0
0.0
0.0
0.0
0.0
0.0
0.0
0.0
0.0
0.0
0.0
0.0
0.0
0.0
0.0
0.0
0.0
0.0
0.0
0.0
0.0
0.0
0.0
0.0
0.0
0.0
0.0
0.0
0.0
0.0
0.0
0.0
0.0
0.0
0.0
0.0
0.0
0.0
0.0
0.0
0.0
0.0
0.0
0.0
0.0
0.0
0.0
0.0
0.0
0.0
0.0
0.0
0.0
0.0
0.0
0.0
0.0
0.0
0.0
0.0
0.0
0.0
0.0
0.0
0.0
0.0
0.0
0.0
0.0
0.0
0.0
0.0
0.0
0.0
0.0
0.0
0.0
0.0
0.0
0.0
0.0
0.0
0.0
0.0
0.0
0.0
0.0
0.0
0.0
0.0
0.0
0.0
0.0
0.0
0.0
0.0
0.0
0.0
0.0
0.0
0.0
0.0
0.0
0.0
0.0
0.0
0.0
0.0
0.0
0.0
0.0
0.0
0.0
0.0
0.0
0.0
0.0
0.0
0.0
0.0
0.0
0.0
0.0
0.0
0.0
0.0
0.0
0.0
0.0
0.0
0.0
0.0
0.0
0.0
0.0
0.0
0.0
0.0
0.0
0.0
0.0
0.0
0.0
0.0
0.0
0.0
0.0
0.0
0.0
0.0
0.0
0.0
0.0
0.0
0.0
0.0
0.0
0.0
0.0
0.0
0.0
0.0
0.0
0.0
0.0
0.0
0.0
0.0
0.0
0.0
0.0
0.0
0.0
0.0
0.0
0.0
0.0
0.0
0.0
0.0
0.0
0.0
0.0
0.0
0.0
0.0
0.0
0.0
0.0
0.0
0.0
0.0
0.0
0.0
0.0
0.0
0.0
0.0
0.0
0.0
0.0
0.0
0.0
0.0
0.0
0.0
0.0
0.0
0.0
0.0
0.0
0.0
0.0
0.0
0.0
0.0
0.0
0.0
0.0
0.0
0.0
0.0
0.0
0.0
0.0
0.0
0.0
0.0
0.0
0.0
0.0
0.0
0.0
0.0
0.0
0.0
0.0
0.0
0.0
0.0
0.0
0.0
0.0
0.0
0.0
0.0
0.0
0.0
0.0
0.0
0.0
0.0
0.0
0.0
0.0
0.0
0.0
0.0
0.0
0.0
0.0
0.0
0.0
0.0
0.0
0.0
0.0
0.0
0.0
0.0
0.0
0.0
0.0
0.0
0.0
0.0
0.0
0.0
0.0
0.0
0.0
0.0
0.0
0.0
0.0
0.0
0.0
0.0
0.0
0.0
0.0
0.0
0.0
0.0
0.0
0.0
0.0
0.0
0.0
0.0
0.0
0.0
0.0
0.0
0.0
0.0
0.0
0.0
0.0
0.0
0.0
0.0
0.0
0.0
0.0
0.0
0.0
0.0
0.0
0.0
0.0
0.0
0.0
0.0
0.0
0.0
0.0
0.0
0.0
0.0
0.0
0.0
0.0
0.0
0.0
0.0
0.0
0.0
0.0
0.0
0.0
0.0
0.0
0.0
0.0
0.0
0.0
0.0
0.0
0.0
0.0
0.0
0.0
0.0
0.0
0.0
0.0
0.0
0.0
0.0
0.0
0.0
0.0
0.0
0.0
0.0
0.0
0.0
0.0
0.0
0.0
0.0
0.0
0.0
0.0
0.0
0.0
0.0
0.0
0.0
0.0
0.0
0.0
0.0
0.0
0.0
0.0
0.0
0.0
0.0
0.0
0.0
0.0
0.0
0.0
0.0
0.0
0.0
0.0
0.0
0.0
0.0
0.0
0.0
0.0
0.0
0.0
0.0
0.0
0.0
0.0
0.0
0.0
0.0
0.0
0.0
0.0
0.0
0.0
0.0
0.0
0.0
0.0
0.0
0.0
0.0
0.0
0.0
0.0
0.0
0.0
0.0
0.0
0.0
0.0
0.0
0.0
0.0
0.0
0.0
0.0
0.0
0.0
0.0
0.0
0.0
0.0
0.0
0.0
0.0
0.0
0.0
0.0
0.0
0.0
0.0
0.0
0.0
0.0
0.0
0.0
0.0
0.0
0.0
0.0
0.0
0.0
0.0
0.0
0.0
0.0
0.0
0.0
0.0
0.0
0.0
0.0
0.0
0.0
0.0
0.0
0.0
0.0
0.0
0.0
0.0
0.0
0.0
0.0
0.0
0.0
0.0
0.0
0.0
0.0
0.0
0.0
0.0
0.0
0.0
0.0
0.0
0.0
0.0
0.0
0.0
0.0
0.0
0.0
0.0
0.0
0.0
0.0
0.0
0.0
0.0
0.0
0.0
0.0
0.0
0.0
0.0
0.0
0.0
0.0
0.0
0.0
0.0
0.0
0.0
0.0
0.0
0.0
0.0
0.0
0.0
0.0
0.0
0.0
0.0
0.0
0.0
0.0
0.0
0.0
0.0
0.0
0.0
0.0
0.0
0.0
0.0
0.0
0.0
0.0
0.0
0.0
0.0
0.0
0.0
0.0
0.0
0.0
0.0
0.0
0.0
0.0
0.0
0.0
0.0
0.0
0.0
0.0
0.0
0.0
0.0
0.0
0.0
0.0
0.0
0.0
0.0
0.0
0.0
0.0
0.0
0.0
0.0
0.0
0.0
0.0
0.0
0.0
0.0
0.0
0.0
0.0
0.0
0.0
0.0
0.0
0.0
0.0
0.0
0.0
0.0
0.0
0.0
0.0
0.0
0.0
0.0
0.0
0.0
0.0
0.0
0.0
0.0
0.0
0.0
0.0
0.0
0.0
0.0
0.0
0.0
0.0
0.0
0.0
0.0
0.0
0.0
0.0
0.0
0.0
0.0
0.0
0.0
0.0
0.0
0.0
0.0
0.0
0.0
0.0
0.0
0.0
0.0
0.0
0.0
0.0
0.0
0.0
0.0
0.0
0.0
0.0
0.0
0.0
0.0
0.0
0.0
0.0
0.0
0.0
0.0
0.0
0.0
0.0
0.0
0.0
0.0
0.0
0.0
0.0
0.0
0.0
0.0
0.0
0.0
0.0
0.0
0.0
0.0
0.0
0.0
0.0
0.0
0.0
0.0
0.0
0.0
0.0
0.0
0.0
0.0
0.0
0.0
0.0
0.0
0.0
0.0
0.0
0.0
0.0
0.0
0.0
0.0
0.0
0.0
0.0
0.0
0.0
0.0
0.0
0.0
0.0
0.0
0.0
0.0
0.0
0.0
0.0
0.0
0.0
0.0
0.0
0.0
0.0
0.0
0.0
0.0
0.0
0.0
0.0
0.0
0.0
0.0
0.0
0.0
0.0
0.0
0.0
0.0
0.0
0.0
0.0
0.0
0.0
0.0
0.0
0.0
0.0
0.0
0.0
0.0
0.0
0.0
0.0
0.0
0.0
0.0
0.0
0.0
0.0
0.0
0.0
0.0
0.0
0.0
0.0
0.0
0.0
0.0
0.0
0.0
0.0
0.0
0.0
0.0
0.0
0.0
0.0
0.0
0.0
0.0
0.0
0.0
0.0
0.0
0.0
0.0
0.0
SCALARS strain12 float
LOOKUP_TABLE default
0.0
0.0
0.0
0.0
0.0
0.0
0.0
0.0
0.0
0.0
0.0
0.0
0.0
0.0
0.0
0.0
0.0
0.0
0.0
0.0
0.0
0.0
0.0
0.0
0.0
0.0
0.0
0.0
0.0
0.0
0.0
0.0
0.0
0.0
0.0
0.0
0.0
0.0
0.0
0.0
0.0
0.0
0.0
0.0
0.0
0.0
0.0
0.0
0.0
0.0
0.0
0.0
0.0
0.0
0.0
0.0
0.0
0.0
0.0
0.0
0.0
0.0
0.0
0.0
0.0
0.0
0.0
0.0
0.0
0.0
0.0
0.0
0.0
0.0
0.0
0.0
0.0
0.0
0.0
0.0
0.0
0.0
0.0
0.0
0.0
0.0
0.0
0.0
0.0
0.0
0.0
0.0
0.0
0.0
0.0
0.0
0.0
0.0
0.0
0.0
0.0
0.0
0.0
0.0
0.0
0.0
0.0
0.0
0.0
0.0
0.0
0.0
0.0
0.0
0.0
0.0
0.0
0.0
0.0
0.0
0.0
0.0
0.0
0.0
0.0
0.0
0.0
0.0
0.0
0.0
0.0
0.0
0.0
0.0
0.0
0.0
0.0
0.0
0.0
0.0
0.0
0.0
0.0
0.0
0.0
0.0
0.0
0.0
0.0
0.0
0.0
0.0
0.0
0.0
0.0
0.0
0.0
0.0
0.0
0.0
0.0
0.0
0.0
0.0
0.0
0.0
0.0
0.0
0.0
0.0
0.0
0.0
0.0
0.0
0.0
0.0
0.0
0.0
0.0
0.0
0.0
0.0
0.0
0.0
0.0
0.0
0.0
0.0
0.0
0.0
0.0
0.0
0.0
0.0
0.0
0.0
0.0
0.0
0.0
0.0
0.0
0.0
0.0
0.0
0.0
0.0
0.0
0.0
0.0
0.0
0.0
0.0
0.0
0.0
0.0
0.0
0.0
0.0
0.0
0.0
0.0
0.0
0.0
0.0
0.0
0.0
0.0
0.0
0.0
0.0
0.0
0.0
0.0
0.0
0.0
0.0
0.0
0.0
0.0
0.0
0.0
0.0
0.0
0.0
0.0
0.0
0.0
0.0
0.0
0.0
0.0
0.0
0.0
0.0
0.0
0.0
0.0
0.0
0.0
0.0
0.0
0.0
0.0
0.0
0.0
0.0
0.0
0.0
0.0
0.0
0.0
0.0
0.0
0.0
0.0
0.0
0.0
0.0
0.0
0.0
0.0
0.0
0.0
0.0
0.0
0.0
0.0
0.0
0.0
0.0
0.0
0.0
0.0
0.0
0.0
0.0
0.0
0.0
0.0
0.0
0.0
0.0
0.0
0.0
0.0
0.0
0.0
0.0
0.0
0.0
0.0
0.0
0.0
0.0
0.0
0.0
0.0
0.0
0.0
0.0
0.0
0.0
0.0
0.0
0.0
0.0
0.0
0.0
0.0
0.0
0.0
0.0
0.0
0.0
0.0
0.0
0.0
0.0
0.0
0.0
0.0
0.0
0.0
0.0
0.0
0.0
0.0
0.0
0.0
0.0
0.0
0.0
0.0
0.0
0.0
0.0
0.0
0.0
0.0
0.0
0.0
0.0
0.0
0.0
0.0
0.0
0.0
0.0
0.0
0.0
0.0
0.0
0.0
0.0
0.0
0.0
0.0
0.0
0.0
0.0
0.0
0.0
0.0
0.0
0.0
0.0
0.0
0.0
0.0
0.0
0.0
0.0
0.0
0.0
0.0
0.0
0.0
0.0
0.0
0.0
0.0
0.0
0.0
0.0
0.0
0.0
0.0
0.0
0.0
0.0
0.0
0.0
0.0
0.0
0.0
0.0
0.0
0.0
0.0
0.0
0.0
0.0
0.0
0.0
0.0
0.0
0.0
0.0
0.0
0.0
0.0
0.0
0.0
0.0
0.0
0.0
0.0
0.0
0.0
0.0
0.0
0.0
0.0
0.0
0.0
0.0
0.0
0.0
0.0
0.0
0.0
0.0
0.0
0.0
0.0
0.0
0.0
0.0
0.0
0.0
0.0
0.0
0.0
0.0
0.0
0.0
0.0
0.0
0.0
0.0
0.0
0.0
0.0
0.0
0.0
0.0
0.0
0.0
0.0
0.0
0.0
0.0
0.0
0.0
0.0
0.0
0.0
0.0
0.0
0.0
0.0
0.0
0.0
0.0
0.0
0.0
0.0
0.0
0.0
0.0
0.0
0.0
0.0
0.0
0.0
0.0
0.0
0.0
0.0
0.0
0.0
0.0
0.0
0.0
0.0
0.0
0.0
0.0
0.0
0.0
0.0
0.0
0.0
0.0
0.0
0.0
0.0
0.0
0.0
0.0
0.0
0.0
0.0
0.0
0.0
0.0
0.0
0.0
0.0
0.0
0.0
0.0
0.0
0.0
0.0
0.0
0.0
0.0
0.0
0.0
0.0
0.0
0.0
0.0
0.0
0.0
0.0
0.0
0.0
0.0
0.0
0.0
0.0
0.0
0.0
0.0
0.0
0.0
0.0
0.0
0.0
0.0
0.0
0.0
0.0
0.0
0.0
0.0
0.0
0.0
0.0
0.0
0.0
0.0
0.0
0.0
0.0
0.0
0.0
0.0
0.0
0.0
0.0
0.0
0.0
0.0
0.0
0.0
0.0
0.0
0.0
0.0
0.0
0.0
0.0
0.0
0.0
0.0
0.0
0.0
0.0
0.0
0.0
0.0
0.0
0.0
0.0
0.0
0.0
0.0
0.0
0.0
0.0
0.0
0.0
0.0
0.0
0.0
0.0
0.0
0.0
0.0
0.0
0.0
0.0
0.0
0.0
0.0
0.0
0.0
0.0
0.0
0.0
0.0
0.0
0.0
0.0
0.0
0.0
0.0
0.0
0.0
0.0
0.0
0.0
0.0
0.0
0.0
0.0
0.0
0.0
0.0
0.0
0.0
0.0
0.0
0.0
0.0
0.0
0.0
0.0
0.0
0.0
0.0
0.0
0.0
0.0
0.0
0.0
0.0
0.0
0.0
0.0
0.0
0.0
0.0
0.0
0.0
0.0
0.0
0.0
0.0
0.0
0.0
0.0
0.0
0.0
0.0
0.0
0.0
0.0
0.0
0.0
0.0
0.0
0.0
0.0
0.0
0.0
0.0
0.0
0.0
0.0
0.0
0.0
0.0
0.0
0.0
0.0
0.0
0.0
0.0
0.0
0.0
0.0
0.0
0.0
0.0
0.0
0.0
0.0
0.0
0.0
0.0
0.0
0.0
0.0
0.0
0.0
0.0
0.0
0.0
0.0
0.0
0.0
0.0
0.0
0.0
0.0
0.0
0.0
0.0
0.0
0.0
0.0
0.0
0.0
0.0
0.0
0.0
0.0
0.0
0.0
0.0
0.0
0.0
0.0
0.0
0.0
0.0
0.0
0.0
0.0
0.0
0.0
0.0
0.0
0.0
0.0
0.0
0.0
0.0
0.0
0.0
0.0
0.0
0.0
0.0
0.0
0.0
0.0
0.0
0.0
0.0
0.0
0.0
0.0
0.0
0.0
0.0
0.0
0.0
0.0
0.0
0.0
0.0
0.0
0.0
0.0
0.0
0.0
0.0
0.0
0.0
0.0
0.0
0.0
0.0
0.0
0.0
0.0
0.0
0.0
0.0
0.0
0.0
0.0
0.0
0.0
0.0
0.0
0.0
0.0
0.0
0.0
0.0
0.0
0.0
0.0
0.0
0.0
0.0
0.0
0.0
0.0
0.0
0.0
0.0
0.0
0.0
0.0
0.0
0.0
0.0
0.0
0.0
0.0
0.0
0.0
0.0
0.0
0.0
0.0
0.0
0.0
0.0
0.0
0.0
0.0
0.0
0.0
0.0
0.0
0.0
0.0
0.0
0.0
0.0
0.0
0.0
0.0
0.0
0.0
0.0
0.0
0.0
0.0
0.0
0.0
0.0
0.0
0.0
0.0
0.0
0.0
0.0
0.0
0.0
0.0
0.0
0.0
0.0
0.0
0.0
0.0
0.0
SCALARS disp_x float
LOOKUP_TABLE default
0.0
0.0
0.0
0.0
0.0
0.0
0.0
0.0
0.0
0.0
0.0
0.0
0.0
0.0
0.0
0.0
0.0
0.0
0.0
0.0
0.0
0.0
0.0
0.0
0.0
0.0
0.0
0.0
0.0
0.0
0.0
0.0
0.0
0.0
0.0
0.0
0.0
0.0
0.0
0.0
0.0
0.0
0.0
0.0
0.0
0.0
0.0
0.0
0.0
0.0
0.0
0.0
0.0
0.0
0.0
0.0
0.0
0.0
0.0
0.0
0.0
0.0
0.0
0.0
0.0
0.0
0.0
0.0
0.0
0.0
0.0
0.0
0.0
0.0
0.0
0.0
0.0
0.0
0.0
0.0
0.0
0.0
0.0
0.0
0.0
0.0
0.0
0.0
0.0
0.0
0.0
0.0
0.0
0.0
0.0
0.0
0.0
0.0
0.0
0.0
0.0
0.0
0.0
0.0
0.0
0.0
0.0
0.0
0.0
0.0
0.0
0.0
0.0
0.0
0.0
0.0
0.0
0.0
0.0
0.0
0.0
0.0
0.0
0.0
0.0
0.0
0.0
0.0
0.0
0.0
0.0
0.0
0.0
0.0
0.0
0.0
0.0
0.0
0.0
0.0
0.0
0.0
0.0
0.0
0.0
0.0
0.0
0.0
0.0
0.0
0.0
0.0
0.0
0.0
0.0
0.0
0.0
0.0
0.0
0.0
0.0
0.0
0.0
0.0
0.0
0.0
0.0
0.0
0.0
0.0
0.0
0.0
0.0
0.0
0.0
0.0
0.0
0.0
0.0
0.0
0.0
0.0
0.0
0.0
0.0
0.0
0.0
0.0
0.0
0.0
0.0
0.0
0.0
0.0
0.0
0.0
0.0
0.0
0.0
0.0
0.0
0.0
0.0
0.0
0.0
0.0
0.0
0.0
0.0
0.0
0.0
0.0
0.0
0.0
0.0
0.0
0.0
0.0
0.0
0.0
0.0
0.0
0.0
0.0
0.0
0.0
0.0
0.0
0.0
0.0
0.0
0.0
0.0
0.0
0.0
0.0
0.0
0.0
0.0
0.0
0.0
0.0
0.0
0.0
0.0
0.0
0.0
0.0
0.0
0.0
0.0
0.0
0.0
0.0
0.0
0.0
0.0
0.0
0.0
0.0
0.0
0.0
0.0
0.0
0.0
0.0
0.0
0.0
0.0
0.0
0.0
0.0
0.0
0.0
0.0
0.0
0.0
0.0
0.0
0.0
0.0
0.0
0.0
0.0
0.0
0.0
0.0
0.0
0.0
0.0
0.0
0.0
0.0
0.0
0.0
0.0
0.0
0.0
0.0
0.0
0.0
0.0
0.0
0.0
0.0
0.0
0.0
0.0
0.0
0.0
0.0
0.0
0.0
0.0
0.0
0.0
0.0
0.0
0.0
0.0
0.0
0.0
0.0
0.0
0.0
0.0
0.0
0.0
0.0
0.0
0.0
0.0
0.0
0.0
0.0
0.0
0.0
0.0
0.0
0.0
0.0
0.0
0.0
0.0
0.0
0.0
0.0
0.0
0.0
0.0
0.0
0.0
0.0
0.0
0.0
0.0
0.0
0.0
0.0
0.0
0.0
0.0
0.0
0.0
0.0
0.0
0.0
0.0
0.0
0.0
0.0
0.0
0.0
0.0
0.0
0.0
0.0
0.0
0.0
0.0
0.0
0.0
0.0
0.0
0.0
0.0
0.0
0.0
0.0
0.0
0.0
0.0
0.0
0.0
0.0
0.0
0.0
0.0
0.0
0.0
0.0
0.0
0.0
0.0
0.0
0.0
0.0
0.0
0.0
0.0
0.0
0.0
0.0
0.0
0.0
0.0
0.0
0.0
0.0
0.0
0.0
0.0
0.0
0.0
0.0
0.0
0.0
0.0
0.0
0.0
0.0
0.0
0.0
0.0
0.0
0.0
0.0
0.0
0.0
0.0
0.0
0.0
0.0
0.0
0.0
0.0
0.0
0.0
0.0
0.0
0.0
0.0
0.0
0.0
0.0
0.0
0.0
0.0
0.0
0.0
0.0
0.0
0.0
0.0
0.0
0.0
0.0
0.0
0.0
0.0
0.0
0.0
0.0
0.0
0.0
0.0
0.0
0.0
0.0
0.0
0.0
0.0
0.0
0.0
0.0
0.0
0.0
0.0
0.0
0.0
0.0
0.0
0.0
0.0
0.0
0.0
0.0
0.0
0.0
0.0
0.0
0.0
0.0
0.0
0.0
0.0
0.0
0.0
0.0
0.0
0.0
0.0
0.0
0.0
0.0
0.0
0.0
0.0
0.0
0.0
0.0
0.0
0.0
0.0
0.0
0.0
0.0
0.0
0.0
0.0
0.0
0.0
0.0
0.0
0.0
0.0
0.0
0.0
0.0
0.0
0.0
0.0
0.0
0.0
0.0
0.0
0.0
0.0
0.0
0.0
0.0
0.0
0.0
0.0
0.0
0.0
0.0
0.0
0.0
0.0
0.0
0.0
0.0
0.0
0.0
0.0
0.0
0.0
0.0
0.0
0.0
0.0
0.0
0.0
0.0
0.0
0.0
0.0
0.0
0.0
0.0
0.0
0.0
0.0
0.0
0.0
0.0
0.0
0.0
0.0
0.0
0.0
0.0
0.0
0.0
0.0
0.0
0.0
0.0
0.0
0.0
0.0
0.0
0.0
0.0
0.0
0.0
0.0
0.0
0.0
0.0
0.0
0.0
0.0
0.0
0.0
0.0
0.0
0.0
0.0
0.0
0.0
0.0
0.0
0.0
0.0
0.0
0.0
0.0
0.0
0.0
0.0
0.0
0.0
0.0
0.0
0.0
0.0
0.0
0.0
0.0
0.0
0.0
0.0
0.0
0.0
0.0
0.0
0.0
0.0
0.0
0.0
0.0
0.0
0.0
0.0
0.0
0.0
0.0
0.0
0.0
0.0
0.0
0.0
0.0
0.0
0.0
0.0
0.0
0.0
0.0
0.0
0.0
0.0
0.0
0.0
0.0
0.0
0.0
0.0
0.0
0.0
0.0
0.0
0.0
0.0
0.0
0.0
0.0
0.0
0.0
0.0
0.0
0.0
0.0
0.0
0.0
0.0
0.0
0.0
0.0
0.0
0.0
0.0
0.0
0.0
0.0
0.0
0.0
0.0
0.0
0.0
0.0
0.0
0.0
0.0
0.0
0.0
0.0
0.0
0.0
0.0
0.0
0.0
0.0
0.0
0.0
0.0
0.0
0.0
0.0
0.0
0.0
0.0
0.0
0.0
0.0
0.0
0.0
0.0
0.0
0.0
0.0
0.0
0.0
0.0
0.0
0.0
0.0
0.0
0.0
0.0
0.0
0.0
0.0
0.0
0.0
0.0
0.0
0.0
0.0
0.0
0.0
0.0
0.0
0.0
0.0
0.0
0.0
0.0
0.0
0.0
0.0
0.0
0.0
0.0
0.0
0.0
0.0
0.0
0.0
0.0
0.0
0.0
0.0
0.0
0.0
0.0
0.0
0.0
0.0
0.0
0.0
0.0
0.0
0.0
0.0
0.0
0.0
0.0
0.0
0.0
0.0
0.0
0.0
0.0
0.0
0.0
0.0
0.0
0.0
0.0
0.0
0.0
0.0
0.0
0.0
0.0
0.0
0.0
0.0
0.0
0.0
0.0
0.0
0.0
0.0
0.0
0.0
0.0
0.0
0.0
0.0
0.0
0.0
0.0
0.0
0.0
0.0
0.0
0.0
0.0
0.0
0.0
0.0
0.0
0.0
0.0
0.0
0.0
0.0
0.0
0.0
0.0
0.0
0.0
0.0
0.0
0.0
0.0
0.0
0.0
0.0
0.0
0.0
0.0
0.0
0.0
0.0
0.0
0.0
0.0
0.0
0.0
0.0
0.0
0.0
0.0
0.0
0.0
0.0
0.0
0.0
0.0
0.0
0.0
0.0
0.0
0.0
0.0
0.0
0.0
0.0
0.0
0.0
0.0
0.0
0.0
0.0
0.0
0.0
0.0
0.0
0.0
0.0
0.0
SCALARS disp_y float
LOOKUP_TABLE default
0.0
0.0
0.0
0.0
0.0
0.0
0.0
0.0
0.0
0.0
0.0
0.0
0.0
0.0
0.0
0.0
0.0
0.0
0.0
0.0
0.0
0.0
0.0
0.0
0.0
0.0
0.0
0.0
0.0
0.0
0.0
0.0
0.0
0.0
0.0
0.0
0.0
0.0
0.0
0.0
0.0
0.0
0.0
0.0
0.0
0.0
0.0
0.0
0.0
0.0
0.0
0.0
0.0
0.0
0.0
0.0
0.0
0.0
0.0
0.0
0.0
0.0
0.0
0.0
0.0
0.0
0.0
0.0
0.0
0.0
0.0
0.0
0.0
0.0
0.0
0.0
0.0
0.0
0.0
0.0
0.0
0.0
0.0
0.0
0.0
0.0
0.0
0.0
0.0
0.0
0.0
0.0
0.0
0.0
0.0
0.0
0.0
0.0
0.0
0.0
0.0
0.0
0.0
0.0
0.0
0.0
0.0
0.0
0.0
0.0
0.0
0.0
0.0
0.0
0.0
0.0
0.0
0.0
0.0
0.0
0.0
0.0
0.0
0.0
0.0
0.0
0.0
0.0
0.0
0.0
0.0
0.0
0.0
0.0
0.0
0.0
0.0
0.0
0.0
0.0
0.0
0.0
0.0
0.0
0.0
0.0
0.0
0.0
0.0
0.0
0.0
0.0
0.0
0.0
0.0
0.0
0.0
0.0
0.0
0.0
0.0
0.0
0.0
0.0
0.0
0.0
0.0
0.0
0.0
0.0
0.0
0.0
0.0
0.0
0.0
0.0
0.0
0.0
0.0
0.0
0.0
0.0
0.0
0.0
0.0
0.0
0.0
0.0
0.0
0.0
0.0
0.0
0.0
0.0
0.0
0.0
0.0
0.0
0.0
0.0
0.0
0.0
0.0
0.0
0.0
0.0
0.0
0.0
0.0
0.0
0.0
0.0
0.0
0.0
0.0
0.0
0.0
0.0
0.0
0.0
0.0
0.0
0.0
0.0
0.0
0.0
0.0
0.0
0.0
0.0
0.0
0.0
0.0
0.0
0.0
0.0
0.0
0.0
0.0
0.0
0.0
0.0
0.0
0.0
0.0
0.0
0.0
0.0
0.0
0.0
0.0
0.0
0.0
0.0
0.0
0.0
0.0
0.0
0.0
0.0
0.0
0.0
0.0
0.0
0.0
0.0
0.0
0.0
0.0
0.0
0.0
0.0
0.0
0.0
0.0
0.0
0.0
0.0
0.0
0.0
0.0
0.0
0.0
0.0
0.0
0.0
0.0
0.0
0.0
0.0
0.0
0.0
0.0
0.0
0.0
0.0
0.0
0.0
0.0
0.0
0.0
0.0
0.0
0.0
0.0
0.0
0.0
0.0
0.0
0.0
0.0
0.0
0.0
0.0
0.0
0.0
0.0
0.0
0.0
0.0
0.0
0.0
0.0
0.0
0.0
0.0
0.0
0.0
0.0
0.0
0.0
0.0
0.0
0.0
0.0
0.0
0.0
0.0
0.0
0.0
0.0
0.0
0.0
0.0
0.0
0.0
0.0
0.0
0.0
0.0
0.0
0.0
0.0
0.0
0.0
0.0
0.0
0.0
0.0
0.0
0.0
0.0
0.0
0.0
0.0
0.0
0.0
0.0
0.0
0.0
0.0
0.0
0.0
0.0
0.0
0.0
0.0
0.0
0.0
0.0
0.0
0.0
0.0
0.0
0.0
0.0
0.0
0.0
0.0
0.0
0.0
0.0
0.0
0.0
0.0
0.0
0.0
0.0
0.0
0.0
0.0
0.0
0.0
0.0
0.0
0.0
0.0
0.0
0.0
0.0
0.0
0.0
0.0
0.0
0.0
0.0
0.0
0.0
0.0
0.0
0.0
0.0
0.0
0.0
0.0
0.0
0.0
0.0
0.0
0.0
0.0
0.0
0.0
0.0
0.0
0.0
0.0
0.0
0.0
0.0
0.0
0.0
0.0
0.0
0.0
0.0
0.0
0.0
0.0
0.0
0.0
0.0
0.0
0.0
0.0
0.0
0.0
0.0
0.0
0.0
0.0
0.0
0.0
0.0
0.0
0.0
0.0
0.0
0.0
0.0
0.0
0.0
0.0
0.0
0.0
0.0
0.0
0.0
0.0
0.0
0.0
0.0
0.0
0.0
0.0
0.0
0.0
0.0
0.0
0.0
0.0
0.0
0.0
0.0
0.0
0.0
0.0
0.0
0.0
0.0
0.0
0.0
0.0
0.0
0.0
0.0
0.0
0.0
0.0
0.0
0.0
0.0
0.0
0.0
0.0
0.0
0.0
0.0
0.0
0.0
0.0
0.0
0.0
0.0
0.0
0.0
0.0
0.0
0.0
0.0
0.0
0.0
0.0
0.0
0.0
0.0
0.0
0.0
0.0
0.0
0.0
0.0
0.0
0.0
0.0
0.0
0.0
0.0
0.0
0.0
0.0
0.0
0.0
0.0
0.0
0.0
0.0
0.0
0.0
0.0
0.0
0.0
0.0
0.0
0.0
0.0
0.0
0.0
0.0
0.0
0.0
0.0
0.0
0.0
0.0
0.0
0.0
0.0
0.0
0.0
0.0
0.0
0.0
0.0
0.0
0.0
0.0
0.0
0.0
0.0
0.0
0.0
0.0
0.0
0.0
0.0
0.0
0.0
0.0
0.0
0.0
0.0
0.0
0.0
0.0
0.0
0.0
0.0
0.0
0.0
0.0
0.0
0.0
0.0
0.0
0.0
0.0
0.0
0.0
0.0
0.0
0.0
0.0
0.0
0.0
0.0
0.0
0.0
0.0
0.0
0.0
0.0
0.0
0.0
0.0
0.0
0.0
0.0
0.0
0.0
0.0
0.0
0.0
0.0
0.0
0.0
0.0
0.0
0.0
0.0
0.0
0.0
0.0
0.0
0.0
0.0
0.0
0.0
0.0
0.0
0.0
0.0
0.0
0.0
0.0
0.0
0.0
0.0
0.0
0.0
0.0
0.0
0.0
0.0
0.0
0.0
0.0
0.0
0.0
0.0
0.0
0.0
0.0
0.0
0.0
0.0
0.0
0.0
0.0
0.0
0.0
0.0
0.0
0.0
0.0
0.0
0.0
0.0
0.0
0.0
0.0
0.0
0.0
0.0
0.0
0.0
0.0
0.0
0.0
0.0
0.0
0.0
0.0
0.0
0.0
0.0
0.0
0.0
0.0
0.0
0.0
0.0
0.0
0.0
0.0
0.0
0.0
0.0
0.0
0.0
0.0
0.0
0.0
0.0
0.0
0.0
0.0
0.0
0.0
0.0
0.0
0.0
0.0
0.0
0.0
0.0
0.0
0.0
0.0
0.0
0.0
0.0
0.0
0.0
0.0
0.0
0.0
0.0
0.0
0.0
0.0
0.0
0.0
0.0
0.0
0.0
0.0
0.0
0.0
0.0
0.0
0.0
0.0
0.0
0.0
0.0
0.0
0.0
0.0
0.0
0.0
0.0
0.0
0.0
0.0
0.0
0.0
0.0
0.0
0.0
0.0
0.0
0.0
0.0
0.0
0.0
0.0
0.0
0.0
0.0
0.0
0.0
0.0
0.0
0.0
0.0
0.0
0.0
0.0
0.0
0.0
0.0
0.0
0.0
0.0
0.0
0.0
0.0
0.0
0.0
0.0
0.0
0.0
0.0
0.0
0.0
0.0
0.0
0.0
0.0
0.0
0.0
0.0
0.0
0.0
0.0
0.0
0.0
0.0
0.0
0.0
0.0
0.0
0.0
0.0
0.0
0.0
0.0
0.0
0.0
0.0
0.0
0.0
0.0
0.0
0.0
0.0
0.0
0.0
0.0
0.0
0.0
0.0
0.0
0.0
0.0
0.0
0.0
0.0
0.0
0.0
0.0
0.0
0.0
0.0
0.0
0.0
0.0
0.0
0.0
0.0
0.0
0.0
0.0
0.0
0.0
0.0
0.0
0.0
0.0
0.0
0.0
0.0
0.0
0.0
0.0
0.0
0.0
0.0
0.0
0.0
0.0
0.0
0.0
0.0
0.0
SCALARS von_mises_stress float
LOOKUP_TABLE default
0.0
0.0
0.0
0.0
0.0
0.0
0.0
0.0
0.0
0.0
0.0
0.0
0.0
0.0
0.0
0.0
0.0
0.0
0.0
0.0
0.0
0.0
0.0
0.0
0.0
0.0
0.0
0.0
0.0
0.0
0.0
0.0
0.0
0.0
0.0
0.0
0.0
0.0
0.0
0.0
0.0
0.0
0.0
0.0
0.0
0.0
0.0
0.0
0.0
0.0
0.0
0.0
0.0
0.0
0.0
0.0
0.0
0.0
0.0
0.0
0.0
0.0
0.0
0.0
0.0
0.0
0.0
0.0
0.0
0.0
0.0
0.0
0.0
0.0
0.0
0.0
0.0
0.0
0.0
0.0
0.0
0.0
0.0
0.0
0.0
0.0
0.0
0.0
0.0
0.0
0.0
0.0
0.0
0.0
0.0
0.0
0.0
0.0
0.0
0.0
0.0
0.0
0.0
0.0
0.0
0.0
0.0
0.0
0.0
0.0
0.0
0.0
0.0
0.0
0.0
0.0
0.0
0.0
0.0
0.0
0.0
0.0
0.0
0.0
0.0
0.0
0.0
0.0
0.0
0.0
0.0
0.0
0.0
0.0
0.0
0.0
0.0
0.0
0.0
0.0
0.0
0.0
0.0
0.0
0.0
0.0
0.0
0.0
0.0
0.0
0.0
0.0
0.0
0.0
0.0
0.0
0.0
0.0
0.0
0.0
0.0
0.0
0.0
0.0
0.0
0.0
0.0
0.0
0.0
0.0
0.0
0.0
0.0
0.0
0.0
0.0
0.0
0.0
0.0
0.0
0.0
0.0
0.0
0.0
0.0
0.0
0.0
0.0
0.0
0.0
0.0
0.0
0.0
0.0
0.0
0.0
0.0
0.0
0.0
0.0
0.0
0.0
0.0
0.0
0.0
0.0
0.0
0.0
0.0
0.0
0.0
0.0
0.0
0.0
0.0
0.0
0.0
0.0
0.0
0.0
0.0
0.0
0.0
0.0
0.0
0.0
0.0
0.0
0.0
0.0
0.0
0.0
0.0
0.0
0.0
0.0
0.0
0.0
0.0
0.0
0.0
0.0
0.0
0.0
0.0
0.0
0.0
0.0
0.0
0.0
0.0
0.0
0.0
0.0
0.0
0.0
0.0
0.0
0.0
0.0
0.0
0.0
0.0
0.0
0.0
0.0
0.0
0.0
0.0
0.0
0.0
0.0
0.0
0.0
0.0
0.0
0.0
0.0
0.0
0.0
0.0
0.0
0.0
0.0
0.0
0.0
0.0
0.0
0.0
0.0
0.0
0.0
0.0
0.0
0.0
0.0
0.0
0.0
0.0
0.0
0.0
0.0
0.0
0.0
0.0
0.0
0.0
0.0
0.0
0.0
0.0
0.0
0.0
0.0
0.0
0.0
0.0
0.0
0.0
0.0
0.0
0.0
0.0
0.0
0.0
0.0
0.0
0.0
0.0
0.0
0.0
0.0
0.0
0.0
0.0
0.0
0.0
0.0
0.0
0.0
0.0
0.0
0.0
0.0
0.0
0.0
0.0
0.0
0.0
0.0
0.0
0.0
0.0
0.0
0.0
0.0
0.0
0.0
0.0
0.0
0.0
0.0
0.0
0.0
0.0
0.0
0.0
0.0
0.0
0.0
0.0
0.0
0.0
0.0
0.0
0.0
0.0
0.0
0.0
0.0
0.0
0.0
0.0
0.0
0.0
0.0
0.0
0.0
0.0
0.0
0.0
0.0
0.0
0.0
0.0
0.0
0.0
0.0
0.0
0.0
0.0
0.0
0.0
0.0
0.0
0.0
0.0
0.0
0.0
0.0
0.0
0.0
0.0
0.0
0.0
0.0
0.0
0.0
0.0
0.0
0.0
0.0
0.0
0.0
0.0
0.0
0.0
0.0
0.0
0.0
0.0
0.0
0.0
0.0
0.0
0.0
0.0
0.0
0.0
0.0
0.0
0.0
0.0
0.0
0.0
0.0
0.0
0.0
0.0
0.0
0.0
0.0
0.0
0.0
0.0
0.0
0.0
0.0
0.0
0.0
0.0
0.0
0.0
0.0
0.0
0.0
0.0
0.0
0.0
0.0
0.0
0.0
0.0
0.0
0.0
0.0
0.0
0.0
0.0
0.0
0.0
0.0
0.0
0.0
0.0
0.0
0.0
0.0
0.0
0.0
0.0
0.0
0.0
0.0
0.0
0.0
0.0
0.0
0.0
0.0
0.0
0.0
0.0
0.0
0.0
0.0
0.0
0.0
0.0
0.0
0.0
0.0
0.0
0.0
0.0
0.0
0.0
0.0
0.0
0.0
0.0
0.0
0.0
0.0
0.0
0.0
0.0
0.0
0.0
0.0
0.0
0.0
0.0
0.0
0.0
0.0
0.0
0.0
0.0
0.0
0.0
0.0
0.0
0.0
0.0
0.0
0.0
0.0
0.0
0.0
0.0
0.0
0.0
0.0
0.0
0.0
0.0
0.0
0.0
0.0
0.0
0.0
0.0
0.0
0.0
0.0
0.0
0.0
0.0
0.0
0.0
0.0
0.0
0.0
0.0
0.0
0.0
0.0
0.0
0.0
0.0
0.0
0.0
0.0
0.0
0.0
0.0
0.0
0.0
0.0
0.0
0.0
0.0
0.0
0.0
0.0
0.0
0.0
0.0
0.0
0.0
0.0
0.0
0.0
0.0
0.0
0.0
0.0
0.0
0.0
0.0
0.0
0.0
0.0
0.0
0.0
0.0
0.0
0.0
0.0
0.0
0.0
0.0
0.0
0.0
0.0
0.0
0.0
0.0
0.0
0.0
0.0
0.0
0.0
0.0
0.0
0.0
0.0
0.0
0.0
0.0
0.0
0.0
0.0
0.0
0.0
0.0
0.0
0.0
0.0
0.0
0.0
0.0
0.0
0.0
0.0
0.0
0.0
0.0
0.0
0.0
0.0
0.0
0.0
0.0
0.0
0.0
0.0
0.0
0.0
0.0
0.0
0.0
0.0
0.0
0.0
0.0
0.0
0.0
0.0
0.0
0.0
0.0
0.0
0.0
0.0
0.0
0.0
0.0
0.0
0.0
0.0
0.0
0.0
0.0
0.0
0.0
0.0
0.0
0.0
0.0
0.0
0.0
0.0
0.0
0.0
0.0
0.0
0.0
0.0
0.0
0.0
0.0
0.0
0.0
0.0
0.0
0.0
0.0
0.0
0.0
0.0
0.0
0.0
0.0
0.0
0.0
0.0
0.0
0.0
0.0
0.0
0.0
0.0
0.0
0.0
0.0
0.0
0.0
0.0
0.0
0.0
0.0
0.0
0.0
0.0
0.0
0.0
0.0
0.0
0.0
0.0
0.0
0.0
0.0
0.0
0.0
0.0
0.0
0.0
0.0
0.0
0.0
0.0
0.0
0.0
0.0
0.0
0.0
0.0
0.0
0.0
0.0
0.0
0.0
0.0
0.0
0.0
0.0
0.0
0.0
0.0
0.0
0.0
0.0
0.0
0.0
0.0
0.0
0.0
0.0
0.0
0.0
0.0
0.0
0.0
0.0
0.0
0.0
0.0
0.0
0.0
0.0
0.0
0.0
0.0
0.0
0.0
0.0
0.0
0.0
0.0
0.0
0.0
0.0
0.0
0.0
0.0
0.0
0.0
0.0
0.0
0.0
0.0
0.0
0.0
0.0
0.0
0.0
0.0
0.0
0.0
0.0
0.0
0.0
0.0
0.0
0.0
0.0
0.0
0.0
0.0
0.0
0.0
0.0
0.0
0.0
0.0
0.0
0.0
0.0
0.0
0.0
0.0
0.0
0.0
0.0
0.0
0.0
0.0
0.0
0.0
0.0
0.0
0.0
0.0
0.0
0.0
0.0
0.0
0.0
0.0
0.0
0.0
0.0
0.0
0.0
0.0
0.0
0.0
0.0
0.0
0.0
0.0
0.0
0.0
0.0
0.0
0.0
0.0
0.0
0.0
0.0
0.0
0.0
0.0
0.0
0.0
0.0
0.0
0.0
0.0
0.0
0.0
0.0
0.0
