# vtk DataFile Version 2.0
Generated Volume Mesh
ASCII
DATASET UNSTRUCTURED_GRID
POINTS 45 float
0.0 -0.009999999776482582 0.0
0.03999999910593033 -0.009999999776482582 0.0
0.03999999910593033 0.009999999776482582 0.0
0.0 0.009999999776482582 0.0
0.004999999888241291 -0.009999999776482582 0.0
0.009999999776482582 -0.009999999776482582 0.0
0.014999999664723873 -0.009999999776482582 0.0
0.019999999552965164 -0.009999999776482582 0.0
0.02500000037252903 -0.009999999776482582 0.0
0.029999999329447746 -0.009999999776482582 0.0
0.03500000014901161 -0.009999999776482582 0.0
0.03999999910593033 -0.004999999888241291 0.0
0.03999999910593033 -2.538941279439655e-14 0.0
0.03999999910593033 0.004999999888241291 0.0
0.03500000014901161 0.009999999776482582 0.0
0.029999999329447746 0.009999999776482582 0.0
0.02500000037252903 0.009999999776482582 0.0
0.019999999552965164 0.009999999776482582 0.0
0.014999999664723873 0.009999999776482582 0.0
0.009999999776482582 0.009999999776482582 0.0
0.004999999888241291 0.009999999776482582 0.0
0.0 0.004999999888241291 0.0
0.0 2.538941279439655e-14 0.0
0.0 -0.004999999888241291 0.0
0.004999999888241291 -0.004999999888241291 0.0
0.004999999888241291 1.904205959579741e-14 0.0
0.004999999888241291 0.004999999888241291 0.0
0.009999999776482582 -0.004999999888241291 0.0
0.009999999776482582 1.2694706397198274e-14 0.0
0.009999999776482582 0.004999999888241291 0.0
0.014999999664723873 -0.004999999888241291 0.0
0.014999999664723873 6.346919517730143e-15 0.0
0.014999999664723873 0.004999999888241291 0.0
0.019999999552965164 -0.004999999888241291 0.0
0.019999999552965164 0.0 0.0
0.019999999552965164 0.004999999888241291 0.0
0.02500000037252903 -0.004999999888241291 0.0
0.02500000037252903 -6.347570039033634e-15 0.0
0.02500000037252903 0.004999999888241291 0.0
0.029999999329447746 -0.004999999888241291 0.0
0.029999999329447746 -1.2694489556763777e-14 0.0
0.029999999329447746 0.004999999888241291 0.0
0.03500000014901161 -0.004999999888241291 0.0
0.03500000014901161 -1.9041734335145666e-14 0.0
0.03500000014901161 0.004999999888241291 0.0
CELLS 32 160
4 0 4 24 23
4 23 24 25 22
4 22 25 26 21
4 21 26 20 3
4 4 5 27 24
4 24 27 28 25
4 25 28 29 26
4 26 29 19 20
4 5 6 30 27
4 27 30 31 28
4 28 31 32 29
4 29 32 18 19
4 6 7 33 30
4 30 33 34 31
4 31 34 35 32
4 32 35 17 18
4 7 8 36 33
4 33 36 37 34
4 34 37 38 35
4 35 38 16 17
4 8 9 39 36
4 36 39 40 37
4 37 40 41 38
4 38 41 15 16
4 9 10 42 39
4 39 42 43 40
4 40 43 44 41
4 41 44 14 15
4 10 1 11 42
4 42 11 12 43
4 43 12 13 44
4 44 13 2 14
CELL_TYPES 32
9
9
9
9
9
9
9
9
9
9
9
9
9
9
9
9
9
9
9
9
9
9
9
9
9
9
9
9
9
9
9
9
POINT_DATA 45
SCALARS stress11 float
LOOKUP_TABLE default
-4225130406.7210693
-44850011243.95886
44850073237.57251
4225161758.2004395
-5395039031.191162
-11230059002.899414
-17802148549.004395
-23733502300.949707
-29508311180.246094
-35185501977.76416
-41299914341.973145
-20464699999.100037
18657.063884735107
20464738255.04834
41299964061.61365
35185545709.09497
29508334378.25415
23733521367.58789
17802151835.16455
11230154292.090576
5395138611.885986
4057245797.677124
-31428.152069091797
-4057271141.5909424
-3445797625.3950195
627.2098693847656
3445798351.1397705
-6421039831.320679
13320.727058410645
6421078217.746826
-8873959907.372314
8399.000778198242
8873984621.030151
-11703886488.307983
31969.50774383545
11703939286.285889
-14651465324.654297
15171.625694274902
14651497745.691162
-17572393625.317993
13740.238410949707
17572424598.92151
-18986828077.48523
14367.841285705566
18986857908.488525
SCALARS stress22 float
LOOKUP_TABLE default
-3848941548.163208
-12939652056.31482
12939671796.48822
3848928214.319824
-1203757015.4863892
-927771771.5554199
-2016939647.411499
-2699269768.4606323
-3298610048.2680664
-3962201719.586792
-5134149280.555908
-5873839958.423355
9362.972541809082
5873859101.41626
5134159485.521912
3962190921.2339478
3298580093.588562
2699277186.723999
2016910678.515503
927834134.7990112
1203781589.904541
7567465413.637146
-74070.55439758301
-7567548996.061676
-176819560.58843994
42608.96467590332
176851626.52978516
-69312505.84509277
64990.73848724365
69416836.62451172
-168706970.41445923
-28832.299964904785
168663181.52566528
-221528097.6533203
23524.96531677246
221571777.8479004
-267588803.84420776
-4955.7011795043945
267569241.72158813
-298571217.6242981
-183.28253936767578
298560928.3083496
-513833141.8453369
2472.4152641296387
513839089.9210205
SCALARS stress12 float
LOOKUP_TABLE default
1884349975.8535156
11507738328.708008
11507748369.232422
1884352248.8554688
2270894392.446289
2600579125.4609375
2668630769.3476562
2640225725.149414
2676912336.013672
2752254757.6777344
4425846832.140625
9339520077.819336
8709154018.882812
9339524383.74707
4425848259.817383
2752240543.6914062
2676901891.8095703
2640236898.6884766
2668592169.7871094
2600565272.2978516
2270862868.7490234
3040115423.8476562
6973012012.333008
3040103771.8125
3400194126.290039
5930135285.337891
3400206310.3779297
3763859644.5820312
4792867030.338867
3763831689.6660156
3754870949.1220703
4972711457.925781
3754843006.091797
3777200850.289551
5007919956.683594
3777208802.555664
3781414925.6601562
5045142745.893066
3781418061.4677734
3884845632.051758
5014127293.84668
3884839527.083496
4005600898.4521484
4704735652.745117
4005600316.1972656
SCALARS strain11 float
LOOKUP_TABLE default
-0.0030704478278593683
-0.04096811652668819
0.04096816854276064
0.003070483121340395
-0.005033911907570188
-0.010951727538556888
-0.01719706644572594
-0.02292372124344011
-0.028518728766665502
-0.033996841715525195
-0.03975966920722063
-0.01870254878787181
1.5798610811940117e-08
0.018702580597160845
0.03975971588479832
0.0339968899076144
0.028518760624751893
0.022923738000343752
0.01719707831008299
0.010951803966237073
0.0050340039676957105
0.0017870061487779143
-9.254050276075176e-09
-0.001787006594021312
-0.0033927517366706406
-1.2173917394997513e-08
0.003392742834369855
-0.006400245777197222
-6.239891096881944e-09
0.00640025303498204
-0.008823348114009089
1.7024994899972334e-08
0.008823385725145183
-0.011637427829029434
2.4954025332202256e-08
0.011637467387162537
-0.014571188742483088
1.6638204369812115e-08
0.014571226438589324
-0.01748282231954068
1.3671687934535548e-08
0.0174828564791365
-0.018832677866378322
1.357149674585667e-08
0.018832706395424337
SCALARS strain22 float
LOOKUP_TABLE default
-0.002581402583556148
0.0005153525271026464
-0.0005153487177158838
0.002581379567814967
0.00041475466775893824
0.0024412459047552532
0.0033237048779871945
0.004420780746723646
0.005553883425759832
0.006593448661960711
0.007255825233521914
0.00026557041258637795
3.7465120606566815e-09
-0.00026556255965437883
-0.007255829892411857
-0.006593473469113229
-0.005553920622897262
-0.00442077915485938
-0.003323734963718449
-0.0024412120048042498
-0.00041475989121201803
0.0063502915050298175
-6.459313192132277e-08
-0.006350367646737191
0.0008569197190820728
4.239945868836012e-08
-0.0008568879214996203
0.0018569993026515638
6.104033421858862e-08
-0.0018569065797225982
0.0024934811280348805
-3.132768785336047e-08
-0.002493532269959988
0.0032896377618562705
1.3905884762481849e-08
-0.003289609771990339
0.004127850949844532
-9.480649831384094e-09
-0.004127879853006418
0.00497314678969507
-4.200531336716155e-09
-0.004973166255729139
0.005182215220663538
-1.8565802137847365e-09
-0.005182218531095351
SCALARS strain12 float
LOOKUP_TABLE default
0.004899309869735191
0.029920120569389752
0.02992014562170553
0.004899315984570052
0.005904325391320242
0.006761505752862718
0.006938440016625691
0.006864586981500054
0.006959971999437542
0.007155862184658801
0.011507201826386648
0.02428275242476019
0.02264380114946185
0.024282763401837215
0.011507205270506304
0.007155825273271077
0.006959945046192573
0.006864616052084216
0.006938339514793057
0.006761469634476214
0.005904243426385847
0.007904300018836352
0.01812983141426372
0.007904269728278734
0.008840504736639332
0.01541835208526976
0.008840536159873125
0.009786035554997241
0.012461454121151405
0.00978596256338804
0.009762664580085456
0.012929049750917798
0.00976259172547067
0.009820722358215406
0.013020592163229594
0.00982074293870916
0.009831678694988355
0.01311737129867474
0.009831687076687246
0.010100598789314574
0.013036731116795153
0.010100583032510713
0.010414562362907276
0.012232312652450616
0.010414560837439524
SCALARS disp_x float
LOOKUP_TABLE default
0.0009211679571308196
0.0
0.0
-0.0009211698197759688
0.0009126400691457093
0.000876320234965533
0.0008039854001253843
0.0007020562188699841
0.0005709860124625266
0.00041149763274006546
0.00022389351215679199
0.0
0.0
0.0
-0.0002238936722278595
-0.00041149804019369185
-0.0005709867691621184
-0.000702056975569576
-0.0008039862150326371
-0.0008763209916651249
-0.0009126416989602149
-0.00045642530312761664
-3.312349838857642e-10
0.00045642437180504203
0.00045119659625925124
-3.765069922501141e-10
-0.00045119758578948677
0.0004225176526233554
-4.762168992478166e-10
-0.0004225187876727432
0.00038521242095157504
-4.805529862927926e-10
-0.00038521335227414966
0.00033425725996494293
-2.8948526908934014e-10
-0.00033425792935304344
0.0002687142405193299
-2.0472470940724463e-10
-0.00026871473528444767
0.00018798341625370085
-1.3572275248119325e-10
-0.0001879836927400902
9.161678462987766e-05
-8.80324840801805e-11
-9.161695197690278e-05
SCALARS disp_y float
LOOKUP_TABLE default
-0.0028728346806019545
0.0
0.0
-0.002872834913432598
-0.002391959773376584
-0.0018998796585947275
-0.0014316021697595716
-0.0010085401590913534
-0.0006439030403271317
-0.0003516545984894037
-0.00014705286594107747
0.0
0.0
0.0
-0.00014705295325256884
-0.00035165465669706464
-0.0006439031567424536
-0.0010085407411679626
-0.001431602519005537
-0.0018998791929334402
-0.002391959074884653
-0.0028832596726715565
-0.0029485851991921663
-0.002883259207010269
-0.002388463355600834
-0.0023772434797137976
-0.002388462657108903
-0.0018847199389711022
-0.0018798450473695993
-0.001884719473309815
-0.0014120236737653613
-0.0014052040642127395
-0.0014120240230113268
-0.0009823289001360536
-0.0009736119536682963
-0.000982329249382019
-0.0006109197274781764
-0.000600024766754359
-0.0006109197274781764
-0.0003126894880551845
-0.00029825008823536336
-0.000312689458951354
-9.849383059190586e-05
-8.78521241247654e-05
-9.849388152360916e-05
SCALARS von_mises_stress float
LOOKUP_TABLE default
5201550011.355936
44675481956.31626
44675538782.00594
5201561897.549983
6287451394.859568
11698080581.713177
17505526265.54971
22965505418.576973
28386306983.443577
33719894042.04289
39733699154.850876
24388101098.085663
15084697251.656363
24388130118.50705
39733744114.1845
33719937989.369114
28386338884.27198
22965524894.7624
17505523157.461246
11698134052.960846
6287487314.315138
8411397884.523479
12077611087.32052
8411441113.153559
6780815754.7272625
10271295610.049286
6780827131.76149
9126303558.964756
8301489210.681626
9126259924.111168
10935067220.719229
8612988896.57377
10935075392.756954
13313115064.124817
8673971805.26158
13313149336.225094
15928395034.23735
8738443567.343225
15928435485.508068
18679069256.481712
8684723228.571308
18679099013.747494
19978541465.531227
8148841186.746131
19978566408.49552
