# vtk DataFile Version 2.0
Generated Volume Mesh
ASCII
DATASET UNSTRUCTURED_GRID
POINTS 45 float
0.0 -0.009999999776482582 0.0
0.03999999910593033 -0.009999999776482582 0.0
0.03999999910593033 0.009999999776482582 0.0
0.0 0.009999999776482582 0.0
0.004999999888241291 -0.009999999776482582 0.0
0.009999999776482582 -0.009999999776482582 0.0
0.014999999664723873 -0.009999999776482582 0.0
0.019999999552965164 -0.009999999776482582 0.0
0.02500000037252903 -0.009999999776482582 0.0
0.029999999329447746 -0.009999999776482582 0.0
0.03500000014901161 -0.009999999776482582 0.0
0.03999999910593033 -0.004999999888241291 0.0
0.03999999910593033 -2.538941279439655e-14 0.0
0.03999999910593033 0.004999999888241291 0.0
0.03500000014901161 0.009999999776482582 0.0
0.029999999329447746 0.009999999776482582 0.0
0.02500000037252903 0.009999999776482582 0.0
0.019999999552965164 0.009999999776482582 0.0
0.014999999664723873 0.009999999776482582 0.0
0.009999999776482582 0.009999999776482582 0.0
0.004999999888241291 0.009999999776482582 0.0
0.0 0.004999999888241291 0.0
0.0 2.538941279439655e-14 0.0
0.0 -0.004999999888241291 0.0
0.004999999888241291 -0.004999999888241291 0.0
0.004999999888241291 1.904205959579741e-14 0.0
0.004999999888241291 0.004999999888241291 0.0
0.009999999776482582 -0.004999999888241291 0.0
0.009999999776482582 1.2694706397198274e-14 0.0
0.009999999776482582 0.004999999888241291 0.0
0.014999999664723873 -0.004999999888241291 0.0
0.014999999664723873 6.346919517730143e-15 0.0
0.014999999664723873 0.004999999888241291 0.0
0.019999999552965164 -0.004999999888241291 0.0
0.019999999552965164 0.0 0.0
0.019999999552965164 0.004999999888241291 0.0
0.02500000037252903 -0.004999999888241291 0.0
0.02500000037252903 -6.347570039033634e-15 0.0
0.02500000037252903 0.004999999888241291 0.0
0.029999999329447746 -0.004999999888241291 0.0
0.029999999329447746 -1.2694489556763777e-14 0.0
0.029999999329447746 0.004999999888241291 0.0
0.03500000014901161 -0.004999999888241291 0.0
0.03500000014901161 -1.9041734335145666e-14 0.0
0.03500000014901161 0.004999999888241291 0.0
CELLS 32 160
4 0 4 24 23
4 23 24 25 22
4 22 25 26 21
4 21 26 20 3
4 4 5 27 24
4 24 27 28 25
4 25 28 29 26
4 26 29 19 20
4 5 6 30 27
4 27 30 31 28
4 28 31 32 29
4 29 32 18 19
4 6 7 33 30
4 30 33 34 31
4 31 34 35 32
4 32 35 17 18
4 7 8 36 33
4 33 36 37 34
4 34 37 38 35
4 35 38 16 17
4 8 9 39 36
4 36 39 40 37
4 37 40 41 38
4 38 41 15 16
4 9 10 42 39
4 39 42 43 40
4 40 43 44 41
4 41 44 14 15
4 10 1 11 42
4 42 11 12 43
4 43 12 13 44
4 44 13 2 14
CELL_TYPES 32
9
9
9
9
9
9
9
9
9
9
9
9
9
9
9
9
9
9
9
9
9
9
9
9
9
9
9
9
9
9
9
9
POINT_DATA 45
SCALARS stress11 float
LOOKUP_TABLE default
-4225150087.653076
-44850294717.006836
44850315371.21521
4225149071.25354
-5395076709.761719
-11230057193.570557
-17802092620.847412
-23733456863.813965
-29508356956.022217
-35185650990.302734
-41300150823.367065
-20464815754.19751
669.9003715515137
20464817643.65277
41300160991.57349
35185639467.86719
29508348457.82202
23733477919.562744
17802087176.32422
11230064135.414307
5395075152.737793
4057261910.9207153
-828.5562286376953
-4057263589.514038
-3445792910.5671387
-1203.1232299804688
3445790467.2061768
-6421034917.176025
4306.639976501465
6421042974.520874
-8873960625.927002
-2340.270538330078
8873956052.723267
-11703902749.254028
12897.175682067871
11703928549.843384
-14651510500.037231
-1502.8880920410156
14651507190.669312
-17572472876.942993
-1695.1131401062012
17572468185.40808
-18986927655.473877
458.69500732421875
18986929281.35913
SCALARS stress22 float
LOOKUP_TABLE default
-3848922778.555603
-12939731816.910034
12939743009.912659
3848918292.644287
-1203743006.531311
-927769259.3432617
-2016936498.0253296
-2699217112.7964478
-3298601372.6273804
-3962217487.82251
-5134185312.797302
-5873873169.154572
4387.203136444092
5873882030.145569
5134189417.767944
3962203877.9717407
3298590200.6694336
2699288495.3724365
2016923763.49823
927796372.239502
1203739541.9714966
7567472857.013733
-2820.476776123047
-7567478504.661865
-176795862.73321533
-4146.673690795898
176787744.94644165
-69341123.55560303
13742.315414428711
69368788.50732422
-168710693.12524414
-8277.81411743164
168694581.92773438
-221511914.39974976
43208.21014404297
221598081.74917603
-267587250.1482544
-6740.864761352539
267574392.5918579
-298573205.7069092
-8080.21072769165
298557685.48553467
-513837132.1939392
2895.7078247070312
513842488.5633545
SCALARS stress12 float
LOOKUP_TABLE default
1884337672.0175781
11507848716.416992
11507854211.13086
1884344134.4394531
2270868800.1933594
2600555641.439453
2668615432.6484375
2640250065.053711
2676946548.3154297
2752290258.3242188
4425905523.267578
9339620453.77246
8709252103.67871
9339621891.510742
4425905042.064453
2752283141.276367
2676942370.7421875
2640261175.0859375
2668612928.4716797
2600554945.9677734
2270868974.841797
3040111279.7871094
6973002599.861328
3040107194.888672
3400179908.600586
5930106127.202148
3400181507.5283203
3763818606.540039
4792820175.408203
3763821895.5
3754855963.111328
4972707292.829102
3754856263.3242188
3777231829.051758
5007960525.589844
3777239734.2475586
3781464134.5893555
5045209640.709473
3781464742.6533203
3884899581.928711
5014202513.148926
3884898623.097168
4005664227.4501953
4704812931.0703125
4005663815.2617188
SCALARS strain11 float
LOOKUP_TABLE default
-0.0030704734013335955
-0.040968374612899705
0.040968390741542016
0.003070473495550119
-0.005033954086244519
-0.010951726884702806
-0.017197011089254755
-0.022923690677698838
-0.028518775253383977
-0.03399698378811222
-0.03975989620623854
-0.01870265419056616
-8.06085398083467e-10
0.01870265320865533
0.03975990471240942
0.033996978896975616
0.028518770762741674
0.0229236903308625
0.017197009585839806
0.0109517249973754
0.005033953572490146
0.001787020119208671
1.9608849266550266e-11
-0.0017870200699956484
-0.003392754120625674
4.57817672661065e-11
0.0033927541385556648
-0.006400232511914572
1.9292149822103255e-10
0.006400232687862939
-0.008823347460020226
1.5058913838128518e-10
0.008823347622878064
-0.011637449047624648
4.544028348041351e-12
0.01163744907012565
-0.014571234203912264
3.549097821187175e-10
0.01457123486831935
-0.01748290021257226
6.778528884032742e-10
0.01748290129951935
-0.018832776903817905
-4.0773013264272517e-10
0.018832776405010576
SCALARS strain22 float
LOOKUP_TABLE default
-0.0025813776193941013
0.0005153559050615313
-0.000515349976296384
0.002581373731073401
0.00041478002739914546
0.002441248041351373
0.0033236911135345634
0.004420819798398068
0.005553905597570188
0.006593477692490993
0.007255860339854375
0.0002655714068095817
4.22951515369023e-09
-0.0002655631305993715
-0.007255858545541422
-0.006593487863929811
-0.005553914328563626
-0.004420754884659947
-0.00332370239077365
-0.0024412228576246725
-0.000414782998151916
0.0063502943590750295
-2.5707338298028293e-09
-0.006350299573088983
0.0008569420203542559
-3.7822793634047225e-09
-0.000856949388531569
0.0018569692752336787
1.2440249496335765e-08
-0.0018569442690760177
0.0024934775804136035
-7.575954660268489e-09
-0.0024934922241420686
0.003289658951680494
3.930267654080402e-08
-0.0032895804578048893
0.0041278660219902915
-6.322593515580011e-09
-0.004127877940417756
0.004973168578891831
-7.531025031674507e-09
-0.004973182895981629
0.005182241361761885
2.856492476149136e-09
-0.0051822361320656984
SCALARS strain12 float
LOOKUP_TABLE default
0.004899278121289541
0.02992040770237736
0.02992042011957352
0.004899294588831538
0.005904258718420152
0.0067614446502659575
0.006938400156135671
0.006864649892051489
0.006960060993373318
0.0071559546208277425
0.011507354355915211
0.024283013320573588
0.022644055505811167
0.024283016747240538
0.011507352919776892
0.007155935935319491
0.006960050411631613
0.006864678802964264
0.006938393994413872
0.006761442850169885
0.005904259304148951
0.007904290000727343
0.018129806437542584
0.007904279224817401
0.008840467573687505
0.015418275673596327
0.008840471866982114
0.009785928052478354
0.012461332601041875
0.009785936807492845
0.009762625845882056
0.01292903885546437
0.00976262609470524
0.009820802960110342
0.013020696776825602
0.0098208233395507
0.009831805958878448
0.013117545513457785
0.009831807649364421
0.010100739081776666
0.013036926558809725
0.0101007365503758
0.010414726979066202
0.012232513765720654
0.010414725910484535
SCALARS disp_x float
LOOKUP_TABLE default
0.0009211705731066247
0.0
0.0
-0.0009211705731066247
0.0009126424817659502
0.0008763223468836538
0.0008039878479996535
0.0007020590289227984
0.0005709889258509594
0.00041150002959778383
0.00022389497463066424
0.0
0.0
0.0
-0.0002238949746306642
-0.0004115000295977837
-0.0005709889258509594
-0.0007020590289227986
-0.0008039878479996536
-0.0008763223468836534
-0.00091264248176595
-0.0004564258188195219
-1.371589491560732e-19
0.0004564258188195216
0.0004511979810748184
-1.6207799952464343e-19
-0.00045119798107481874
0.00042251912131493694
-1.3925697434190908e-19
-0.0004225191213149371
0.00038521397493105144
3.231811797829431e-20
-0.0003852139749310512
0.00033425871347494333
1.5301418469858357e-19
-0.0003342587134749431
0.0002687155380829593
1.0798633538774741e-19
-0.0002687155380829592
0.0001879843908129528
3.8189906713622895e-20
-0.00018798439081295265
9.161728799775783e-05
2.6210362527004685e-20
-9.161728799775778e-05
SCALARS disp_y float
LOOKUP_TABLE default
-0.0028728447692077923
0.0
0.0
-0.0028728447692077915
-0.0023919686610531185
-0.0018998881940324177
-0.0014316103986879416
-0.0010085472798085245
-0.0006439080122321341
-0.0003516577285630864
-0.00014705430996012252
0.0
0.0
0.0
-0.00014705430996012254
-0.0003516577285630864
-0.0006439080122321338
-0.0010085472798085247
-0.001431610398687942
-0.001899888194032419
-0.002391968661053119
-0.002883269394734561
-0.0029485949164967974
-0.0028832693947345614
-0.0023884721038792624
-0.002377252143986168
-0.002388472103879262
-0.0018847284494908838
-0.001879853868417553
-0.0018847284494908842
-0.0014120320479442154
-0.0014052124014595066
-0.001412032047944216
-0.0009823358184097263
-0.0009736187422601331
-0.0009823358184097263
-0.0006109246065547959
-0.0006000296775602996
-0.0006109246065547956
-0.0003126924376673173
-0.0002982529677387342
-0.00031269243766731737
-9.84950332218864e-05
-8.785327297904841e-05
-9.849503322188646e-05
SCALARS von_mises_stress float
LOOKUP_TABLE default
5201539078.950453
44675793852.916595
44675813466.31434
5201544155.273395
6287455717.059614
11698064261.118351
17505466836.168358
22965490546.338364
28386365089.035686
33720043095.408413
39733935221.52113
24388293674.463303
15084867139.498209
24388295100.59961
39733943369.82518
33720035507.9011
28386360075.362133
22965486405.78225
17505465475.714554
11698059322.383242
6287455542.429956
8411398816.559935
12077594784.269955
8411398160.898258
6780797435.532482
10271245106.590292
6780800482.008711
9126239495.667093
8301408055.357113
9126239681.298235
10935050907.592949
8612981682.351461
10935053829.58638
13313162436.456875
8674042072.706032
13313155190.41354
15928471943.895836
8738559432.547277
15928475058.099482
18679175937.283913
8684853512.216625
18679178015.219643
19978671118.12445
8148975036.721277
19978669986.987797
