# vtk DataFile Version 2.0
Generated Volume Mesh
ASCII
DATASET UNSTRUCTURED_GRID
POINTS 569 float
0.0 -0.009999999776482582 0.0
0.20000000298023224 -0.009999999776482582 0.0
0.20000000298023224 0.009999999776482582 0.0
0.0 0.009999999776482582 0.0
0.004999999888241291 -0.009999999776482582 0.0
0.009999999776482582 -0.009999999776482582 0.0
0.014999999664723873 -0.009999999776482582 0.0
0.019999999552965164 -0.009999999776482582 0.0
0.02500000037252903 -0.009999999776482582 0.0
0.029999999329447746 -0.009999999776482582 0.0
0.03500000014901161 -0.009999999776482582 0.0
0.03999999910593033 -0.009999999776482582 0.0
0.04500000178813934 -0.009999999776482582 0.0
0.05000000074505806 -0.009999999776482582 0.0
0.054999999701976776 -0.009999999776482582 0.0
0.05999999865889549 -0.009999999776482582 0.0
0.06499999761581421 -0.009999999776482582 0.0
0.07000000029802322 -0.009999999776482582 0.0
0.07500000298023224 -0.009999999776482582 0.0
0.07999999821186066 -0.009999999776482582 0.0
0.08500000089406967 -0.009999999776482582 0.0
0.09000000357627869 -0.009999999776482582 0.0
0.0949999988079071 -0.009999999776482582 0.0
0.10000000149011612 -0.009999999776482582 0.0
0.10499999672174454 -0.009999999776482582 0.0
0.10999999940395355 -0.009999999776482582 0.0
0.11500000208616257 -0.009999999776482582 0.0
0.11999999731779099 -0.009999999776482582 0.0
0.125 -0.009999999776482582 0.0
0.12999999523162842 -0.009999999776482582 0.0
0.13500000536441803 -0.009999999776482582 0.0
0.14000000059604645 -0.009999999776482582 0.0
0.14499999582767487 -0.009999999776482582 0.0
0.15000000596046448 -0.009999999776482582 0.0
0.1550000011920929 -0.009999999776482582 0.0
0.1599999964237213 -0.009999999776482582 0.0
0.16500000655651093 -0.009999999776482582 0.0
0.17000000178813934 -0.009999999776482582 0.0
0.17499999701976776 -0.009999999776482582 0.0
0.18000000715255737 -0.009999999776482582 0.0
0.1850000023841858 -0.009999999776482582 0.0
0.1899999976158142 -0.009999999776482582 0.0
0.19499999284744263 -0.009999999776482582 0.0
0.0024999999441206455 -0.009999999776482582 0.0
0.007499999832361937 -0.009999999776482582 0.0
0.012500000186264515 -0.009999999776482582 0.0
0.017500000074505806 -0.009999999776482582 0.0
0.02250000089406967 -0.009999999776482582 0.0
0.027499999850988388 -0.009999999776482582 0.0
0.032499998807907104 -0.009999999776482582 0.0
0.03750000149011612 -0.009999999776482582 0.0
0.042500000447034836 -0.009999999776482582 0.0
0.04749999940395355 -0.009999999776482582 0.0
0.05249999836087227 -0.009999999776482582 0.0
0.057500001043081284 -0.009999999776482582 0.0
0.0625 -0.009999999776482582 0.0
0.06750000268220901 -0.009999999776482582 0.0
0.07249999791383743 -0.009999999776482582 0.0
0.07750000059604645 -0.009999999776482582 0.0
0.08250000327825546 -0.009999999776482582 0.0
0.08749999850988388 -0.009999999776482582 0.0
0.0925000011920929 -0.009999999776482582 0.0
0.09749999642372131 -0.009999999776482582 0.0
0.10249999910593033 -0.009999999776482582 0.0
0.10750000178813934 -0.009999999776482582 0.0
0.11249999701976776 -0.009999999776482582 0.0
0.11749999970197678 -0.009999999776482582 0.0
0.12250000238418579 -0.009999999776482582 0.0
0.1274999976158142 -0.009999999776482582 0.0
0.13249999284744263 -0.009999999776482582 0.0
0.13750000298023224 -0.009999999776482582 0.0
0.14249999821186066 -0.009999999776482582 0.0
0.14749999344348907 -0.009999999776482582 0.0
0.1525000035762787 -0.009999999776482582 0.0
0.1574999988079071 -0.009999999776482582 0.0
0.16249999403953552 -0.009999999776482582 0.0
0.16750000417232513 -0.009999999776482582 0.0
0.17249999940395355 -0.009999999776482582 0.0
0.17749999463558197 -0.009999999776482582 0.0
0.18250000476837158 -0.009999999776482582 0.0
0.1875 -0.009999999776482582 0.0
0.19249999523162842 -0.009999999776482582 0.0
0.19750000536441803 -0.009999999776482582 0.0
0.20000000298023224 -0.004999999888241291 0.0
0.20000000298023224 -2.538941279439655e-14 0.0
0.20000000298023224 0.004999999888241291 0.0
0.20000000298023224 -0.007499999832361937 0.0
0.20000000298023224 -0.0024999999441206455 0.0
0.20000000298023224 0.0024999999441206455 0.0
0.20000000298023224 0.007499999832361937 0.0
0.19499999284744263 0.009999999776482582 0.0
0.1899999976158142 0.009999999776482582 0.0
0.1850000023841858 0.009999999776482582 0.0
0.18000000715255737 0.009999999776482582 0.0
0.17499999701976776 0.009999999776482582 0.0
0.17000000178813934 0.009999999776482582 0.0
0.16500000655651093 0.009999999776482582 0.0
0.1599999964237213 0.009999999776482582 0.0
0.1550000011920929 0.009999999776482582 0.0
0.15000000596046448 0.009999999776482582 0.0
0.14499999582767487 0.009999999776482582 0.0
0.14000000059604645 0.009999999776482582 0.0
0.13500000536441803 0.009999999776482582 0.0
0.12999999523162842 0.009999999776482582 0.0
0.125 0.009999999776482582 0.0
0.11999999731779099 0.009999999776482582 0.0
0.11500000208616257 0.009999999776482582 0.0
0.10999999940395355 0.009999999776482582 0.0
0.10499999672174454 0.009999999776482582 0.0
0.10000000149011612 0.009999999776482582 0.0
0.0949999988079071 0.009999999776482582 0.0
0.09000000357627869 0.009999999776482582 0.0
0.08500000089406967 0.009999999776482582 0.0
0.07999999821186066 0.009999999776482582 0.0
0.07500000298023224 0.009999999776482582 0.0
0.07000000029802322 0.009999999776482582 0.0
0.06499999761581421 0.009999999776482582 0.0
0.05999999865889549 0.009999999776482582 0.0
0.054999999701976776 0.009999999776482582 0.0
0.05000000074505806 0.009999999776482582 0.0
0.04500000178813934 0.009999999776482582 0.0
0.03999999910593033 0.009999999776482582 0.0
0.03500000014901161 0.009999999776482582 0.0
0.029999999329447746 0.009999999776482582 0.0
0.02500000037252903 0.009999999776482582 0.0
0.019999999552965164 0.009999999776482582 0.0
0.014999999664723873 0.009999999776482582 0.0
0.009999999776482582 0.009999999776482582 0.0
0.004999999888241291 0.009999999776482582 0.0
0.19750000536441803 0.009999999776482582 0.0
0.19249999523162842 0.009999999776482582 0.0
0.1875 0.009999999776482582 0.0
0.18250000476837158 0.009999999776482582 0.0
0.17749999463558197 0.009999999776482582 0.0
0.17249999940395355 0.009999999776482582 0.0
0.16750000417232513 0.009999999776482582 0.0
0.16249999403953552 0.009999999776482582 0.0
0.1574999988079071 0.009999999776482582 0.0
0.1525000035762787 0.009999999776482582 0.0
0.14749999344348907 0.009999999776482582 0.0
0.14249999821186066 0.009999999776482582 0.0
0.13750000298023224 0.009999999776482582 0.0
0.13249999284744263 0.009999999776482582 0.0
0.1274999976158142 0.009999999776482582 0.0
0.12250000238418579 0.009999999776482582 0.0
0.11749999970197678 0.009999999776482582 0.0
0.11249999701976776 0.009999999776482582 0.0
0.10750000178813934 0.009999999776482582 0.0
0.10249999910593033 0.009999999776482582 0.0
0.09749999642372131 0.009999999776482582 0.0
0.0925000011920929 0.009999999776482582 0.0
0.08749999850988388 0.009999999776482582 0.0
0.08250000327825546 0.009999999776482582 0.0
0.07750000059604645 0.009999999776482582 0.0
0.07249999791383743 0.009999999776482582 0.0
0.06750000268220901 0.009999999776482582 0.0
0.0625 0.009999999776482582 0.0
0.057500001043081284 0.009999999776482582 0.0
0.05249999836087227 0.009999999776482582 0.0
0.04749999940395355 0.009999999776482582 0.0
0.042500000447034836 0.009999999776482582 0.0
0.03750000149011612 0.009999999776482582 0.0
0.032499998807907104 0.009999999776482582 0.0
0.027499999850988388 0.009999999776482582 0.0
0.02250000089406967 0.009999999776482582 0.0
0.017500000074505806 0.009999999776482582 0.0
0.012500000186264515 0.009999999776482582 0.0
0.007499999832361937 0.009999999776482582 0.0
0.0024999999441206455 0.009999999776482582 0.0
0.0 0.004999999888241291 0.0
0.0 2.538941279439655e-14 0.0
0.0 -0.004999999888241291 0.0
0.0 0.007499999832361937 0.0
0.0 0.0024999999441206455 0.0
0.0 -0.0024999999441206455 0.0
0.0 -0.007499999832361937 0.0
0.004999999888241291 -0.004999999888241291 0.0
0.004999999888241291 2.4119595209981526e-14 0.0
0.004999999888241291 0.004999999888241291 0.0
0.009999999776482582 -0.004999999888241291 0.0
0.009999999776482582 2.285064498730449e-14 0.0
0.009999999776482582 0.004999999888241291 0.0
0.014999999664723873 -0.004999999888241291 0.0
0.014999999664723873 2.158082740288947e-14 0.0
0.014999999664723873 0.004999999888241291 0.0
0.019999999552965164 -0.004999999888241291 0.0
0.019999999552965164 2.0311877180212434e-14 0.0
0.019999999552965164 0.004999999888241291 0.0
0.02500000037252903 -0.004999999888241291 0.0
0.02500000037252903 1.904205959579741e-14 0.0
0.02500000037252903 0.004999999888241291 0.0
0.029999999329447746 -0.004999999888241291 0.0
0.029999999329447746 1.777224201138239e-14 0.0
0.029999999329447746 0.004999999888241291 0.0
0.03500000014901161 -0.004999999888241291 0.0
0.03500000014901161 1.6503291788705354e-14 0.0
0.03500000014901161 0.004999999888241291 0.0
0.03999999910593033 -0.004999999888241291 0.0
0.03999999910593033 1.523347420429033e-14 0.0
0.03999999910593033 0.004999999888241291 0.0
0.04500000178813934 -0.004999999888241291 0.0
0.04500000178813934 1.3964957662482291e-14 0.0
0.04500000178813934 0.004999999888241291 0.0
0.05000000074505806 -0.004999999888241291 0.0
0.05000000074505806 1.2695140078067269e-14 0.0
0.05000000074505806 0.004999999888241291 0.0
0.054999999701976776 -0.004999999888241291 0.0
0.054999999701976776 1.1424888812783252e-14 0.0
0.054999999701976776 0.004999999888241291 0.0
0.05999999865889549 -0.004999999888241291 0.0
0.05999999865889549 1.0155938590106217e-14 0.0
0.05999999865889549 0.004999999888241291 0.0
0.06499999761581421 -0.004999999888241291 0.0
0.06499999761581421 8.886121005691194e-15 0.0
0.06499999761581421 0.004999999888241291 0.0
0.07000000029802322 -0.004999999888241291 0.0
0.07000000029802322 7.617604463883154e-15 0.0
0.07000000029802322 0.004999999888241291 0.0
0.07500000298023224 -0.004999999888241291 0.0
0.07500000298023224 6.347786879468131e-15 0.0
0.07500000298023224 0.004999999888241291 0.0
0.07999999821186066 -0.004999999888241291 0.0
0.07999999821186066 5.077535614184114e-15 0.0
0.07999999821186066 0.004999999888241291 0.0
0.08500000089406967 -0.004999999888241291 0.0
0.08500000089406967 3.809019072376074e-15 0.0
0.08500000089406967 0.004999999888241291 0.0
0.09000000357627869 -0.004999999888241291 0.0
0.09000000357627869 2.538767807092057e-15 0.0
0.09000000357627869 0.004999999888241291 0.0
0.0949999988079071 -0.004999999888241291 0.0
0.0949999988079071 1.2698175844150228e-15 0.0
0.0949999988079071 0.004999999888241291 0.0
0.10000000149011612 -0.004999999888241291 0.0
0.10000000149011612 0.0 0.0
0.10000000149011612 0.004999999888241291 0.0
0.10499999672174454 -0.004999999888241291 0.0
0.10499999672174454 -1.2698175844150228e-15 0.0
0.10499999672174454 0.004999999888241291 0.0
0.10999999940395355 -0.004999999888241291 0.0
0.10999999940395355 -2.538767807092057e-15 0.0
0.10999999940395355 0.004999999888241291 0.0
0.11500000208616257 -0.004999999888241291 0.0
0.11500000208616257 -3.80858539150708e-15 0.0
0.11500000208616257 0.004999999888241291 0.0
0.11999999731779099 -0.004999999888241291 0.0
0.11999999731779099 -5.077535614184114e-15 0.0
0.11999999731779099 0.004999999888241291 0.0
0.125 -0.004999999888241291 0.0
0.125 -6.347570039033634e-15 0.0
0.125 0.004999999888241291 0.0
0.12999999523162842 -0.004999999888241291 0.0
0.12999999523162842 -7.617387623448657e-15 0.0
0.12999999523162842 0.004999999888241291 0.0
0.13500000536441803 -0.004999999888241291 0.0
0.13500000536441803 -8.886121005691194e-15 0.0
0.13500000536441803 0.004999999888241291 0.0
0.14000000059604645 -0.004999999888241291 0.0
0.14000000059604645 -1.0155938590106217e-14 0.0
0.14000000059604645 0.004999999888241291 0.0
0.14499999582767487 -0.004999999888241291 0.0
0.14499999582767487 -1.1424888812783252e-14 0.0
0.14499999582767487 0.004999999888241291 0.0
0.15000000596046448 -0.004999999888241291 0.0
0.15000000596046448 -1.2694923237632771e-14 0.0
0.15000000596046448 0.004999999888241291 0.0
0.1550000011920929 -0.004999999888241291 0.0
0.1550000011920929 -1.3964523981613297e-14 0.0
0.1550000011920929 0.004999999888241291 0.0
0.1599999964237213 -0.004999999888241291 0.0
0.1599999964237213 -1.523369104472483e-14 0.0
0.1599999964237213 0.004999999888241291 0.0
0.16500000655651093 -0.004999999888241291 0.0
0.16500000655651093 -1.650350862913985e-14 0.0
0.16500000655651093 0.004999999888241291 0.0
0.17000000178813934 -0.004999999888241291 0.0
0.17000000178813934 -1.777224201138239e-14 0.0
0.17000000178813934 0.004999999888241291 0.0
0.17499999701976776 -0.004999999888241291 0.0
0.17499999701976776 -1.9041625914928417e-14 0.0
0.17499999701976776 0.004999999888241291 0.0
0.18000000715255737 -0.004999999888241291 0.0
0.18000000715255737 -2.0311768759995186e-14 0.0
0.18000000715255737 0.004999999888241291 0.0
0.1850000023841858 -0.004999999888241291 0.0
0.1850000023841858 -2.158109845343259e-14 0.0
0.1850000023841858 0.004999999888241291 0.0
0.1899999976158142 -0.004999999888241291 0.0
0.1899999976158142 -2.2850319726652746e-14 0.0
0.1899999976158142 0.004999999888241291 0.0
0.19499999284744263 -0.004999999888241291 0.0
0.19499999284744263 -2.4119568104927214e-14 0.0
0.19499999284744263 0.004999999888241291 0.0
0.004999999888241291 -0.007499999832361937 0.0
0.0024999999441206455 -0.004999999888241291 0.0
0.004999999888241291 -0.0024999999441206455 0.0
0.0024999999441206455 2.4754504002189037e-14 0.0
0.004999999888241291 0.0024999999441206455 0.0
0.0024999999441206455 0.004999999888241291 0.0
0.004999999888241291 0.007499999832361937 0.0
0.009999999776482582 -0.007499999832361937 0.0
0.007499999832361937 -0.004999999888241291 0.0
0.009999999776482582 -0.0024999999441206455 0.0
0.007499999832361937 2.348512009864301e-14 0.0
0.009999999776482582 0.0024999999441206455 0.0
0.007499999832361937 0.004999999888241291 0.0
0.009999999776482582 0.007499999832361937 0.0
0.014999999664723873 -0.007499999832361937 0.0
0.012500000186264515 -0.004999999888241291 0.0
0.014999999664723873 -0.0024999999441206455 0.0
0.012500000186264515 2.221573619509698e-14 0.0
0.014999999664723873 0.0024999999441206455 0.0
0.012500000186264515 0.004999999888241291 0.0
0.014999999664723873 0.007499999832361937 0.0
0.019999999552965164 -0.007499999832361937 0.0
0.017500000074505806 -0.004999999888241291 0.0
0.019999999552965164 -0.0024999999441206455 0.0
0.017500000074505806 2.094635229155095e-14 0.0
0.019999999552965164 0.0024999999441206455 0.0
0.017500000074505806 0.004999999888241291 0.0
0.019999999552965164 0.007499999832361937 0.0
0.02500000037252903 -0.007499999832361937 0.0
0.02250000089406967 -0.004999999888241291 0.0
0.02500000037252903 -0.0024999999441206455 0.0
0.02250000089406967 1.9676968388004923e-14 0.0
0.02500000037252903 0.0024999999441206455 0.0
0.02250000089406967 0.004999999888241291 0.0
0.02500000037252903 0.007499999832361937 0.0
0.029999999329447746 -0.007499999832361937 0.0
0.027499999850988388 -0.004999999888241291 0.0
0.029999999329447746 -0.0024999999441206455 0.0
0.027499999850988388 1.84071508035899e-14 0.0
0.029999999329447746 0.0024999999441206455 0.0
0.027499999850988388 0.004999999888241291 0.0
0.029999999329447746 0.007499999832361937 0.0
0.03500000014901161 -0.007499999832361937 0.0
0.032499998807907104 -0.004999999888241291 0.0
0.03500000014901161 -0.0024999999441206455 0.0
0.032499998807907104 1.713776690004387e-14 0.0
0.03500000014901161 0.0024999999441206455 0.0
0.032499998807907104 0.004999999888241291 0.0
0.03500000014901161 0.007499999832361937 0.0
0.03999999910593033 -0.007499999832361937 0.0
0.03750000149011612 -0.004999999888241291 0.0
0.03999999910593033 -0.0024999999441206455 0.0
0.03750000149011612 1.5868382996497843e-14 0.0
0.03999999910593033 0.0024999999441206455 0.0
0.03750000149011612 0.004999999888241291 0.0
0.03999999910593033 0.007499999832361937 0.0
0.04500000178813934 -0.007499999832361937 0.0
0.042500000447034836 -0.004999999888241291 0.0
0.04500000178813934 -0.0024999999441206455 0.0
0.042500000447034836 1.459921593338631e-14 0.0
0.04500000178813934 0.0024999999441206455 0.0
0.042500000447034836 0.004999999888241291 0.0
0.04500000178813934 0.007499999832361937 0.0
0.05000000074505806 -0.007499999832361937 0.0
0.04749999940395355 -0.004999999888241291 0.0
0.05000000074505806 -0.0024999999441206455 0.0
0.04749999940395355 1.333004887027478e-14 0.0
0.05000000074505806 0.0024999999441206455 0.0
0.04749999940395355 0.004999999888241291 0.0
0.05000000074505806 0.007499999832361937 0.0
0.054999999701976776 -0.007499999832361937 0.0
0.05249999836087227 -0.004999999888241291 0.0
0.054999999701976776 -0.0024999999441206455 0.0
0.05249999836087227 1.206001444542526e-14 0.0
0.054999999701976776 0.0024999999441206455 0.0
0.05249999836087227 0.004999999888241291 0.0
0.054999999701976776 0.007499999832361937 0.0
0.05999999865889549 -0.007499999832361937 0.0
0.057500001043081284 -0.004999999888241291 0.0
0.05999999865889549 -0.0024999999441206455 0.0
0.057500001043081284 1.0790413701444734e-14 0.0
0.05999999865889549 0.0024999999441206455 0.0
0.057500001043081284 0.004999999888241291 0.0
0.05999999865889549 0.007499999832361937 0.0
0.06499999761581421 -0.007499999832361937 0.0
0.0625 -0.004999999888241291 0.0
0.06499999761581421 -0.0024999999441206455 0.0
0.0625 9.521029797898706e-15 0.0
0.06499999761581421 0.0024999999441206455 0.0
0.0625 0.004999999888241291 0.0
0.06499999761581421 0.007499999832361937 0.0
0.07000000029802322 -0.007499999832361937 0.0
0.06750000268220901 -0.004999999888241291 0.0
0.07000000029802322 -0.0024999999441206455 0.0
0.06750000268220901 8.251862734787174e-15 0.0
0.07000000029802322 0.0024999999441206455 0.0
0.06750000268220901 0.004999999888241291 0.0
0.07000000029802322 0.007499999832361937 0.0
0.07500000298023224 -0.007499999832361937 0.0
0.07249999791383743 -0.004999999888241291 0.0
0.07500000298023224 -0.0024999999441206455 0.0
0.07249999791383743 6.982695671675643e-15 0.0
0.07500000298023224 0.0024999999441206455 0.0
0.07249999791383743 0.004999999888241291 0.0
0.07500000298023224 0.007499999832361937 0.0
0.07999999821186066 -0.007499999832361937 0.0
0.07750000059604645 -0.004999999888241291 0.0
0.07999999821186066 -0.0024999999441206455 0.0
0.07750000059604645 5.712661246826123e-15 0.0
0.07999999821186066 0.0024999999441206455 0.0
0.07750000059604645 0.004999999888241291 0.0
0.07999999821186066 0.007499999832361937 0.0
0.08500000089406967 -0.007499999832361937 0.0
0.08250000327825546 -0.004999999888241291 0.0
0.08500000089406967 -0.0024999999441206455 0.0
0.08250000327825546 4.443277343280094e-15 0.0
0.08500000089406967 0.0024999999441206455 0.0
0.08250000327825546 0.004999999888241291 0.0
0.08500000089406967 0.007499999832361937 0.0
0.09000000357627869 -0.007499999832361937 0.0
0.08749999850988388 -0.004999999888241291 0.0
0.09000000357627869 -0.0024999999441206455 0.0
0.08749999850988388 3.1738934397340657e-15 0.0
0.09000000357627869 0.0024999999441206455 0.0
0.08749999850988388 0.004999999888241291 0.0
0.09000000357627869 0.007499999832361937 0.0
0.0949999988079071 -0.007499999832361937 0.0
0.0925000011920929 -0.004999999888241291 0.0
0.0949999988079071 -0.0024999999441206455 0.0
0.0925000011920929 1.90429269575354e-15 0.0
0.0949999988079071 0.0024999999441206455 0.0
0.0925000011920929 0.004999999888241291 0.0
0.0949999988079071 0.007499999832361937 0.0
0.10000000149011612 -0.007499999832361937 0.0
0.09749999642372131 -0.004999999888241291 0.0
0.10000000149011612 -0.0024999999441206455 0.0
0.09749999642372131 6.349087922075114e-16 0.0
0.10000000149011612 0.0024999999441206455 0.0
0.09749999642372131 0.004999999888241291 0.0
0.10000000149011612 0.007499999832361937 0.0
0.10499999672174454 -0.007499999832361937 0.0
0.10249999910593033 -0.004999999888241291 0.0
0.10499999672174454 -0.0024999999441206455 0.0
0.10249999910593033 -6.349087922075114e-16 0.0
0.10499999672174454 0.0024999999441206455 0.0
0.10249999910593033 0.004999999888241291 0.0
0.10499999672174454 0.007499999832361937 0.0
0.10999999940395355 -0.007499999832361937 0.0
0.10750000178813934 -0.004999999888241291 0.0
0.10999999940395355 -0.0024999999441206455 0.0
0.10750000178813934 -1.90429269575354e-15 0.0
0.10999999940395355 0.0024999999441206455 0.0
0.10750000178813934 0.004999999888241291 0.0
0.10999999940395355 0.007499999832361937 0.0
0.11500000208616257 -0.007499999832361937 0.0
0.11249999701976776 -0.004999999888241291 0.0
0.11500000208616257 -0.0024999999441206455 0.0
0.11249999701976776 -3.1736765992995686e-15 0.0
0.11500000208616257 0.0024999999441206455 0.0
0.11249999701976776 0.004999999888241291 0.0
0.11500000208616257 0.007499999832361937 0.0
0.11999999731779099 -0.007499999832361937 0.0
0.11749999970197678 -0.004999999888241291 0.0
0.11999999731779099 -0.0024999999441206455 0.0
0.11749999970197678 -4.443060502845597e-15 0.0
0.11999999731779099 0.0024999999441206455 0.0
0.11749999970197678 0.004999999888241291 0.0
0.11999999731779099 0.007499999832361937 0.0
0.125 -0.007499999832361937 0.0
0.12250000238418579 -0.004999999888241291 0.0
0.125 -0.0024999999441206455 0.0
0.12250000238418579 -5.712552826608874e-15 0.0
0.125 0.0024999999441206455 0.0
0.12250000238418579 0.004999999888241291 0.0
0.125 0.007499999832361937 0.0
0.12999999523162842 -0.007499999832361937 0.0
0.1274999976158142 -0.004999999888241291 0.0
0.12999999523162842 -0.0024999999441206455 0.0
0.1274999976158142 -6.982478831241146e-15 0.0
0.12999999523162842 0.0024999999441206455 0.0
0.1274999976158142 0.004999999888241291 0.0
0.12999999523162842 0.007499999832361937 0.0
0.13500000536441803 -0.007499999832361937 0.0
0.13249999284744263 -0.004999999888241291 0.0
0.13500000536441803 -0.0024999999441206455 0.0
0.13249999284744263 -8.251754314569926e-15 0.0
0.13500000536441803 0.0024999999441206455 0.0
0.13249999284744263 0.004999999888241291 0.0
0.13500000536441803 0.007499999832361937 0.0
0.14000000059604645 -0.007499999832361937 0.0
0.13750000298023224 -0.004999999888241291 0.0
0.14000000059604645 -0.0024999999441206455 0.0
0.13750000298023224 -9.521029797898706e-15 0.0
0.14000000059604645 0.0024999999441206455 0.0
0.13750000298023224 0.004999999888241291 0.0
0.14000000059604645 0.007499999832361937 0.0
0.14499999582767487 -0.007499999832361937 0.0
0.14249999821186066 -0.004999999888241291 0.0
0.14499999582767487 -0.0024999999441206455 0.0
0.14249999821186066 -1.0790413701444734e-14 0.0
0.14499999582767487 0.0024999999441206455 0.0
0.14249999821186066 0.004999999888241291 0.0
0.14499999582767487 0.007499999832361937 0.0
0.15000000596046448 -0.007499999832361937 0.0
0.14749999344348907 -0.004999999888241291 0.0
0.15000000596046448 -0.0024999999441206455 0.0
0.14749999344348907 -1.2059906025208011e-14 0.0
0.15000000596046448 0.0024999999441206455 0.0
0.14749999344348907 0.004999999888241291 0.0
0.15000000596046448 0.007499999832361937 0.0
0.1550000011920929 -0.007499999832361937 0.0
0.1525000035762787 -0.004999999888241291 0.0
0.1550000011920929 -0.0024999999441206455 0.0
0.1525000035762787 -1.3329723609623034e-14 0.0
0.1550000011920929 0.0024999999441206455 0.0
0.1525000035762787 0.004999999888241291 0.0
0.1550000011920929 0.007499999832361937 0.0
0.1599999964237213 -0.007499999832361937 0.0
0.1574999988079071 -0.004999999888241291 0.0
0.1599999964237213 -0.0024999999441206455 0.0
0.1574999988079071 -1.4599107513169063e-14 0.0
0.1599999964237213 0.0024999999441206455 0.0
0.1574999988079071 0.004999999888241291 0.0
0.1599999964237213 0.007499999832361937 0.0
0.16500000655651093 -0.007499999832361937 0.0
0.16249999403953552 -0.004999999888241291 0.0
0.16500000655651093 -0.0024999999441206455 0.0
0.16249999403953552 -1.586859983693234e-14 0.0
0.16500000655651093 0.0024999999441206455 0.0
0.16249999403953552 0.004999999888241291 0.0
0.16500000655651093 0.007499999832361937 0.0
0.17000000178813934 -0.007499999832361937 0.0
0.16750000417232513 -0.004999999888241291 0.0
0.17000000178813934 -0.0024999999441206455 0.0
0.16750000417232513 -1.713787532026112e-14 0.0
0.17000000178813934 0.0024999999441206455 0.0
0.16750000417232513 0.004999999888241291 0.0
0.17000000178813934 0.007499999832361937 0.0
0.17499999701976776 -0.007499999832361937 0.0
0.17249999940395355 -0.004999999888241291 0.0
0.17499999701976776 -0.0024999999441206455 0.0
0.17249999940395355 -1.8406933963155403e-14 0.0
0.17499999701976776 0.0024999999441206455 0.0
0.17249999940395355 0.004999999888241291 0.0
0.17499999701976776 0.007499999832361937 0.0
0.18000000715255737 -0.007499999832361937 0.0
0.17749999463558197 -0.004999999888241291 0.0
0.18000000715255737 -0.0024999999441206455 0.0
0.17749999463558197 -1.96766973374618e-14 0.0
0.18000000715255737 0.0024999999441206455 0.0
0.17749999463558197 0.004999999888241291 0.0
0.18000000715255737 0.007499999832361937 0.0
0.1850000023841858 -0.007499999832361937 0.0
0.18250000476837158 -0.004999999888241291 0.0
0.1850000023841858 -0.0024999999441206455 0.0
0.18250000476837158 -2.0946433606713888e-14 0.0
0.1850000023841858 0.0024999999441206455 0.0
0.18250000476837158 0.004999999888241291 0.0
0.1850000023841858 0.007499999832361937 0.0
0.1899999976158142 -0.007499999832361937 0.0
0.1875 -0.004999999888241291 0.0
0.1899999976158142 -0.0024999999441206455 0.0
0.1875 -2.2215709090042668e-14 0.0
0.1899999976158142 0.0024999999441206455 0.0
0.1875 0.004999999888241291 0.0
0.1899999976158142 0.007499999832361937 0.0
0.19499999284744263 -0.007499999832361937 0.0
0.19249999523162842 -0.004999999888241291 0.0
0.19499999284744263 -0.0024999999441206455 0.0
0.19249999523162842 -2.348494391578998e-14 0.0
0.19499999284744263 0.0024999999441206455 0.0
0.19249999523162842 0.004999999888241291 0.0
0.19499999284744263 0.007499999832361937 0.0
0.19750000536441803 -0.004999999888241291 0.0
0.19750000536441803 -2.475449044966188e-14 0.0
0.19750000536441803 0.004999999888241291 0.0
CELLS 160 1440
8 0 4 176 171 43 293 294 175
8 171 176 177 170 294 295 296 174
8 170 177 178 169 296 297 298 173
8 169 178 128 3 298 299 168 172
8 4 5 179 176 44 300 301 293
8 176 179 180 177 301 302 303 295
8 177 180 181 178 303 304 305 297
8 178 181 127 128 305 306 167 299
8 5 6 182 179 45 307 308 300
8 179 182 183 180 308 309 310 302
8 180 183 184 181 310 311 312 304
8 181 184 126 127 312 313 166 306
8 6 7 185 182 46 314 315 307
8 182 185 186 183 315 316 317 309
8 183 186 187 184 317 318 319 311
8 184 187 125 126 319 320 165 313
8 7 8 188 185 47 321 322 314
8 185 188 189 186 322 323 324 316
8 186 189 190 187 324 325 326 318
8 187 190 124 125 326 327 164 320
8 8 9 191 188 48 328 329 321
8 188 191 192 189 329 330 331 323
8 189 192 193 190 331 332 333 325
8 190 193 123 124 333 334 163 327
8 9 10 194 191 49 335 336 328
8 191 194 195 192 336 337 338 330
8 192 195 196 193 338 339 340 332
8 193 196 122 123 340 341 162 334
8 10 11 197 194 50 342 343 335
8 194 197 198 195 343 344 345 337
8 195 198 199 196 345 346 347 339
8 196 199 121 122 347 348 161 341
8 11 12 200 197 51 349 350 342
8 197 200 201 198 350 351 352 344
8 198 201 202 199 352 353 354 346
8 199 202 120 121 354 355 160 348
8 12 13 203 200 52 356 357 349
8 200 203 204 201 357 358 359 351
8 201 204 205 202 359 360 361 353
8 202 205 119 120 361 362 159 355
8 13 14 206 203 53 363 364 356
8 203 206 207 204 364 365 366 358
8 204 207 208 205 366 367 368 360
8 205 208 118 119 368 369 158 362
8 14 15 209 206 54 370 371 363
8 206 209 210 207 371 372 373 365
8 207 210 211 208 373 374 375 367
8 208 211 117 118 375 376 157 369
8 15 16 212 209 55 377 378 370
8 209 212 213 210 378 379 380 372
8 210 213 214 211 380 381 382 374
8 211 214 116 117 382 383 156 376
8 16 17 215 212 56 384 385 377
8 212 215 216 213 385 386 387 379
8 213 216 217 214 387 388 389 381
8 214 217 115 116 389 390 155 383
8 17 18 218 215 57 391 392 384
8 215 218 219 216 392 393 394 386
8 216 219 220 217 394 395 396 388
8 217 220 114 115 396 397 154 390
8 18 19 221 218 58 398 399 391
8 218 221 222 219 399 400 401 393
8 219 222 223 220 401 402 403 395
8 220 223 113 114 403 404 153 397
8 19 20 224 221 59 405 406 398
8 221 224 225 222 406 407 408 400
8 222 225 226 223 408 409 410 402
8 223 226 112 113 410 411 152 404
8 20 21 227 224 60 412 413 405
8 224 227 228 225 413 414 415 407
8 225 228 229 226 415 416 417 409
8 226 229 111 112 417 418 151 411
8 21 22 230 227 61 419 420 412
8 227 230 231 228 420 421 422 414
8 228 231 232 229 422 423 424 416
8 229 232 110 111 424 425 150 418
8 22 23 233 230 62 426 427 419
8 230 233 234 231 427 428 429 421
8 231 234 235 232 429 430 431 423
8 232 235 109 110 431 432 149 425
8 23 24 236 233 63 433 434 426
8 233 236 237 234 434 435 436 428
8 234 237 238 235 436 437 438 430
8 235 238 108 109 438 439 148 432
8 24 25 239 236 64 440 441 433
8 236 239 240 237 441 442 443 435
8 237 240 241 238 443 444 445 437
8 238 241 107 108 445 446 147 439
8 25 26 242 239 65 447 448 440
8 239 242 243 240 448 449 450 442
8 240 243 244 241 450 451 452 444
8 241 244 106 107 452 453 146 446
8 26 27 245 242 66 454 455 447
8 242 245 246 243 455 456 457 449
8 243 246 247 244 457 458 459 451
8 244 247 105 106 459 460 145 453
8 27 28 248 245 67 461 462 454
8 245 248 249 246 462 463 464 456
8 246 249 250 247 464 465 466 458
8 247 250 104 105 466 467 144 460
8 28 29 251 248 68 468 469 461
8 248 251 252 249 469 470 471 463
8 249 252 253 250 471 472 473 465
8 250 253 103 104 473 474 143 467
8 29 30 254 251 69 475 476 468
8 251 254 255 252 476 477 478 470
8 252 255 256 253 478 479 480 472
8 253 256 102 103 480 481 142 474
8 30 31 257 254 70 482 483 475
8 254 257 258 255 483 484 485 477
8 255 258 259 256 485 486 487 479
8 256 259 101 102 487 488 141 481
8 31 32 260 257 71 489 490 482
8 257 260 261 258 490 491 492 484
8 258 261 262 259 492 493 494 486
8 259 262 100 101 494 495 140 488
8 32 33 263 260 72 496 497 489
8 260 263 264 261 497 498 499 491
8 261 264 265 262 499 500 501 493
8 262 265 99 100 501 502 139 495
8 33 34 266 263 73 503 504 496
8 263 266 267 264 504 505 506 498
8 264 267 268 265 506 507 508 500
8 265 268 98 99 508 509 138 502
8 34 35 269 266 74 510 511 503
8 266 269 270 267 511 512 513 505
8 267 270 271 268 513 514 515 507
8 268 271 97 98 515 516 137 509
8 35 36 272 269 75 517 518 510
8 269 272 273 270 518 519 520 512
8 270 273 274 271 520 521 522 514
8 271 274 96 97 522 523 136 516
8 36 37 275 272 76 524 525 517
8 272 275 276 273 525 526 527 519
8 273 276 277 274 527 528 529 521
8 274 277 95 96 529 530 135 523
8 37 38 278 275 77 531 532 524
8 275 278 279 276 532 533 534 526
8 276 279 280 277 534 535 536 528
8 277 280 94 95 536 537 134 530
8 38 39 281 278 78 538 539 531
8 278 281 282 279 539 540 541 533
8 279 282 283 280 541 542 543 535
8 280 283 93 94 543 544 133 537
8 39 40 284 281 79 545 546 538
8 281 284 285 282 546 547 548 540
8 282 285 286 283 548 549 550 542
8 283 286 92 93 550 551 132 544
8 40 41 287 284 80 552 553 545
8 284 287 288 285 553 554 555 547
8 285 288 289 286 555 556 557 549
8 286 289 91 92 557 558 131 551
8 41 42 290 287 81 559 560 552
8 287 290 291 288 560 561 562 554
8 288 291 292 289 562 563 564 556
8 289 292 90 91 564 565 130 558
8 42 1 83 290 82 86 566 559
8 290 83 84 291 566 87 567 561
8 291 84 85 292 567 88 568 563
8 292 85 2 90 568 89 129 565
CELL_TYPES 160
23
23
23
23
23
23
23
23
23
23
23
23
23
23
23
23
23
23
23
23
23
23
23
23
23
23
23
23
23
23
23
23
23
23
23
23
23
23
23
23
23
23
23
23
23
23
23
23
23
23
23
23
23
23
23
23
23
23
23
23
23
23
23
23
23
23
23
23
23
23
23
23
23
23
23
23
23
23
23
23
23
23
23
23
23
23
23
23
23
23
23
23
23
23
23
23
23
23
23
23
23
23
23
23
23
23
23
23
23
23
23
23
23
23
23
23
23
23
23
23
23
23
23
23
23
23
23
23
23
23
23
23
23
23
23
23
23
23
23
23
23
23
23
23
23
23
23
23
23
23
23
23
23
23
23
23
23
23
23
23
POINT_DATA 569
SCALARS stress11 float
LOOKUP_TABLE default
1.1396324038753171e+25
5.112157305579027e+25
5.1153244881652725e+25
1.1386072171507275e+25
-2.6150115470833526e+25
1.1789252735066585e+25
1.385839394981576e+25
-6.5408960774191e+23
-4.687881957168191e+24
5.175865797427488e+25
-6.2750256970667734e+25
-8.071437195855961e+24
9.999127603975608e+25
-3.818944917695006e+25
-4.898308402385716e+25
1.4508000202050223e+25
-1.165059571411578e+25
4.047779095560442e+24
-4.416066434318082e+24
7.029788360188804e+24
-2.430207935314291e+24
-8.118617362339899e+23
-2.866876751763497e+24
-3.4217601535891603e+24
1.4439952862068458e+25
-5.440891312928008e+24
9.958721325397768e+23
-2.70503262712495e+24
7.161097385436641e+24
-2.502071200467782e+24
-9.403347427765755e+24
-2.5944309076671855e+24
9.488516440731778e+24
4.6106603167998177e+24
-1.9220976409207044e+25
4.489232250556203e+25
-1.004921423397983e+25
-1.698579206273165e+25
1.3889305809300045e+25
5.272328828880874e+25
-6.386919321195646e+25
-6.61376786809122e+24
-2.2190260068943584e+25
2.87480786993957e+23
1.4018438439270938e+23
-1.4521184555836314e+22
4.271904602895124e+22
1.4185908833484023e+23
-1.2063714856927588e+23
2.7763186259321097e+22
3.388947017535963e+23
-2.4141725439506083e+23
-1.4918443892217755e+23
2.8061799762094208e+23
-3.2948399130539027e+22
-8.097663580007309e+22
1.931043929284467e+22
-4.169137486915447e+21
2.3552286631102398e+21
-9.250262525691407e+21
1.361147499551367e+22
6.719735982029516e+20
3.2439118634453307e+22
-2.065592637567778e+22
-9.21521768949652e+21
2.8454153663848676e+22
9.351789948907836e+21
-5.917487628132928e+21
-2.2529795234987394e+22
2.3180758456028514e+22
2.8945883628235162e+22
-1.0615089662966379e+22
-3.67473594660305e+22
1.1559396697940922e+23
-1.972977960057988e+22
-7.3057136934703895e+22
1.497281260845091e+23
9.769233472074356e+22
-1.692069975555266e+23
7.031215429089812e+22
2.1036115567280905e+23
1.8317546369318375e+23
5.8990425872075404e+23
5.248999572246463e+25
5.249531403046165e+25
5.249780731451541e+25
5.253290061768296e+25
5.257423942987555e+25
5.2572817240897675e+25
5.253154065427223e+25
-2.216074078194357e+25
-6.584114009835998e+24
-6.384124159951619e+25
5.275150841167305e+25
1.3917387425976516e+25
-1.695888686878637e+25
-1.0023717187586463e+25
4.491682626116245e+25
-1.919728141552313e+25
4.633431364963571e+24
9.510152005140184e+24
-2.573985171132467e+24
-9.383895455534784e+24
-2.483841565757457e+24
7.178261394339339e+24
-2.6889130672353356e+24
1.010901532903769e+24
-5.427047413943269e+24
1.4452814619676154e+25
-3.409922165040198e+24
-2.856298590535796e+24
-8.022329341201547e+23
-2.421759760011026e+24
7.037219504675834e+24
-4.409592124635921e+24
4.052989266845814e+24
-1.1646381790350305e+25
1.451116033512469e+25
-4.898091082043701e+25
-3.818961614506009e+25
9.999149938328715e+25
-8.072652344708638e+24
-6.275244282559259e+25
5.175533577786421e+25
-4.692250891143979e+24
-6.594875674884646e+23
1.3851935452573088e+25
1.1781574203387457e+25
-2.615884494248911e+25
6.242658881934346e+23
2.1761701721316314e+23
2.452601069661774e+23
1.0448290373181593e+23
-1.3602332071413161e+23
1.2975057287341701e+23
1.8061983286800517e+23
-4.232330631856768e+22
8.744228724886588e+21
1.42854802115852e+23
-1.0691796980971094e+22
1.4212119756810217e+22
5.2539796882465434e+22
4.544823314157055e+22
-1.385722613727945e+21
1.4013303739117906e+22
2.806126328770046e+22
4.594026666279084e+22
7.05241645113113e+21
-5.598313584382588e+21
4.627567459647372e+22
1.3286593175436535e+22
2.500190121900757e+22
9.20402172587639e+20
1.1316334313231239e+22
3.582879822331907e+21
2.5850854772139727e+22
-7.563673831410341e+22
-2.8817817013978288e+22
2.835357849752301e+23
-1.4750478723376244e+23
-2.4089364289482705e+23
3.381845615614066e+23
2.5845421395793095e+22
-1.2366878524140286e+23
1.3755030691232525e+23
3.7224318523589477e+22
-2.1249939396032635e+22
1.3209331282455031e+23
2.7820425548356488e+23
1.2345964473228383e+25
1.2417611092998155e+25
1.2348602275848476e+25
1.2152887636121298e+25
1.2339158918102592e+25
1.233901783484609e+25
1.215398344983659e+25
-2.835240972195763e+25
-2.830116393366669e+25
-2.835393464813318e+25
1.2687663649743673e+25
1.2664375656081375e+25
1.2686401312631463e+25
1.4537925508379462e+25
1.451003428094599e+25
1.4537000221102791e+25
-8.542740260024973e+23
-8.531211721339273e+23
-8.548293089688417e+23
-5.821797830026382e+24
-5.81336166507069e+24
-5.821982300110345e+24
5.614909438436488e+25
5.604703785501766e+25
5.614925129685407e+25
-6.753957522222287e+25
-6.741576983026295e+25
-6.753893877855246e+25
-9.185034669747353e+24
-9.169210286092118e+24
-9.184096311970956e+24
1.0721800405623493e+26
1.0702072851629872e+26
1.0721929032581861e+26
-4.148170403241014e+25
-4.140659098450004e+25
-4.147994041038948e+25
-5.182316115710179e+25
-5.172605868223744e+25
-5.1821003235018115e+25
1.6369569383385965e+25
1.6341218340304208e+25
1.6372039364156602e+25
-1.2711520885647559e+25
-1.2688484955749682e+25
-1.2708653083302363e+25
4.564672411600235e+24
4.55761044471383e+24
4.5678728630401054e+24
-4.885562044456147e+24
-4.87586769867633e+24
-4.881939203205723e+24
7.591142210264113e+24
7.57865816968573e+24
7.595099577215784e+24
-2.6939913814100185e+24
-2.687731915374248e+24
-2.6897198149716827e+24
-7.917829277583672e+23
-7.883834831721527e+23
-7.871160728154528e+23
-2.995814413966103e+24
-2.98810844136774e+24
-2.990803056858305e+24
-3.8331383202473193e+24
-3.8242316043983656e+24
-3.827744445124228e+24
1.5514932214163275e+25
1.5488970648593693e+25
1.5520659184449395e+25
-6.044924256043083e+24
-6.031627591763366e+24
-6.038875738035008e+24
1.1826907336091429e+24
1.1837344982122777e+24
1.1891145978920742e+24
-3.0177544363817697e+24
-3.009427552016449e+24
-3.010972036903514e+24
7.701987904872277e+24
7.691093743195316e+24
7.709091468513495e+24
-2.642146565238956e+24
-2.6337914349852685e+24
-2.6346983359764195e+24
-9.948261224786207e+24
-9.9259393297154e+24
-9.940436360531507e+24
-2.775809435341303e+24
-2.7667197325017395e+24
-2.7676442357132926e+24
1.0056588114028128e+25
1.0042054208075106e+25
1.0065082273709635e+25
5.055781943918412e+24
5.051604957979839e+24
5.064659718082576e+24
-2.1260417153809823e+25
-2.121774794662624e+25
-2.1251207731770945e+25
4.82579156048056e+25
4.817480993437638e+25
4.8267467854618675e+25
-1.1170977564595727e+25
-1.1145699006479164e+25
-1.1161050756209404e+25
-1.8164105128531915e+25
-1.8124276125200987e+25
-1.8153824565475488e+25
1.4196144515111047e+25
1.4174560125907145e+25
1.420686632585733e+25
5.689778534136032e+25
5.680044272424301e+25
5.690864562648917e+25
-6.884672186235666e+25
-6.871386787123468e+25
-6.883525119461087e+25
-5.836700416743783e+24
-5.813998287070281e+24
-5.824409066208058e+24
-2.4634329797719177e+25
-2.457783826823703e+25
-2.4620877592814774e+25
-2.8311544115978914e+25
-1.0353414316105363e+23
-2.834484562770801e+25
-1.0954712706977518e+23
-2.834484608084557e+25
-1.0549826192737822e+23
-2.831166952975717e+25
1.2665808734466023e+25
-1.0092232652047418e+23
1.267646284800886e+25
-1.087068127802229e+23
1.26762792458774e+25
-1.0214895201776298e+23
1.2665304190400326e+25
1.4567357987172982e+25
1.726744007532267e+23
1.4591994854891543e+25
1.8629758811432594e+23
1.4591771525152915e+25
1.7183684719761352e+23
1.456668492730311e+25
-8.458022490087252e+23
8.375753386647432e+22
-8.428690721141955e+23
9.13254022821519e+22
-8.431445922238911e+23
8.336244549887632e+22
-8.466635936616659e+23
-5.719330641136336e+24
-5.169985067508076e+22
-5.701777433012221e+24
-5.286679751189798e+22
-5.702123219850279e+24
-5.161133349271778e+22
-5.720403525050377e+24
5.6037477906064225e+25
3.208906091248624e+23
5.607839687839742e+25
3.460988441988217e+23
5.607796711780822e+25
3.21465107807737e+23
5.6036161218635436e+25
-6.748407665762251e+25
-6.846290564529423e+22
-6.755424492289209e+25
-7.538206615289877e+22
-6.755468961132764e+25
-6.739485946975007e+22
-6.748545791131088e+25
-9.1176630662475e+24
-4.989812668506323e+23
-9.111871487183034e+24
-5.3505551198076385e+23
-9.112429849359746e+24
-4.9742475522734806e+23
-9.119363089014316e+24
1.0717187794505868e+26
6.214632341869367e+23
1.0729298009733601e+26
6.723125446477646e+23
1.072923493423101e+26
6.235018285198787e+23
1.0716998560265008e+26
-4.139441567298889e+25
4.147372474371765e+23
-4.142532541418112e+25
4.495607787641331e+23
-4.142599173735892e+25
4.172721879731887e+23
-4.1396472831111976e+25
-5.1889861560968895e+25
-5.9675424504779005e+23
-5.197302784450804e+25
-6.433541549845578e+23
-5.197373459508497e+25
-5.937279800491008e+23
-5.189202886170073e+25
1.6265853000933166e+25
-2.1275033268658292e+23
1.6256370387123817e+25
-2.3402213423255475e+23
1.6255554704198495e+25
-2.0923147592914517e+23
1.6263382537854607e+25
-1.2670294895636117e+25
2.768828880322024e+22
-1.2678701110914058e+25
2.8747544728856217e+22
-1.26795728543661e+25
3.1690872566246793e+22
-1.267292951903794e+25
4.534786140477536e+24
-5.388676881678791e+22
4.531889115264486e+24
-5.666910729608642e+22
4.5309332805776787e+24
-4.940446590339881e+22
4.5318978079547444e+24
-4.860636184532951e+24
-3.4219089803334763e+21
-4.862693588961597e+24
-2.1003698390878556e+21
-4.863683770763399e+24
1.5328472100372019e+21
-4.863627617481079e+24
7.582796216075664e+24
1.397205912467499e+22
7.588497925032693e+24
1.7569065767877132e+22
7.587429501559682e+24
1.939103863029227e+22
7.579578390217992e+24
-2.678162087690043e+24
2.842536220200843e+22
-2.679862711675143e+24
3.32331056225442e+22
-2.6810177198008595e+24
3.430808442326462e+22
-2.681640225731202e+24
-7.983402688048392e+23
-2.5189147769220314e+22
-8.034016891050034e+23
-2.439453119487866e+22
-8.046041593334335e+23
-1.8842441761523201e+22
-8.019481175238711e+23
-3.00168089126838e+24
-2.5674168766687814e+22
-3.00927548500266e+24
-2.52123846826828e+22
-3.010549487960144e+24
-1.8864961619363713e+22
-3.005512893948699e+24
-3.8065238206183526e+24
-4.775170621749565e+22
-3.807233737012484e+24
-4.785716140088852e+22
-3.8085567482512017e+24
-4.047974816741593e+22
-3.810499117056093e+24
1.5506937179729924e+25
6.965238403017433e+22
1.5521979144514312e+25
7.923338206329524e+22
1.5520580487165634e+25
7.738209835723469e+22
1.5502741879812065e+25
-6.010901902852494e+24
5.498158118268485e+22
-6.012829305060582e+24
6.3856026257950436e+22
-6.014305016135804e+24
6.3167790443736825e+22
-6.015333388348046e+24
1.1702051356394974e+24
-3.6087761045917436e+22
1.1660095703505649e+24
-3.4355776747134616e+22
1.1644823070210925e+24
-2.7446810084037626e+22
1.1656237379255017e+24
-2.996096183433792e+24
-1.601661560815782e+22
-2.9977138436809366e+24
-1.2780133898296448e+22
-2.999299834140358e+24
-6.920537740751206e+21
-3.0008631388940275e+24
7.701044151783325e+24
2.447202907599445e+22
7.707146017567891e+24
3.145926563837107e+22
7.70547885715538e+24
3.4022100605056447e+22
7.696050203458204e+24
-2.639684240829046e+24
2.825550022082182e+22
-2.6462147639242294e+24
3.5242993553957057e+22
-2.647948054866705e+24
3.825970837035887e+22
-2.644879040969474e+24
-9.955707427340968e+24
-8.380363149276425e+22
-9.973690893743898e+24
-8.568507208641834e+22
-9.975477357300647e+24
-7.334135242250874e+22
-9.961060033636111e+24
-2.769666631431341e+24
-8.494534471586637e+22
-2.775300527317108e+24
-8.648952212762273e+22
-2.7771536645664444e+24
-7.402684642112204e+22
-2.7752257596284874e+24
1.0074213676681766e+25
3.990492566987147e+22
1.0086754902693531e+25
4.938041088621934e+22
1.0084826584579738e+25
5.127711977351473e+22
1.0068435475698084e+25
5.040763821249412e+24
9.099346595716843e+22
5.040440427951544e+24
1.0449286497957783e+23
5.038460385109274e+24
1.0282292654277131e+23
5.034831593777064e+24
-2.1163426989543356e+25
-1.1502817936968274e+23
-2.116933239213756e+25
-1.1535122807568046e+23
-2.1171388009617825e+25
-1.0273641669669648e+23
-2.116958191022331e+25
4.8224152168900945e+25
1.6113028397191602e+23
4.827227883000338e+25
1.827165409686396e+23
4.827015186384661e+25
1.73878644762073e+23
4.821779707007459e+25
-1.1109256398707874e+25
2.2807105594006912e+23
-1.1112848121006126e+25
2.5429416474571506e+23
-1.1115025342100243e+25
2.4125407629123494e+23
-1.1115777521827669e+25
-1.8165826167717717e+25
-1.9883723273903587e+23
-1.8191073601773137e+25
-2.0527184291701233e+23
-1.8193312604900608e+25
-1.8517393645935336e+23
-1.8172544010996789e+25
1.4286604628100259e+25
-3.9256808313823045e+22
1.4321445122286305e+25
-3.1853302238134063e+22
1.4319183496614442e+25
-2.513954383141061e+22
1.4279838583259057e+25
5.682981754610105e+25
4.4459817333478204e+23
5.687889507889821e+25
4.889551059914356e+23
5.687642321533971e+25
4.5917879776749545e+23
5.682249717254404e+25
-6.8765357799213074e+25
-8.014185916429253e+22
-6.883823183089653e+25
-7.786925548502075e+22
-6.884083829614559e+25
-6.497245640384408e+22
-6.877284981545005e+25
-6.00211119953276e+24
-4.760326876628206e+23
-6.057196960957235e+24
-5.067810052662067e+23
-6.059870344339799e+24
-4.599643528259606e+23
-6.009664771615817e+24
-2.4535731907663297e+25
-1.9723916914949764e+23
-2.455256613197117e+25
-2.0300488024971985e+23
-2.4553338685892276e+25
-1.8037761741246643e+23
-2.4540843670137284e+25
1.5768317320863887e+23
1.9244105923301786e+23
1.7014526657312533e+23
SCALARS stress22 float
LOOKUP_TABLE default
4.892572112654895e+24
2.190945635146054e+25
2.1921380484459046e+25
4.869846111167126e+24
-1.1198712562257168e+25
5.060954903241749e+24
5.947644822121492e+24
-2.7205877313252548e+23
-2.0008971405383703e+24
2.2190428814525657e+25
-2.6884859730307745e+25
-3.4511444210282986e+24
4.286142698992867e+25
-1.6358909372362877e+25
-2.098481721027266e+25
6.225589136015178e+24
-4.985276129186103e+24
1.7425557263076567e+24
-1.884886257676169e+24
3.02042759659024e+24
-1.0339195365251661e+24
-3.403856158892976e+23
-1.221195777225033e+24
-1.4590754024925358e+24
6.195853522322195e+24
-2.324568942999599e+24
4.339809011899738e+23
-1.1522062115555011e+24
3.0760774194340064e+24
-1.0653508950855919e+24
-4.023084146706529e+24
-1.1050708856236664e+24
4.073243595093837e+24
1.9826798262757445e+24
-8.230935602219375e+24
1.9246188614095636e+25
-4.300245340316722e+24
-7.273176653905709e+24
5.959019980043442e+24
2.260221010769088e+25
-2.736603015693112e+25
-2.827904143221867e+24
-9.503101598738283e+24
1.3174769255267738e+23
6.838296815352803e+22
1.857412336783756e+21
2.619077513220048e+22
6.848404743928986e+22
-4.4208436752912484e+22
1.918612504333794e+22
1.5234207993443604e+23
-9.653747963900557e+22
-5.722607743540701e+22
1.2683712197505316e+23
-7.702658340635453e+21
-2.845707249817965e+22
1.4337594800771487e+22
4.105224588035512e+21
6.710478165557538e+21
1.547107445953295e+21
1.115321005397582e+22
5.408806418836999e+21
1.8827627262003852e+22
-4.1368358936974144e+21
5.701088225368306e+20
1.650291454176951e+22
8.113662330077071e+21
1.368784912847546e+21
-5.945904211782183e+21
1.3439824531698806e+22
1.5717662551974303e+22
-1.4545588381547705e+21
-1.2851561368151847e+22
5.224706251445276e+22
-5.923881002100545e+21
-2.903918987572506e+22
6.631002548836275e+22
4.3866855265613795e+22
-7.066826251276628e+22
3.188872562598614e+22
9.179852911003527e+22
8.014132222799395e+22
2.533166007565592e+23
2.24948381352865e+25
2.249744581328874e+25
2.2498853425020035e+25
2.2513550981713214e+25
2.253160897972926e+25
2.253121043710278e+25
2.251385385128414e+25
-9.504483087679362e+24
-2.8284462732955167e+24
-2.736718835061082e+25
2.26011347206937e+25
5.957840799869409e+24
-7.274843534435941e+24
-4.302776116447324e+24
1.9243052180237567e+25
-8.234580121992388e+24
1.9784637184793527e+24
4.068359349495416e+24
-1.1106642219180849e+24
-4.0293129232774427e+24
-1.0722720310766048e+24
3.0684891448272474e+24
-1.1604016573295835e+24
4.2511337202304285e+23
-2.3341443048510411e+24
6.18570508444039e+24
-1.4698660832304372e+24
-1.2327200536636958e+24
-3.525090927269269e+23
-1.0467006556156194e+24
3.0070238937098945e+24
-1.8988746059115576e+24
1.7278511156793508e+24
-5.000543536577015e+24
6.209779796413196e+24
-2.1001191091040053e+25
-1.6376391317141426e+25
4.284400434408793e+25
-3.469301369521937e+24
-2.6903557514413225e+25
2.2171125205567785e+25
-2.0207532983497314e+24
-2.9246730134162158e+23
5.926645442175283e+24
5.039276617726963e+24
-1.1220943679214113e+25
2.6679132758207112e+23
9.154343427964733e+22
1.0330679368946649e+23
4.280769826784933e+22
-6.05175059406482e+22
5.325398529540992e+22
7.486311070609931e+22
-2.1025772279690376e+22
6.929165795883787e+20
5.791425420068796e+22
-8.132778573455312e+21
2.2954158802159786e+21
1.8471079661908257e+22
1.5171149325615384e+22
-5.143067279512278e+21
1.207487767640879e+21
6.981289512992269e+21
1.439543908357999e+22
-2.5030930902823794e+21
-8.173418879574411e+21
1.382456773811141e+22
-5.601614731172968e+20
4.2205920836300015e+21
-6.345550896231631e+21
-2.1374508020852987e+21
-5.687048335340515e+21
3.6194740074026075e+21
-4.008118088415077e+22
-2.022786646414756e+22
1.1341302827942053e+23
-7.1546519288725685e+22
-1.1173135918057941e+23
1.3623343426216065e+23
2.1709388892959807e+21
-6.207595211059233e+22
4.969347882032411e+22
6.509688771574248e+21
-1.8744945491162215e+22
4.6768604953504465e+22
1.0917196924619482e+23
5.290247915925034e+24
5.32081996111351e+24
5.294712559464521e+24
5.208380969926153e+24
5.28875278756847e+24
5.287593586243195e+24
5.2088174953173e+24
-1.2148240971577226e+25
-1.2130164792345008e+25
-1.2152733269089425e+25
5.440414285527555e+24
5.426495523546896e+24
5.435940687425252e+24
6.233388634203138e+24
6.217478210708201e+24
6.229050163286657e+24
-3.632656815357058e+23
-3.667283825902566e+23
-3.674343161044393e+23
-2.49221086320262e+24
-2.492559740912337e+24
-2.496209666175325e+24
2.4066742438427437e+25
2.4019028770946093e+25
2.406290790164102e+25
-2.89426562463445e+25
-2.889357866190621e+25
-2.8946302836858913e+25
-3.933563557768546e+24
-3.930743363464758e+24
-3.9370819589827516e+24
4.5953447077037315e+25
4.586496143039769e+25
4.595008412941815e+25
-1.7775026938031094e+25
-1.7746732201880166e+25
-1.7778192382647657e+25
-2.220712223972621e+25
-2.2169319030429635e+25
-2.2210120908475902e+25
7.018306988735216e+24
7.002391302738175e+24
7.015463682360716e+24
-5.445046716145526e+24
-5.438898455490219e+24
-5.447730494112832e+24
1.9590191339994834e+24
1.9523076539124462e+24
1.9564636409605923e+24
-2.0911038945827276e+24
-2.0906063773217256e+24
-2.0935010393854182e+24
3.256044525996655e+24
3.2470938177556507e+24
3.253766459646452e+24
-1.1518813661259109e+24
-1.1527523234350225e+24
-1.1540488768177327e+24
-3.366511724630294e+23
-3.3870613949633916e+23
-3.386792111795523e+23
-1.2812494534623215e+24
-1.2814254099552903e+24
-1.2831771795797704e+24
-1.6401037303109818e+24
-1.6397363025259104e+24
-1.6418995229909697e+24
6.651906401689027e+24
6.637378856896562e+24
6.650224091134398e+24
-2.588038234434457e+24
-2.585700330963206e+24
-2.589622236635762e+24
5.0952586424552164e+23
5.066361777377731e+23
5.0805906723426695e+23
-1.2906717216347376e+24
-1.2904001460325694e+24
-1.2920362186009028e+24
3.3034901089323545e+24
3.2955789507647046e+24
3.3022200189345636e+24
-1.1297114694788198e+24
-1.129326295361551e+24
-1.1308790471018522e+24
-4.260894715849384e+24
-4.254478672555788e+24
-4.2619481065070957e+24
-1.1870038667253508e+24
-1.1862173565047729e+24
-1.1879524848950142e+24
4.312572264649486e+24
4.3032919345009673e+24
4.3117139370825566e+24
2.1693718366748471e+24
2.1645889561388018e+24
2.1686363050067193e+24
-9.108999903569693e+24
-9.093644795059677e+24
-9.109631356927502e+24
2.068456958814001e+25
2.064607253825675e+25
2.068404317659378e+25
-4.784957821641859e+24
-4.776954380344028e+24
-4.7853745794087976e+24
-7.781992848115045e+24
-7.767695109980812e+24
-7.782310285198429e+24
6.086614173361931e+24
6.074643727001634e+24
6.086434287062453e+24
2.438735011267868e+25
2.434295397693042e+25
2.4387153998028463e+25
-2.9503199312380794e+25
-2.944889161207686e+25
-2.9503169187854357e+25
-2.4990189369611775e+24
-2.491770751411071e+24
-2.498457893446226e+24
-1.0555839561281051e+25
-1.05333946141913e+25
-1.0553477865000963e+25
-1.213337485836597e+25
-4.157231599702761e+22
-1.2147724626358171e+25
-4.804129049336199e+22
-1.2147858644225452e+25
-4.627120485030256e+22
-1.213371591677347e+25
5.428528218472799e+24
-4.0568170490418245e+22
5.432877058338574e+24
-4.7682213868928105e+22
5.432582878987892e+24
-4.4715555774631676e+22
5.42766707745545e+24
6.243593708642894e+24
7.66060753310964e+22
6.253847877306763e+24
7.874100428908599e+22
6.253480113427382e+24
7.279623156024508e+22
6.242431638076263e+24
-3.619346178894758e+23
3.840661682587493e+22
-3.6105965871804106e+23
3.803601655622883e+22
-3.6151939661186026e+23
3.4983737886499743e+22
-3.634065946979817e+23
-2.450467091867053e+24
-1.97494863007633e+22
-2.443403301247202e+24
-2.3765809169784663e+22
-2.443971984510608e+24
-2.2749011445547193e+22
-2.452266203077821e+24
2.401686423154917e+25
1.3982484017733346e+23
2.403385701962996e+25
1.4720857787503848e+23
2.4033174234617358e+25
1.3725529900857993e+23
2.4014728451746184e+25
-2.8920824686781864e+25
-2.7163521179360392e+22
-2.89515197435552e+25
-3.3451093896233176e+22
-2.8952293642436578e+25
-2.931002744866389e+22
-2.892323572702687e+25
-3.906524056963149e+24
-2.117669233825551e+23
-3.9047323090779685e+24
-2.304401097141591e+23
-3.9056327798825404e+24
-2.1349907206737577e+23
-3.909309611050231e+24
4.593198715263948e+25
2.6831586818597758e+23
4.598310796569609e+25
2.870226730467372e+23
4.598209921057769e+25
2.670032543341586e+23
4.592887915306777e+25
-1.7739145577378423e+25
1.795303930569763e+23
-1.7753266748305605e+25
1.9151036299812645e+23
-1.7754368193646254e+25
1.78641916307234e+23
-1.7742565549780109e+25
-2.2237094941450774e+25
-2.5406877635059464e+23
-2.2273669762378725e+25
-2.7681660251317534e+23
-2.2274873644993424e+25
-2.5453825659903866e+23
-2.2240804300799726e+25
6.972599505473225e+24
-8.959980416449483e+22
6.967516179386752e+24
-1.0132220717045602e+23
6.966190830389484e+24
-8.96370408785628e+22
6.968523962706875e+24
-5.428491542421941e+24
1.333179343081033e+22
-5.433195564427997e+24
1.1330091854647316e+22
-5.434628430367379e+24
1.3716716309609882e+22
-5.432877155865943e+24
1.9452259425739757e+24
-2.1761316226932106e+22
1.9428032017542295e+24
-2.5263052463305946e+22
1.9412559484812817e+24
-2.0973980856659623e+22
1.940495230177761e+24
-2.0812667916570537e+24
-2.375085309569857e+20
-2.0834076423033115e+24
-1.8424202596962177e+21
-2.0850483784494646e+24
9.42003546981797e+20
-2.08627700270777e+24
3.251755354918351e+24
7.097817908547169e+21
3.2528619924926305e+24
6.613256775787851e+21
3.2511105691460876e+24
8.659149997270955e+21
3.2464136288188524e+24
-1.1456868396586835e+24
1.3172778879241939e+22
-1.1478286052521456e+24
1.3362376378897635e+22
-1.1496955692659964e+24
1.5115330871351604e+22
-1.1513718328837623e+24
-3.399314704210697e+23
-9.918928049420515e+21
-3.435935568671028e+23
-1.130257447484303e+22
-3.455588078872058e+23
-7.59828333060401e+21
-3.45907415115362e+23
-1.2841058307804063e+24
-1.023939809426317e+22
-1.288929810385448e+24
-1.1623890591076497e+22
-1.2910071985760165e+24
-7.549939414870421e+21
-1.2904169731157747e+24
-1.628914501024293e+24
-1.979997945162826e+22
-1.6308686112196003e+24
-2.1292449024991587e+22
-1.6330451825180818e+24
-1.6743527780419417e+22
-1.6355198883855044e+24
6.648394273749675e+24
3.039717781687872e+22
6.653114358295779e+24
3.319830672842378e+22
6.650830129341279e+24
3.382499055585594e+22
6.641461938891651e+24
-2.57341319975604e+24
2.400631513357973e+22
-2.5760402981500957e+24
2.6651394883056533e+22
-2.5784372910722373e+24
2.78009893612147e+22
-2.5806799952096156e+24
5.04319938328936e+23
-1.513784963676289e+22
5.006392428304903e+23
-1.5418993320971452e+22
4.981417211302391e+23
-1.098382753470302e+22
4.96754521005224e+23
-1.2811180917796172e+24
-6.640450313320705e+21
-1.2837712518239984e+24
-6.141066939891769e+21
-1.28637331148822e+24
-2.1311207261602799e+21
-1.2889998936773804e+24
3.3034877772369493e+24
1.0598789345358092e+22
3.3040678371397075e+24
1.285616735185816e+22
3.3013528791029006e+24
1.5463116375468404e+22
3.295275278178249e+24
-1.1281337090037613e+24
1.2109100069006927e+22
-1.1330471724070567e+24
1.4520602350505123e+22
-1.1358697156921707e+24
1.7330213419924712e+22
-1.1366667723305824e+24
-4.263454942021323e+24
-3.6036573869105274e+22
-4.273356296176986e+24
-3.7275804931258482e+22
-4.2762803067990676e+24
-3.045840668742719e+22
-4.2722910581869614e+24
-1.1836130182222595e+24
-3.6626019206468276e+22
-1.1883008885844684e+24
-3.7572869036797025e+22
-1.1913318375152204e+24
-3.068803840553764e+22
-1.1927713512254787e+24
4.321030148315974e+24
1.6770651448495894e+22
4.32405260679175e+24
2.070032898367112e+22
4.3209091316627286e+24
2.306455560668957e+22
4.311540146020998e+24
2.1639592203561143e+24
3.8548522342852835e+22
2.1613912775390647e+24
4.436573845822601e+22
2.158147655546546e+24
4.520098569833202e+22
2.1541673378021097e+24
-9.066284320907691e+24
-4.9861846090460065e+22
-9.07130926237017e+24
-4.980934885063724e+22
-9.074664699795775e+24
-4.284279341140847e+22
-9.076406892267755e+24
2.0671397978585047e+25
6.836777960260319e+22
2.0689433070797155e+25
7.79711119230043e+22
2.0685970208936185e+25
7.57494837692035e+22
2.0660956030498015e+25
-4.757078061173671e+24
9.68419122467055e+22
-4.7612853933776195e+24
1.085916991923919e+23
-4.7648507344311754e+24
1.0457034144630451e+23
-4.767826277047868e+24
-7.781237183692618e+24
-8.613077527387021e+22
-7.794778307610079e+24
-8.822672827030427e+22
-7.79844775595762e+24
-7.803803148894496e+22
-7.792307839048207e+24
6.127080938289656e+24
-1.7852999872282557e+22
6.139186383727811e+24
-1.385567259854278e+22
6.135426387451531e+24
-9.403476439771514e+21
6.115745663469201e+24
2.4360015889269324e+25
1.8933681898473477e+23
2.4378136796983156e+25
2.0933498843202614e+23
2.437418361997568e+25
1.981400635195696e+23
2.434817784278284e+25
-2.9466363040873413e+25
-3.5633017734803283e+22
-2.950055931654201e+25
-3.349649076232488e+22
-2.9504736219734458e+25
-2.6366277274249902e+22
-2.947857424049014e+25
-2.567726982964529e+24
-2.0549842117264102e+23
-2.594294448583203e+24
-2.1728151527900997e+23
-2.598705930195937e+24
-1.9549864017021753e+23
-2.580157818395653e+24
-1.0511006718622909e+25
-8.625387421792763e+22
-1.0521463264840697e+25
-8.70575442751997e+22
-1.0523918302941406e+25
-7.5508177098937515e+22
-1.0521763644740964e+25
6.6351103189896825e+22
8.23876243522174e+22
7.4018202094823685e+22
SCALARS stress12 float
LOOKUP_TABLE default
5.357098784591545e+24
-4.7044782516147814e+25
-4.704434042333547e+25
5.357395845821968e+24
-5.895178709742951e+23
-6.61361574589921e+23
-3.861156578654928e+23
-5.054650158003119e+23
-2.978463116446547e+23
-5.308683914286028e+23
-3.581322948751903e+23
-2.7256083357352902e+23
-5.5987147473088e+23
-5.25352090101818e+23
3.2171002914735576e+23
-2.732870613948641e+24
5.085525228768661e+23
2.5765078823676132e+23
-5.546683160638234e+23
-1.553209306487736e+23
-3.807640593529862e+23
-5.0805834865098954e+23
-9.07311654743901e+22
-3.7651746285797384e+23
-8.160252322584613e+23
1.891913452152839e+23
-4.144942722176255e+23
-6.673775903798628e+23
1.778067592387466e+23
-3.919106313567821e+23
4.23554697404003e+23
-6.496752230392848e+23
-5.099495988903808e+23
-1.8396233263224127e+23
-3.869886266554351e+23
1.1902683193874944e+22
9.461227726349364e+23
-5.142762412786103e+24
3.660307367927151e+23
4.7138689978646077e+24
-2.0129301003743744e+24
-1.0129441773395634e+23
2.1033171693577017e+25
-3.218935723110792e+23
-3.4098080593324224e+23
-3.5534745864732714e+23
-3.5670622115220734e+23
-3.559543728918029e+23
-3.540223698412048e+23
-3.51038880698046e+23
-3.491241471550904e+23
-3.450802776043121e+23
-3.3962316884723256e+23
-3.412831662343745e+23
-3.2878453444483155e+23
-3.2266996757273014e+23
-3.260786541648432e+23
-3.130278229569834e+23
-3.063925968734587e+23
-3.0105757542874455e+23
-2.9208036611112876e+23
-2.853692323987686e+23
-2.781119066271662e+23
-2.664044896056667e+23
-2.5938267289541243e+23
-2.5140968764769868e+23
-2.3776117070598474e+23
-2.2987227167541475e+23
-2.1890549109504606e+23
-2.0875909714805352e+23
-1.9805509076664703e+23
-1.8395426737782918e+23
-1.7493754984358158e+23
-1.628289773319016e+23
-1.5024546645377367e+23
-1.5011583334623104e+23
-1.242702867590304e+23
-1.0639499387129015e+23
-1.308139086120883e+23
-1.1585549164705357e+23
-9.243084125193212e+22
-2.9670871059957166e+23
-5.788912547374986e+23
-4.834439245888813e+25
-4.8348952488948855e+25
-4.834421781427403e+25
-4.837042873701846e+25
-4.8416932971930795e+25
-4.841683579005987e+25
-4.8370155446070835e+25
2.1033581126076176e+25
-1.0083951352287467e+23
-2.012451865822227e+24
4.7135409248483875e+24
3.6545413800983936e+23
-5.143021520552604e+24
9.458663425567344e+23
1.1089598707232227e+22
-3.8737678719092866e+23
-1.84359831799892e+23
-5.103122167505518e+23
-6.499068583728201e+23
4.234311761151354e+23
-3.920882787436591e+23
1.7761576604213752e+23
-6.675495532505042e+23
-4.1464657016754964e+23
1.890240081571348e+23
-8.16195720811347e+23
-3.7666833769582475e+23
-9.079093168614651e+22
-5.0814915953734104e+23
-3.808328600648711e+23
-1.553987403895521e+23
-5.5471914514639724e+23
2.5767973420048085e+23
5.086022253945519e+23
-2.732751600634289e+24
3.219890665482942e+23
-5.252044791286031e+23
-5.599236362877499e+23
-2.7237648527449752e+23
-3.578922146025648e+23
-5.3070689156045015e+23
-2.976003059033952e+23
-5.051919333454503e+23
-3.858424966868013e+23
-6.610769865012392e+23
-5.8921906896110555e+23
-5.787010243002807e+23
-2.9623626781559033e+23
-9.19833192719564e+22
-1.158318920387427e+23
-1.311815720144249e+23
-1.067540079802073e+23
-1.2473069062839117e+23
-1.5064271781543507e+23
-1.5069200077181884e+23
-1.632078527854744e+23
-1.7530402798988113e+23
-1.842510434090578e+23
-1.982629513008813e+23
-2.0894280700114995e+23
-2.1907289117635985e+23
-2.3005236406992934e+23
-2.3790890487262277e+23
-2.515498728451099e+23
-2.5954249608536727e+23
-2.6656018437932326e+23
-2.7822477686096185e+23
-2.854634260584168e+23
-2.9215777505813487e+23
-3.0112710357582156e+23
-3.064400327061596e+23
-3.130450552657424e+23
-3.26049822901249e+23
-3.226050120306818e+23
-3.286867674600276e+23
-3.41155955447808e+23
-3.3950473830216654e+23
-3.449307846708143e+23
-3.488946833694926e+23
-3.5077853987817474e+23
-3.537316719871688e+23
-3.5567985506483245e+23
-3.564173168632169e+23
-3.550635536285777e+23
-3.40683691384408e+23
-3.215922546145981e+23
5.968852358038803e+24
5.958448091994642e+24
5.968840527803088e+24
5.878802028881971e+24
5.874852950430859e+24
5.874851786878967e+24
5.878796539523251e+24
-2.2553834686663355e+23
-2.3905148205923864e+23
-2.2553650200028237e+23
-2.0523467192271286e+23
-2.1876887141822513e+23
-2.0523385388841544e+23
9.125375852945584e+22
7.710830063072593e+22
9.126037191040878e+22
-4.363811355718484e+22
-5.752777514415203e+22
-4.3635061668357624e+22
1.810192263132522e+23
1.6679399644160443e+23
1.8102143919250173e+23
-7.620488749211563e+22
-8.988615492474577e+22
-7.622269699180573e+22
1.0634400003178657e+23
9.245735665746086e+22
1.0635899822627334e+23
1.9467435478719333e+23
1.807578806218042e+23
1.946910642087151e+23
-1.1800330740909057e+23
-1.3123560732789379e+23
-1.1806706671796431e+23
-9.638382456490293e+22
-1.0947372561338696e+23
-9.634350367113795e+22
8.468793638988117e+23
8.323394312331411e+23
8.469176889553762e+23
-2.477916004507233e+24
-2.486245594609965e+24
-2.477894231740932e+24
1.0191889166009962e+24
1.004711601558501e+24
1.0191828133793682e+24
7.056758314961317e+23
6.919440574583767e+23
7.056992042050269e+23
-1.702103766539725e+23
-1.820617842077571e+23
-1.7020165641345717e+23
2.6143922250218942e+23
2.4909514548203283e+23
2.614536654565842e+23
7.067506976041688e+21
-4.530507450265637e+21
7.08448195145719e+21
-1.4188177470665584e+23
-1.5290986346465093e+23
-1.4186905509368083e+23
2.9784802110401862e+23
2.8634334525570495e+23
2.9787352898108668e+23
-1.7783356562838695e+22
-2.8370621345143613e+22
-1.7774909400364138e+22
-5.09403997779288e+23
-5.1874188041359504e+23
-5.093758648721706e+23
5.647993821711124e+23
5.538677374622408e+23
5.648075253895318e+23
-1.0319878061475547e+23
-1.1252355580695735e+23
-1.0317959655222013e+23
-3.9018195764798823e+23
-3.985771450885462e+23
-3.901646276180975e+23
5.087771933906915e+23
4.991701982217339e+23
5.087995667123653e+23
-1.3880628119903783e+23
-1.4684897403725297e+23
-1.3879726449425596e+23
7.403589025382703e+23
7.312065838548074e+23
7.40390958687018e+23
-4.337349661144469e+23
-4.4029325623569064e+23
-4.3371040882174575e+23
-2.8927610576019042e+23
-2.9560131362048972e+23
-2.8925005119577914e+23
4.259170654326878e+22
3.6137149769079216e+22
4.2620322749063e+22
-2.0031302290678894e+23
-2.0584963683381734e+23
-2.0028921064874166e+23
1.95364358278404e+23
1.8948282025489634e+23
1.9528412691063023e+23
1.2629901410744938e+24
1.2559491935330994e+24
1.2631286003220571e+24
-5.337841554594442e+24
-5.332425601963462e+24
-5.337815668718591e+24
5.4434678464705855e+23
5.393482543989176e+23
5.4430562613682505e+23
5.184898781206025e+24
5.171795293102283e+24
5.184982638659639e+24
-2.0653241243510515e+24
-2.0649835451746207e+24
-2.0653281526656337e+24
-2.3822926319109603e+23
-2.4249304476399897e+23
-2.3823715465064004e+23
2.3428547599503684e+25
2.3380536551910838e+25
2.3428456826556158e+25
-3.351305146245047e+23
1.5127253154870807e+23
-3.300682922691339e+23
1.4216274690796648e+23
-3.3006942599215184e+23
1.5127726891357848e+23
-3.3513200968281206e+23
-3.256225433876988e+23
1.1253740467816003e+23
-3.231439517465147e+23
9.949697301792853e+22
-3.2314478721791546e+23
1.1254271246923343e+23
-3.256255448409656e+23
-2.836207550164649e+22
1.1523083488926351e+23
-2.5536846656469662e+22
1.0197990712616997e+23
-2.5536028126567373e+22
1.1523318012911438e+23
-2.8354867209483305e+22
-1.6188184417949822e+23
1.1577211789575365e+23
-1.589853256124209e+23
1.0261981352566217e+23
-1.589876454133179e+23
1.1577657239464487e+23
-1.6188377119213264e+23
6.2767280398991045e+22
1.157382275395352e+23
6.576622742535424e+22
1.0268924862397352e+23
6.5762544709082255e+22
1.157474947698883e+23
6.275506216328394e+22
-1.9295821682628984e+23
1.1479309454501778e+23
-1.901475609341348e+23
1.0180517165327199e+23
-1.901630832201848e+23
1.1480602977663822e+23
-1.9300648594707064e+23
-9.664813419668613e+21
1.1342022066039633e+23
-6.689763387776097e+21
1.0050140755071136e+23
-6.692221902201075e+21
1.1343732229245607e+23
-9.665096172810411e+21
7.961574844561023e+22
1.1413905838526562e+23
8.26155313509666e+22
1.0146575738411985e+23
8.261281830282961e+22
1.1416085133239823e+23
7.960844231390306e+22
-2.3181301612116627e+23
1.1151463304975698e+23
-2.2924497210893188e+23
9.885497206402396e+22
-2.2928588920329065e+23
1.1154100198638685e+23
-2.3194429042817475e+23
-2.072720459967252e+23
1.082864700890027e+23
-2.0436096446455535e+23
9.56416429828046e+22
-2.043471352316783e+23
1.0829905185314692e+23
-2.0721393324622267e+23
7.316636510668716e+23
1.1330330593097408e+23
7.342755130163668e+23
1.0120390763537873e+23
7.343026782917306e+23
1.1329188900491021e+23
7.317486592248589e+23
-2.5844230040207564e+24
9.645811900775005e+22
-2.584298951833318e+24
8.334673999046637e+22
-2.584280725811307e+24
9.643624148037623e+22
-2.5843741683732765e+24
9.091012947325936e+23
9.565390722493008e+22
9.122101243043232e+23
8.287528960159409e+22
9.122116615397592e+23
9.564703275695249e+22
9.090938334584213e+23
6.024955262955249e+23
1.1401294848947523e+23
6.063718859403049e+23
1.0306993448903416e+23
6.063841319216897e+23
1.140151373368022e+23
6.0252250749159694e+23
-2.7156079846300404e+23
1.0405149774612737e+23
-2.6886563930145966e+23
9.283813920378152e+22
-2.6886237554332167e+23
1.0405674076852701e+23
-2.715631872096023e+23
1.606245249359918e+23
9.916739505971923e+22
1.6330552423434864e+23
8.793618825618756e+22
1.633111077155073e+23
9.917919996796012e+22
1.6062533729840694e+23
-9.079944578410583e+22
9.802230306684414e+22
-8.838828071869212e+22
8.71108377947179e+22
-8.838323570230782e+22
9.80347693695028e+22
-9.079719111671428e+22
-2.368227959736587e+23
9.291483757299854e+22
-2.3458566768788916e+23
8.209010999676606e+22
-2.345837334998934e+23
9.29274512630606e+22
-2.3682614948116848e+23
2.050750227548857e+23
9.218078780263379e+22
2.0762750542851303e+23
8.178965107126484e+22
2.0763613166987234e+23
9.219402150840227e+22
2.0509138697531738e+23
-1.0788769569555118e+23
9.023552872855197e+22
-1.0586487592100226e+23
8.019755144237289e+22
-1.0586541959431782e+23
9.02491492966191e+22
-1.0790384928634566e+23
-5.951710875291862e+23
8.213282359690877e+22
-5.9352258555624745e+23
7.2032772009747695e+22
-5.935153723899063e+23
8.21522297537234e+22
-5.95164408358096e+23
4.8061221872355636e+23
8.277727320419098e+22
4.83087907755748e+23
7.330790627142745e+22
4.830842142059278e+23
8.279947066483831e+22
4.805876435270951e+23
-1.828308580317087e+23
8.219421413412366e+22
-1.8096308605506765e+23
7.327870374449501e+22
-1.8096151670061213e+23
8.221598218025566e+22
-1.828394237501756e+23
-4.659802427148117e+23
7.263021133558142e+22
-4.6447776431770665e+23
6.363463085010356e+22
-4.6447686956502835e+23
7.265295023901318e+22
-4.6599261858230396e+23
4.35217396372455e+23
7.311064533673589e+22
4.3742433998034146e+23
6.4794762730439535e+22
4.3742784956987476e+23
7.313379156436911e+22
4.3521321884946774e+23
-2.054073550531335e+23
7.092356457752528e+22
-2.0333718433163452e+23
6.3173046734338415e+22
-2.0333817112882064e+23
7.094449511462093e+22
-2.054273669102107e+23
6.746410463919249e+23
6.859676991013015e+22
6.769748311792736e+23
6.137846204766306e+22
6.769870536841266e+23
6.861431908926687e+22
6.746603209801302e+23
-4.9382020982099836e+23
6.287661088516984e+22
-4.9270497356409045e+23
5.589960076668666e+22
-4.926981424674571e+23
6.289283553143941e+22
-4.938200908686235e+23
-3.466172915415325e+23
5.229920431964421e+22
-3.457993434174054e+23
4.523901436383347e+22
-3.457976289283341e+23
5.23240073936871e+22
-3.466324277463065e+23
-1.0307449025282605e+22
5.123391927095995e+22
-9.190170915461615e+21
4.484022307386893e+22
-9.194930570778496e+21
5.12708786723126e+22
-1.0334934826677002e+22
-2.4762072724448185e+23
4.733928325512669e+22
-2.46570441330865e+23
4.1486088244284524e+22
-2.465784282787247e+23
4.739282349335466e+22
-2.4767532818899884e+23
1.5501943986909617e+23
4.357411128402979e+22
1.5682080856023164e+23
3.8326608292476325e+22
1.5676163588808767e+23
4.363373360399656e+22
1.5481333265612406e+23
1.2161457056051134e+24
4.900326699703463e+22
1.2165014734540145e+24
4.475224517598341e+22
1.2165569843465078e+24
4.903802445144441e+22
1.2163164205108158e+24
-5.369916008195034e+24
9.123338035984062e+21
-5.375386910914049e+24
2.4894463146855917e+21
-5.37537636349244e+24
9.133989811072941e+21
-5.369899309311051e+24
5.162652309052501e+23
-8.57812447337967e+20
5.1775942636091864e+23
-7.20566876657396e+21
5.177370572277957e+23
-8.449012760341203e+20
5.161699189962816e+23
5.161477741187355e+24
6.106244246071649e+22
5.16856790425382e+24
6.046193168353823e+22
5.168610857663565e+24
6.10707515235943e+22
5.161591160877429e+24
-2.0779942444786818e+24
3.893959601508544e+22
-2.0774058502489786e+24
3.749360444974406e+22
-2.0773973520902077e+24
3.892933004631308e+22
-2.0779671567507563e+24
-2.0983674717180644e+23
-3.744568683751564e+21
-1.9900258727176325e+23
-7.217583814339855e+21
-1.98993156260967e+23
-3.75879137248803e+21
-2.098333862720824e+23
2.333702395596324e+25
1.6123449111386796e+23
2.335022921552063e+25
1.673775691666867e+23
2.335019705296044e+25
1.6122146095770535e+23
2.3336919626653804e+25
-1.4345503752101526e+23
-1.7044777674219358e+23
-1.4347089130001132e+23
SCALARS strain11 float
LOOKUP_TABLE default
8462551309252.297
37975942983937.0
38000113798494.66
8462085206317.922
-19429107070259.242
8754446440879.969
10291557437742.5
-489118653160.3125
-3485622962923.5
38446108201493.44
-46617635647227.72
-5999061539345.9375
74276108302891.88
-28372430356669.0
-36390524264441.31
10774300477779.875
-8657784047079.5
3003882204238.75
-3283514915026.6562
5219140741153.3125
-1808260607211.3125
-606043758716.9844
-2132591374596.3242
-2544762412000.6094
10723974277894.906
-4044628774249.4375
736991113676.0938
-2012219179062.5625
5316928439317.195
-1861398284780.6094
-6988043108847.961
-1929954396595.1406
7045985139403.1875
3422455863186.5
-14281024201169.75
33345999710663.062
-7467690638092.0625
-12620533138390.219
10315250878716.156
39163327766448.74
-47448210446804.31
-4915646810867.875
-16486925897804.0
210225873005.25
100898316050.5625
-13938637658.0625
28659930155.1875
102382990514.8125
-92538535577.75
17782012996.5625
248980674334.625
-182039890266.375
-113440086010.53125
205896404296.4375
-26979051603.625
-62590513245.25
11980854122.625
-5394981073.625
-473841378.625
-9021115678.28125
8036678397.625
-1497882658.3828125
22176871153.464844
-17183533050.296875
-8608124304.90625
19457144312.75
5345814434.453125
-5918747927.390625
-18183252951.28125
15852956420.992188
20210881501.390625
-9092478234.0
-28428008140.125
84814176159.9375
-15643946820.875
-55156880125.6875
110391401590.21875
71792005061.8125
-126417475479.5625
51547100580.6875
155627126082.0
135434578752.125
438019630834.59375
38992909181555.0
38996728503348.49
38998450158735.44
39024653883061.28
39055229057843.24
39054088563793.61
39023296833770.84
-16459527087017.25
-4888449891442.0
-47422324141889.375
39189425635189.305
10341264168544.906
-12595399821073.031
-7443501111842.625
33369519676484.125
-14258039311564.5
3444822007463.4375
7067578174346.469
-1909167533094.0312
-6967912820809.93
-1842110080585.336
5335507056698.844
-1994354207666.2188
754126150231.3438
-4028296773905.1562
10739636839456.031
-2529780992005.4688
-2118470902220.5078
-592553602616.8125
-1795588024165.0
5231130120782.0625
-3272167881362.8438
3014358171270.6875
-8647996035678.3125
10783342451839.062
-36382163585506.69
-28365749255830.438
74283103822399.19
-5993086267767.5625
-46612332228547.22
38450615099560.625
-3481854439752.0625
-486071602726.5
10293869201316.312
8755914684060.1875
-19428379790349.656
464032949304.65625
162329484415.125
182896868769.0
78384066743.75
-100179684855.65625
97303919211.3125
135167071208.0
-30314789357.0625
7687003285.6875
107411435873.375
-6557736836.125
12037758157.375
40607489412.296875
35441113420.96875
744795609.625
12281185104.125
22813057136.4375
36191434507.703125
7393932045.71875
-1906663238.09375
36719361475.92969
12309284421.773438
21105701324.9375
3312345670.421875
11131405615.15625
5478391489.75
22112578168.4375
-53197746107.875
-18335165891.125
213786839356.5625
-106324449921.0
-175637806377.4375
254616658070.875
22672660960.1875
-88328953793.8125
105790309844.4375
31335358568.8125
-12026970262.875
101965184404.375
210588751102.53906
9171630807178.062
9224906320074.352
9172290418138.172
9027859466617.898
9166021011466.344
9166344600197.984
9028686077999.383
-21062878223464.883
-21023295681908.797
-21062514307277.562
9424011727034.406
9408249520903.57
9424609123477.781
10798490989145.75
10779315118570.61
10799340324689.781
-635715747683.7812
-633316228307.9688
-634595210151.1875
-4325873506393.9375
-4318060880161.2344
-4324481963070.125
41709643474356.34
41635381316489.38
41711284533872.625
-50173378266387.625
-50079854250745.18
-50171375831586.75
-6824290656536.094
-6810992142045.305
-6822066055886.5
79646541467437.66
79501526240618.52
79649022448148.1
-30816092688756.094
-30758766119972.492
-30813254943792.5
-38498296417841.625
-38424678306701.03
-38495162858192.75
12159167859017.75
12139575453106.336
12162524664399.0
-9443915848331.0
-9425350584625.68
-9440258982822.312
3389834035792.5625
3386025704270.133
3393743456979.4375
-3630330891632.5312
-3621703251023.3203
-3626099612995.9375
5638082105667.156
5630211975671.512
5642571592133.0
-2002298338761.3984
-1996262619957.711
-1997565942830.7031
-589228486826.0625
-585333638079.8672
-584190669886.0586
-2226504072734.3047
-2219422447332.09
-2221191614035.6836
-2848515581522.6367
-2840553462963.4727
-2842906402732.328
11524344762115.61
11506385291795.988
11530212145565.734
-4491546212094.969
-4480358030580.684
-4485424003960.781
877533509870.7578
879610303660.793
883951152104.6562
-2242794470176.25
-2235322961964.4297
-2236090379584.0938
5720448009568.512
5713619118959.789
5727407330375.961
-1963765898396.9492
-1956312720749.0938
-1956532585930.9375
-7391168343759.371
-7373358038827.781
-7383637021101.824
-2063055167961.461
-2055089647879.7031
-2055254793957.0547
7469592075445.281
7459985553190.637
7477656464694.75
3754706716405.0
3752771095233.1855
3763071964144.0625
-15794469166714.531
-15761629269987.293
-15785843089692.906
35847721481020.625
35787107826985.91
35856617550984.25
-8299455956238.156
-8279573670955.951
-8290260516843.4375
-13494357712379.266
-13463689672406.904
-13484879582826.0
10544710889002.266
10529738025582.35
10554539618327.297
42265916189753.72
42194650895038.35
42275877413411.016
-51144268805095.75
-51044552638442.23
-51133844933257.97
-4336780111121.0
-4318947914089.1943
-4325813406037.4375
-18300462709449.125
-18257807863518.07
-18289142232450.812
-21031488114978.203
-78002864818.03906
-21056196360855.656
-80951784707.77344
-21056144304473.36
-77957646258.05469
-21031470148070.312
9408758038347.062
-76017748491.125
9416758830129.156
-80327120497.48438
9416705612378.562
-75516462495.75
9408638446774.062
10821294891109.062
127257341425.15625
10839714109957.75
138821815295.1172
10839655064502.406
127980989660.90625
10821134504463.875
-628525562561.8125
61240771632.3125
-626197208530.7812
68272064347.91406
-626269093620.375
62216171910.875
-628735174985.4375
-4248908798421.5625
-39344568465.90625
-4235689952465.0
-38840123213.390625
-4235783033240.4375
-38094197714.875
-4249183628417.0625
41627528025054.625
237478772484.4375
41658139181447.766
257538611183.2578
41658011162073.92
239003694596.59375
41627164851846.44
-50131388940096.28
-51707473481.5
-50183270506463.445
-55551773608.421875
-50183374852982.24
-49898395468.21875
-50131705883761.91
-6773529436954.281
-371483870383.59375
-6768957219538.75
-397028846182.4219
-6769114065759.266
-369391896042.46875
-6773987876504.5625
79612935214606.38
460888358249.125
79703199226023.97
499865575920.1719
79703018617356.5
463255379474.875
79612416464233.78
-30750650525345.906
307394124821.40625
-30773277144045.344
334411181357.0
-30773449404046.867
310047338583.9219
-30751190693638.0
-38547307875957.125
-443959520682.46875
-38608720919324.625
-477493720173.10156
-38608896771939.84
-441022592917.1875
-38547832408938.19
12082612364674.75
-158658876106.1875
12075965984349.75
-173444491253.625
12075740413363.281
-155442190769.5625
12081953766574.25
-9412856621956.25
19996936001.375
-9418671481775.094
21741530069.351562
-9418906285607.625
23489174028.0625
-9413543955465.125
3368017472000.4375
-40550048223.0625
3366326206935.9375
-41716285876.0
3366059396639.7812
-36778199305.34375
3367233960093.875
-3611484700339.5938
-3021304094.0
-3612521709615.867
-1192792076.296875
-3612782903318.789
1027509115.609375
-3612253084722.4688
5632160103082.8125
9946415181.4375
5636917132807.383
13408671420.820312
5636628003853.105
14268771923.03125
5631314941364.828
-1990309594447.0
20729699975.09375
-1991021877100.1133
25030799743.625
-1991344881432.8555
25325377627.328125
-1991257583344.8281
-593916464501.375
-19053743720.859375
-597094255645.2891
-17791016019.597656
-597421617450.6016
-14183287919.476562
-594868866946.375
-2230728540188.8516
-19370127217.941406
-2235758025632.1562
-18409952743.714844
-2236106651081.199
-14222640546.25
-2231754374910.4883
-2828660504948.1875
-35732054073.05859
-2828543844672.0
-35245979040.0
-2828898699552.0
-30306602036.33203
-2829701907020.4062
11518438784154.531
51528775933.25
11530285651547.352
59155042604.41016
11529904802731.984
57225967112.40625
11517324268388.844
-4466289454768.0
40670777072.828125
-4467019265950.414
47714945041.02734
-4467426811665.75
46640296829.109375
-4467488123306.297
868201905851.8906
-26936102354.015625
865819375041.2852
-25250349970.648438
865403665544.0
-20692903208.0
866983276744.0
-2226811327349.7656
-11985343956.023438
-2227248753274.285
-9234908270.707031
-2227677277376.668
-5466552756.703125
-2228075535100.3438
5719589958373.234
18136018827.328125
5724916143618.734
23614026905.789062
5724458600033.082
24929498462.390625
5718248520758.961
-1962140348485.8047
20989951868.453125
-1966166940256.914
26408084639.023438
-1966643780997.1562
28057547272.222656
-1963540133872.0
-7396946104512.0
-62207034128.0
-7409450494592.492
-63435852789.79297
-7409934864621.828
-54861857110.796875
-7398370984907.223
-2058787358507.5938
-63016109007.37891
-2062085842769.496
-64052036362.11719
-2062591136134.7773
-55396088491.12891
-2060274191369.8906
7482332742947.531
29772926098.046875
7492566694539.469
36863049116.177734
7492037435390.781
37666997079.109375
7480775542175.281
3743150668846.3125
67770129016.0
3743858026888.0
77785870896.0
3743321368849.047
75940476550.96875
3741571046113.9688
-15722866135655.75
-85229506236.8125
-15726281137521.203
-85543973445.8125
-15726844090928.531
-76781447517.4375
-15724521133881.0
35822133094360.0
119965099632.75
35858895170236.44
135863317771.93945
35858310864115.5
128687287115.90625
35820421335804.25
-8254161727903.625
169776294183.21875
-8255788415169.141
189056913976.0
-8256381923664.0
178758742552.0
-8255903449134.4375
-13496219714066.188
-147350868872.59375
-13513912861913.672
-152388937289.5547
-13514520012404.578
-138073439050.5625
-13498014663787.0
10611247596869.562
-28761022001.40625
10638232845613.531
-23582785524.521484
10637640023386.875
-19209616369.6875
10609512604821.938
42214728296523.42
330742974714.84375
42252317048130.8
363308494682.6748
42251613351721.99
340578069568.0
42212683630936.0
-51084590987816.0
-59032177595.5625
-51137575747229.06
-57797344700.84668
-51138315221017.5
-48842062742.484375
-51086648847201.5
-4460507279783.3125
-353045373034.625
-4500274269970.219
-376430934720.375
-4500986601417.1875
-342323104252.75
-4462532978981.6875
-18228223863081.312
-145848629009.6875
-18239462730182.156
-150781999794.95068
-18239211733940.906
-134695436867.625
-18228678356454.688
117614759312.0
142990205968.0
125965096656.0
SCALARS strain22 float
LOOKUP_TABLE default
7674220264.5234375
191422478.15234375
-1308923826.9570312
-9008011653.273438
7717160449.6328125
7661335820.6953125
7582334635.96875
7521530949.8046875
7457785985.3984375
7413850372.0625
7378342390.1484375
7319003837.3671875
7296244352.265625
7279972489.027344
7219196948.449219
7165759522.355469
7131088597.425781
7091710488.027344
7019427912.121094
6971442613.2265625
6914385607.416016
6875179657.6875
6793857110.3203125
6728024429.245605
6644831748.297821
6589655795.309082
6532446150.580078
6455066997.826172
6402415318.0703125
6338782393.441406
6298884378.7109375
6213330447.527344
6129975767.5625
6080989242.109375
6030208749.175781
6024578305.59375
5970099458.542969
5868973432.613281
5878765662.636719
5928158748.605469
5896990889.160156
5977110853.8671875
6378987835.2421875
7772916049.359375
7556716077.7734375
7353518931.0078125
7173172805.2734375
6995426550.9609375
6818823591.9921875
6631780806.4765625
6462288699.3359375
6303415867.625
6106049594.703125
5980764066.847656
5840483643.183594
5684986347.71875
5516127215.8359375
5361729040.996094
5187978677.871094
5015469493.59375
4840959578.203125
4659914639.926758
4481894355.955078
4291296957.824463
4112696515.9992676
3920530057.5126953
3736222169.2285156
3553428770.498047
3375916296.625
3189748150.982422
3014154411.859375
2816246487.609375
2636555329.6796875
2463170701.1171875
2303904022.9414062
2066432017.4375
1948273554.0976562
1818765561.4179688
1682443300.8164062
1597024804.609375
1495838481.1289062
1490151242.125
455310038.1640625
-796446220.671875
-495813121.3828125
-188665092.3515625
-500066472.5625
-190306951.53515625
3194177.80859375
305397297.0078125
-6390364890.828125
-6081361146.34375
-6056019095.7265625
-6053383230.796875
-6145863519.894531
-6140512928.355469
-6274966206.628906
-6384964319.714844
-6528126446.015625
-6636394390.1875
-6752287916.683594
-6850014027.347656
-6955195483.357422
-7069184760.0390625
-7196679949.078125
-7289325090.427734
-7398418062.397461
-7522704331.994629
-7606589432.95752
-7708507161.686035
-7818538050.645508
-7912412484.3515625
-8011305521.3203125
-8123850854.849609
-8235007960.847656
-8321268462.589844
-8405050636.1953125
-8453836597.886719
-8527332698.65625
-8569443471.519531
-8642219263.75
-8729549479.570312
-8784256221.09375
-8857206488.289062
-8907556727.445312
-8945041511.804688
-9007560917.453125
-9071180127.828125
-9109725558.359375
-683376243.28125
-1566056747.3515625
-1642138863.6015625
-1792779545.4414062
-2021631282.25
-2141539998.265625
-2316093655.90625
-2626932849.1210938
-2779683474.1132812
-3011430686.78125
-3231026087.4453125
-3453807197.109375
-3681790376.4296875
-3919066683.5996094
-4139710034.078125
-4366361236.902344
-4590912778.099609
-4816856673.005859
-5028242646.09082
-5254555426.172363
-5467145606.301758
-5691530097.5703125
-5910005047.683594
-6133416541.783203
-6358463209.654297
-6572555264.171875
-6788062829.3671875
-6975582239.441406
-7168492573.972656
-7373147661.5
-7581112119.96875
-7727105111.8984375
-7919371131.4609375
-8104011892.3671875
-8258280279.890625
-8423547272.5
-8593665341.796875
-8770275572.296875
-8956893586.734375
-9153137637.890625
-800631908.921875
-922456535.78125
2233231239.703125
92215.796875
492723639.4609375
-506917796.2578125
-29956931.8125
2540524343.75
-995440427.71875
-952285646.90625
2588668062.7578125
-996696968.75
-990714348.6875
2592585501.4375
-1008796112.3359375
-994634889.3984375
2595167414.40625
-1005622054.5625
-981821780.9375
2589177604.828125
-1018200867.609375
-977640716.0390625
2590105530.9765625
-1028580486.5625
-963138499.765625
2618655922.6328125
-1006236065.6171875
-948187148.953125
2620290523.2109375
-983985779.6640625
-946590694.0
2611935563.265625
-970493439.0078125
-949207788.1875
2591610405.5820312
-957696642.59375
-975969068.2578125
2550841542.6054688
-917194952.0234375
-1018730739.1992188
2527359578.0507812
-899050295.4882812
-1023481806.671875
2500698744.7421875
-888419917.7226562
-1060079645.3242188
2485404187.5
-868329240.875
-1088512704.8789062
2464639283.8984375
-863118310.0546875
-1129540815.7226562
2454815123.7070312
-821281556.9804688
-1161548720.6972656
2444583324.3476562
-789135589.5976562
-1193724599.625
2442826687.1777344
-753017088.6035156
-1222854655.5546875
2430728493.142578
-734997835.0839844
-1278088955.2285156
2429816020.980957
-709646849.3764648
-1308257982.479004
2411053220.0071716
-683857337.416687
-1353220780.3434753
2405925305.088379
-652456290.0810547
-1394598883.8657227
2419120745.852539
-617558155.4091797
-1420914553.328125
2412973505.123047
-587385937.9355469
-1473852395.1210938
2400540505.857422
-549617745.7421875
-1525413139.7578125
2399834344.6191406
-508435398.2207031
-1567506036.9882812
2407525854.017578
-459119010.0058594
-1602552661.9863281
2392233037.1601562
-437266340.578125
-1655499206.796875
2371060966.2460938
-405618424.04296875
-1722607924.5703125
2373243187.1640625
-350165949.515625
-1758263063.5625
2372928351.125
-294753012.51171875
-1792803861.59375
2370465793.421875
-249999286.9453125
-1834224357.2929688
2369913184.0976562
-206010435.92578125
-1880344316.1171875
2387542806.4960938
-134707848.8984375
-1910315438.0
2322544023.8398438
-152685493.7109375
-2023190583.6640625
2353248566.9179688
-85608857.6796875
-2061945636.9648438
2311194723.8359375
-81618477.14453125
-2132822195.09375
2206129702.9921875
-51916071.28515625
-2077139198.1054688
1574947088.28125
-32203144.953125
-1522299338.046875
130948805.1640625
2547506714.7421875
60491326.9765625
-994189476.828125
-61022484.6484375
-962469315.6015625
-129491394.765625
295739140.4296875
2442677566.1484375
98139291.1484375
-995163530.4140625
-97979120.796875
-853076441.5
-293489590.609375
400195263.7734375
2368507537.84375
123409937.3046875
-1001746416.4296875
-124245417.5
-771797981.0234375
-394688424.21875
502482699.703125
2284583014.7890625
154519118.3203125
-1004131698.140625
-156228124.3984375
-676156591.796875
-501194247.75
614016457.0546875
2190911541.8203125
196238952.6953125
-1008831459.2734375
-186404940.09375
-573178700.9375
-604623435.5703125
729598782.7109375
2093266089.953125
233231391.7890625
-1018754812.671875
-219637084.6328125
-469089117.65625
-702916223.3671875
842154504.75
1981704054.75
273641807.421875
-1041502161.2421875
-254812984.0078125
-388128474.828125
-812983947.015625
952331303.6015625
1894812177.8984375
323551753.3828125
-1028848109.5625
-278203835.9296875
-288487262.8046875
-920849379.6640625
1073808221.890625
1796763449.7890625
364658124.9453125
-1011264111.046875
-307692312.4140625
-192754094.34375
-1013508151.0625
1199804716.4140625
1625076828.1015625
408529763.33984375
-1054267257.0625
-338982438.35546875
-172002750.5234375
-1108467940.1171875
1290289085.59375
1531582223.8398438
441524820.6796875
-995019595.0507812
-378044008.37109375
-75875502.38671875
-1240429020.6796875
1382622177.765625
1436810912.6445312
454895182.171875
-934564463.6757812
-433143084.80859375
30569956.26171875
-1362763130.7382812
1487762940.7265625
1333501113.53125
485565506.27734375
-901155283.6210938
-478255237.4375
122771674.5078125
-1475120221.5234375
1588821510.8671875
1213043920.4179688
513820485.70703125
-888431215.2617188
-521042832.29296875
181412382.96484375
-1589470080.7148438
1695483326.5976562
1118408900.1328125
549218605.5820312
-857459738.046875
-557688462.703125
259414688.78125
-1697120127.0078125
1806582351.0664062
1009916276.6054688
589938460.296875
-833863402.5195312
-587259191.6757812
317328839.12890625
-1799294467.2050781
1908247049.3828125
901335172.6152344
622527349.5683594
-801150335.25
-626030659.2382812
374796313.796875
-1908670347.0703125
2015105593.2050781
797543087.0097656
656701340.5039062
-771477310.7871094
-662926557.9199219
434114438.5449219
-2015950308.9609375
2119427485.140625
695073494.9980469
691361575.2216797
-744909817.1162109
-702449151.8466797
486891021.6279297
-2129283153.2636719
2232266884.323242
605183928.4892578
730838173.546875
-711828513.1914062
-734070709.7695312
550495621.0849609
-2228344366.7783203
2333254839.3302307
496997833.81884766
762300352.0736389
-690563576.3188477
-771230940.7787781
601719922.2016602
-2338814973.006897
2445902007.567383
402929486.953125
806934012.6123047
-651082577.4492188
-799097774.1108398
663460075.0058594
-2438833598.6240234
2551117122.328125
298785707.0283203
837988544.2753906
-632531358.4023438
-839152773.0234375
708972453.8476562
-2546644382.8085938
2659999265.8535156
203669414.45996094
876604992.1582031
-604117242.4697266
-872690228.015625
759689816.4248047
-2653216487.0214844
2766483155.0996094
100806623.3203125
914655766.5957031
-570002749.5917969
-906040157.7734375
802814944.1445312
-2759281135.34375
2875035100.46875
-361013.900390625
950714024.0234375
-531019888.0800781
-941352807.0195312
849208038.6660156
-2863739371.2734375
2981933877.484375
-109868507.96875
985800971.9882812
-503801362.2734375
-978768332.9003906
885978357.5625
-2971540683.4492188
3081848777.9140625
-200992773.21484375
1013193317.0078125
-460398494.5078125
-1021753967.0351562
944356113.3671875
-3084132778.09375
3193853075.4609375
-301627714.1171875
1053266554.109375
-421069377.640625
-1055227908.8164062
990671836.125
-3188547650.3984375
3305013676.2929688
-408297433.69921875
1094369022.359375
-379397027.84375
-1085254015.921875
1031953593.0507812
-3291877753.7421875
3417426004.625
-513296520.6484375
1147890261.625
-339527113.4453125
-1102771731.8710938
1080263550.0742188
-3392993446.875
3552528031.4140625
-626112260.5234375
1194111081.390625
-305737748.1328125
-1127704154.3046875
1119346704.9804688
-3471588566.5039062
3669569225.984375
-821576891.0507812
1239805576.8085938
-356271506.8984375
-1153828008.5976562
1069925591.3671875
-3569816377.5664062
3746370791.1875
-832475015.4609375
1270381567.1132812
-230302988.73046875
-1195233607.5273438
1203227768.3515625
-3708063908.6679688
3868063040.46875
-936080954.84375
1295361025.40625
-185875968.63671875
-1243370980.6289062
1247253873.109375
-3809182148.0898438
3985077806.4492188
-1096772332.1914062
1336246662.96875
-197661488.27734375
-1299272347.1523438
1227709333.4257812
-3933829231.3828125
4099152023.4140625
-1170747803.0976562
1404399432.4179688
-112805855.7421875
-1382851815.8632812
1345934614.1757812
-4089946806.1171875
4191620369.8007812
-1350799819.9375
1498924868.9453125
-81573982.87109375
-1472927797.6640625
1482351115.828125
-4174545440.2382812
3920321228.6875
-1567747004.8476562
968941453.1367188
-50457547.2890625
-962654918.8867188
1634828016.2890625
-3876596703.3867188
-1116932977.4257812
-79281362.59765625
999907420.1953125
SCALARS strain12 float
LOOKUP_TABLE default
13928455961369.625
-122316426276098.19
-122315279912358.94
13929228228844.75
-1532746462041.875
-1719539719273.6875
-1003901004489.5625
-1314208840869.0
-774400626285.625
-1380257635553.0625
-931143877461.375
-708657935222.8125
-1455665639572.625
-1365915247518.625
836446175566.25
-7105462577695.6875
1322236483672.5
669891976429.5
-1442137509652.9375
-403834215193.59375
-989986599218.8438
-1320951448334.125
-235900961179.65625
-978945311336.25
-2121665299636.5
491897592837.90625
-1077685019590.5
-1735181579540.6875
462297525454.0
-1018967563624.8125
1101242204152.0
-1689155441660.4375
-1325868766544.9375
-478302005744.875
-1006170385574.0938
30946975503.09375
2459918908059.7188
-13371181300646.281
951680062569.5
12256058116998.914
-5233617752708.9375
-263365509569.45312
54686241987435.59
-836923224624.9375
-886550023270.1875
-923903372812.0625
-927436082700.0625
-925481320897.875
-920458085668.5625
-912700962787.625
-907722747220.5
-897208581700.3125
-883020148496.125
-887336185467.0625
-854839656203.4375
-838941832594.9375
-847804415334.3125
-813872242554.5625
-796620684050.6875
-782749631853.8125
-759408859182.0312
-741959916561.7188
-723090884770.4062
-692651555849.2188
-674394865227.8125
-653665102967.9062
-618179028860.8438
-597667859785.4062
-569154217949.5
-542773614750.0625
-514943200841.9375
-478281061840.875
-454837582971.59375
-423355322498.96875
-390638192961.75
-390301134442.28125
-323102796381.53125
-276626925835.46875
-340116233075.375
-301224279623.5625
-240320194625.95312
-771442651774.6641
-1505117573736.375
-125695411391243.47
-125707269105962.9
-125694952303753.17
-125763101301545.0
-125884016357596.22
-125883768230673.75
-125762392281923.16
54687306141175.66
-262182761703.51562
-5232374613464.4375
12255205863433.555
950180619431.3125
-13371854392800.344
2459252244680.625
28832954410.3125
-1007179578899.6875
-479335505194.1875
-1326811634849.7188
-1689757800592.5625
1100920992590.75
-1019429335251.6875
461801012513.21875
-1735628631233.25
-1078081031250.7188
491462412368.21875
-2122108767374.8438
-979337778909.0938
-236056399436.625
-1321187417336.8125
-990165135491.5625
-404036739923.28125
-1442269500413.7188
669967233258.2188
1322365615928.8125
-7105153432280.094
837171586264.8125
-1365531348246.8125
-1455801328252.5
-708178977537.4375
-930519589528.375
-1379838112872.3125
-773760775467.8125
-1313498842529.375
-1003190042841.9375
-1718800169960.4375
-1531969229942.4375
-1504622914767.0625
-770214269072.4141
-239156632986.15625
-301162917389.90625
-341071990786.8672
-277560404736.0
-324299776004.90625
-391671053005.71875
-391799166649.8125
-424340392302.3125
-455790447263.125
-479052683653.5
-515483642188.125
-543251254830.1875
-569589437835.125
-598136100629.0
-618563112786.9375
-654029624363.875
-674810437611.6875
-693056460650.0625
-723384393486.0
-742204805546.4688
-759610106540.1875
-782930403326.0938
-796744019861.7188
-813917048102.0
-847729506811.75
-838772976149.625
-854585518602.625
-887005373298.0625
-882712307889.8125
-896819975481.4375
-907126128697.0625
-912024225896.125
-919702252826.0625
-924767545105.4375
-926684981514.5625
-923165135656.875
-885777507238.125
-836139811164.9375
15519015414078.25
15491964004490.75
15518984660589.75
15284884086440.875
15274616846401.75
15274613830289.75
15284869589999.125
-586400059183.75
-621533871381.875
-586395039975.25
-533610119971.8125
-568798904436.75
-533608138591.875
237259896349.5
200481490836.25
237276917859.25
-113458932189.75
-149571953094.9375
-113451024245.375
470649892594.5625
433664266420.9375
470655558319.5
-198132998083.9375
-233704104620.625
-198179073808.875
276494340684.5625
240388954250.5
276533513383.1875
506153257519.875
469970497039.625
506196875029.1875
-306808417129.75
-341212700305.3125
-306974205090.0
-250597713751.4375
-284631597549.9375
-250493001278.3125
2201885957071.1875
2164082106453.1875
2201985762292.0625
-6442581113897.531
-6464238086679.344
-6442524473816.094
2649890905429.3438
2612250002285.375
2649875085513.0
1834757111569.7812
1799054533160.875
1834817730654.8125
-442546910708.25
-473360493195.46875
-442524266402.375
679741941327.4375
647647329338.4062
679779429325.7812
18375527634.25
-11779296498.1875
18419597447.9375
-368892645099.90625
-397565709878.15625
-368859459555.46875
774404738903.125
744492782067.4688
774471173560.2812
-46236619528.03125
-73763474621.125
-46214840427.1875
-1324450324681.3125
-1348728889803.4688
-1324377079472.6562
1468478324268.1875
1440055946734.125
1468499409042.3438
-268316798399.65625
-292561198094.09375
-268266883632.53125
-1014472943773.2188
-1036300499352.8125
-1014427887840.9062
1322820573139.9375
1297842485350.8438
1322878710708.1875
-360896274920.15625
-381807302660.09375
-360872899766.3594
1924933030986.9844
1901136975011.2969
1925016315116.0625
-1127710806952.7031
-1144762393715.2656
-1127647015994.3594
-752117775996.2969
-768563329537.6562
-752050151545.0938
110738421421.76562
93956568765.95312
110812821708.875
-520813828969.4219
-535209008667.9375
-520751903840.6406
507947308005.65625
492655302383.0156
507738678560.1875
3283774040334.9375
3265467506483.1562
3284134244637.4375
-13878387136075.562
-13864305440399.438
-13878319707277.094
1415301622693.164
1402305513434.1016
1415194528467.0078
13480735730767.734
13446666885491.625
13480953927618.234
-5369842435709.805
-5368956743980.574
-5369852887710.547
-619396011332.8125
-630481823503.1523
-619416494631.0859
60914218106398.89
60789388433357.414
60913980992291.984
-871338924807.625
393308564844.0
-858177545286.375
369623119050.0625
-858180672192.125
393320853429.625
-871343292262.875
-846618833498.75
292597232582.5625
-840173993684.0625
258692104002.0
-840176418885.0625
292611029089.4375
-846626447403.0
-73741024298.9375
299600143007.375
-66395502473.625
265147730310.5
-66393537377.6875
299606226091.25
-73722712441.875
-420892746742.8125
301007494076.375
-413361791234.375
266811496151.9375
-413367553664.375
301019038955.5
-420897750529.3125
163194669815.9375
300919348207.0625
170992217480.6875
266992015298.625
170982671367.6875
300943444405.375
163163181530.25
-501691186416.1875
298462012131.3125
-494383905247.8125
264693424968.4375
-494424179080.3125
298495650621.125
-501816775209.5625
-25128423985.6875
294892564997.625
-17393453412.1875
261303629749.1875
-17399832404.6875
294936996751.25
-25129409367.375
207000962075.25
296761530534.5625
214800507472.125
263810955918.9375
214793297691.0
296818166654.3125
206982140463.9375
-602714136972.5625
289938029569.1875
-596036699503.75
257022898092.875
-596143111348.6875
290006574903.375
-603055146657.625
-538907297374.8125
281544794998.5
-531338730399.6875
248668244260.625
-531302706498.5
281577488717.1875
-538756361923.6875
1902325282266.25
294588550018.9375
1909116102401.0625
263130145712.6875
1909186599049.8125
294558910836.1875
1902546582559.625
-6719499266037.8125
250791101777.25
-6719176624465.344
216701499713.6875
-6719129166153.469
250734211378.21875
-6719372114861.125
2363663081075.8438
248700121965.9375
2371746165279.2812
215475733367.1875
2371750187517.7812
248682259800.25
2363643840730.875
1566488146556.0312
296433647534.90625
1576566657814.9062
267981804540.1875
1576598373201.5
296439326160.40625
1566558166131.0625
-706058043621.7188
270533865134.25
-699050815063.0312
241379148176.65625
-699042388539.8438
270547510551.21875
-706064058096.5625
417623808043.9375
257835207020.28125
424594186081.71875
228634070870.5625
424608860354.5
257865893301.46875
417625843477.90625
-236078742054.875
254857951143.625
-229809401639.90625
226488159084.28125
-229796483830.15625
254890370364.3125
-236072585466.09375
-615739217076.7812
241578554923.59375
-609922688261.4375
213434270082.625
-609917710776.875
241611362969.75
-615747932272.125
533194884749.40625
239670023665.34375
539831439103.0625
212653078520.1875
539853927611.96875
239704438773.34375
533237395395.1875
-280508033952.09375
234612349090.3125
-275248580472.0
208513619072.0
-275250152576.0
234647782406.5
-280549880838.21875
-1547444769288.5312
213545307313.21875
-1543158489743.0
187285180886.65625
-1543139707814.0938
213595788931.1875
-1547427240824.7812
1249591548865.2812
215220883768.3125
1256028429140.75
190600541368.9375
1256018871994.0625
215278612733.84375
1249527740749.0
-475360121469.75
213704950794.90625
-470504031893.96875
190524613133.15625
-470499885264.0
213761544984.0
-475382507768.0
-1211548451307.75
188838533034.28125
-1207642061674.9688
165450033173.0625
-1207639713939.875
188897645572.28125
-1211580730734.1875
1131565170919.0938
190087659413.3125
1137303160956.2188
168466366949.25
1137312276193.5625
190147840915.59375
1131554242259.9375
-534059055367.5625
184401256447.5
-528676663283.9531
164249911064.40625
-528679149630.1719
184455679585.15625
-534111101416.0
1754066481536.0
178351584760.0
1760134415159.3906
159583986595.04688
1760166225252.0
178397202395.23438
1754116599485.0
-1283932543871.6875
163479173531.53125
-1281032775978.7344
145338949491.75
-1281015111118.4688
163521366632.875
-1283932137268.0
-901204862437.625
135977929481.6875
-899078186505.7031
117621421988.54688
-899073759815.0469
136042410523.75
-901244236866.375
-26799344616.125
133208181064.0
-23894431864.0
116584572168.0
-23906817777.03125
133304266549.71875
-26870813710.5
-643813851985.4375
123082121891.8125
-641083108018.5781
107863818235.64062
-641103877392.4688
123221334807.8125
-643955784533.9375
403050531147.4375
113292684394.57812
407734078490.8281
99649174651.29688
407580247021.6719
113447701728.65625
402514651942.59375
3161978790197.0625
127408483438.85938
3162903667979.453
116355825088.0
3163047734656.0
127498850560.0
3162422594559.0625
-13961780643692.844
23720669839.90625
-13976004270631.0
6472565411.546875
-13975977677549.883
23748376664.34375
-13961737079544.594
1342290223443.3281
-2230312624.15625
1346174920541.6719
-18734741496.65625
1346116262498.8672
-2196735946.9375
1342041746024.5234
13419841302875.062
158762326928.6797
13438275282432.727
157201004019.75
13438387235081.047
158783947328.0
13420136332960.0
-5402784432640.0
101242943880.36719
-5401254839340.531
97483366353.33594
-5401232878929.906
101216253545.40625
-5402714353874.25
-545575550769.40625
-9735877178.679688
-517406608444.03125
-18765718267.046875
-517382131062.7344
-9772857754.90625
-545566712163.8594
60676259815194.81
419209646250.23047
60710589546714.27
435181636895.95703
60710508589837.03
419175760208.5293
60675983512252.81
-372983065728.0
-443164155312.0
-373024291376.0
SCALARS disp_x float
LOOKUP_TABLE default
1699645184.0
0.0
0.0
-1715741056.0
1698968192.0
1696084608.0
1690768256.0
1683186176.0
1673431168.0
1661514368.0
1648017280.0
1631809280.0
1613186048.0
1594331904.0
1572425600.0
1547399424.0
1520158592.0
1490944768.0
1459415296.0
1425774720.0
1390097024.0
1352226560.0
1312256384.0
1269925888.0
1225575424.0
1179193600.0
1130760576.0
1080195712.0
1027487808.0
972759360.0
916027264.0
856744256.0
795237184.0
731814144.0
666285568.0
598167872.0
530923584.0
459406304.0
385239616.0
310443072.0
234068032.0
154514480.0
75506064.0
10322427904.0
-55356481536.0
-26188947456.0
9154432000.0
7559022592.0
-2506550272.0
125892829184.0
-31479183360.0
-50697109504.0
200589148160.0
105779978240.0
-19060443136.0
15564980224.0
-13133757440.0
-3542130176.0
-14329511936.0
3144159488.0
-2815427328.0
-5110840320.0
-12585367552.0
-20876541952.0
15251557376.0
1985646208.0
4106287104.0
-2493266176.0
15380133888.0
8927183872.0
-15120540672.0
-21756125184.0
2269449728.0
13384981504.0
-33590843392.0
78748131328.0
54192943104.0
11025164288.0
47371206656.0
178756059136.0
18721402880.0
-1580644992.0
-56898789376.0
0.0
0.0
0.0
0.0
0.0
0.0
0.0
-76478200.0
-155310256.0
-235055952.0
-315453632.0
-393299360.0
-467364704.0
-539741952.0
-612097152.0
-679292480.0
-744809600.0
-808141184.0
-869099840.0
-928004160.0
-985188928.0
-1040106944.0
-1092786304.0
-1143351168.0
-1191788800.0
-1238022272.0
-1282057472.0
-1323871360.0
-1363760768.0
-1401470336.0
-1437101312.0
-1470533248.0
-1501826048.0
-1531136896.0
-1558130560.0
-1583017728.0
-1606661632.0
-1628900992.0
-1647010176.0
-1663241216.0
-1677834496.0
-1689644928.0
-1699316736.0
-1706856576.0
-1712224640.0
-1715061376.0
-56973541376.0
-1813075840.0
18330392576.0
178207096832.0
46668079104.0
10171047936.0
53192675328.0
77606084608.0
-34870292480.0
11972369408.0
727872512.0
-23422251008.0
-16907011072.0
7024606720.0
13365841920.0
-4615034880.0
1881207552.0
-338470944.0
12832801792.0
-23385827328.0
-15181023232.0
-7788450816.0
-5570804224.0
315505248.0
-17227409408.0
-6505117184.0
-16157280256.0
12485039104.0
-22192416768.0
102600024064.0
197365841920.0
-53959135232.0
-34775687168.0
122565844992.0
-5859303936.0
4184734720.0
5762849280.0
-29593450496.0
-58769190912.0
6906166272.0
-861998016.0
-8018748.0
845933376.0
92446136.0
24836984.0
-42245624.0
-109769024.0
845751488.0
-8021051.0
-861802944.0
843843840.0
-8059379.0
-859948416.0
841057664.0
-8043073.0
-857142208.0
837266240.0
-8040962.5
-853358400.0
832404992.0
-8052284.5
-848513984.0
826437696.0
-8081250.0
-842623040.0
819976448.0
-7499294.5
-835053440.0
811899776.0
-7460339.5
-826910592.0
802426752.0
-7747897.5
-817985216.0
793685568.0
-6176139.0
-806167104.0
783084480.0
-5463293.5
-794010432.0
770569728.0
-5526987.5
-781577216.0
756962240.0
-5576072.0
-768090496.0
742407552.0
-5492352.5
-753385280.0
726598080.0
-5585846.0
-737783552.0
709740416.0
-5673366.0
-721109824.0
691891840.0
-5693060.0
-703308672.0
672918336.0
-5771816.0
-684499648.0
652914048.0
-5816780.0
-664574272.0
631630848.0
-6059635.0
-643776768.0
609394432.0
-6187890.5
-621819136.0
586176896.0
-6254579.0
-598731968.0
561963392.0
-6252447.5
-574517696.0
536676032.0
-6251228.0
-549241472.0
510307200.0
-6272475.5
-522915520.0
482975712.0
-6206542.0
-495428320.0
454703872.0
-6006448.5
-466738496.0
424977568.0
-6175933.5
-437364096.0
394132320.0
-6383301.5
-406979008.0
362464576.0
-6332987.5
-375265152.0
329781728.0
-6261128.0
-342425216.0
295431872.0
-6794299.0
-309119264.0
262917136.0
-4417253.0
-271857696.0
227344736.0
-4061005.25
-235489568.0
190279280.0
-4107113.0
-198477744.0
153605664.0
-2640381.0
-158866256.0
116177952.0
-624110.375
-117424672.0
75007784.0
-448477.84375
-75878192.0
32209210.0
-547007.9375
-33304892.0
-109745344.0
9468765184.0
-42341828.0
8614332416.0
24933162.0
7759867904.0
92422552.0
-109567504.0
-56209522688.0
-42274260.0
-57062825984.0
24857442.0
-57916112896.0
92235408.0
-109197496.0
-27040208896.0
-42116844.0
-27891210240.0
24785568.0
-28742189056.0
91952832.0
-108752960.0
8306355712.0
-41975980.0
7458649600.0
24622614.0
6610944512.0
91490232.0
-108187248.0
6715299840.0
-41798276.0
5871916544.0
24412222.0
5028534784.0
90893928.0
-107471808.0
-3344859904.0
-41558636.0
-4182861312.0
24179498.0
-5020860416.0
90188888.0
-106153808.0
125061021696.0
-40805036.0
124229468160.0
24373994.0
123397857280.0
89825792.0
-104965824.0
-32303419392.0
-40259060.0
-33127319552.0
24268980.0
-33951313920.0
89072968.0
-103872832.0
-51512709120.0
-39896424.0
-52327981056.0
23897304.0
-53143363584.0
87966672.0
-101181096.0
199783170048.0
-38022080.0
198977634304.0
24950728.0
198171885568.0
88196656.0
-99033104.0
104984674304.0
-36779704.0
104189927424.0
25283496.0
103395082240.0
87620256.0
-97401960.0
-19843807232.0
-36140740.0
-20626612224.0
24926018.0
-21409400832.0
86267776.0
-95852792.0
14794710016.0
-35672712.0
14024904704.0
24315392.0
13255095296.0
84573592.0
-93916016.0
-13889878016.0
-34903512.0
-14645582848.0
23916488.0
-15401302016.0
83010664.0
-92101400.0
-4283099136.0
-34345932.0
-5023666688.0
23219100.0
-5764255744.0
81064640.0
-90106336.0
-15054195712.0
-33690000.0
-15778469888.0
22534436.0
-16502805504.0
79047648.0
-87992200.0
2436798976.0
-32998358.0
1729827200.0
21800960.0
1022797120.0
76897424.0
-85789472.0
-3504466176.0
-32301372.0
-4193112320.0
20985754.0
-4881833472.0
74578032.0
-83407192.0
-5780426240.0
-31509240.0
-6449646080.0
20179616.0
-7118934016.0
72182776.0
-81089704.0
-13234468864.0
-30867960.0
-13883199488.0
19135962.0
-14531981312.0
69464808.0
-78473248.0
-21504036864.0
-30015802.0
-22131156992.0
18224234.0
-22758352896.0
66793876.0
-75867184.0
14646722560.0
-29259050.0
14042237952.0
17132714.0
13437664256.0
63857772.0
-72952720.0
1404472448.0
-28278692.0
823637184.0
16180153.0
242725552.0
60973236.0
-69916608.0
3549874944.0
-27261036.0
2993801216.0
15181417.0
2437630464.0
57957104.0
-66715392.0
-3023866880.0
-26161810.0
-3554097408.0
14177168.0
-4084442368.0
54851896.0
-63404588.0
14876401664.0
-25037644.0
14373028864.0
13113487.0
13869556736.0
51601816.0
-59761696.0
8451359232.0
-23668644.0
7975899648.0
12208709.0
7500369408.0
48425200.0
-56244216.0
-15567355904.0
-22511208.0
-16013793280.0
11008549.0
-16460282880.0
44868332.0
-52611684.0
-22172817408.0
-21327688.0
-22589145088.0
9751301.0
-23005573120.0
41168500.0
-48766492.0
1883945856.0
-20016162.0
1498782208.0
8533517.0
1113466240.0
37423636.0
-44808360.0
13031800832.0
-18672182.0
12678900736.0
7262706.5
12325813248.0
33536036.0
-40800572.0
-33910700032.0
-17362618.0
-34230315008.0
5873693.0
-34550116352.0
29438280.0
-34357852.0
78462509056.0
-13705129.0
78177230848.0
6747486.5
77891772416.0
27523950.0
-29909216.0
53942616064.0
-12126400.0
53692735488.0
5458818.5
53442764800.0
23353918.0
-25427792.0
10811427840.0
-10602698.0
10598066176.0
4031773.25
10384632832.0
18959654.0
-19480800.0
47195217920.0
-7691778.5
47019565056.0
3882375.0
46843863040.0
15755162.0
-14343586.0
178618499072.0
-5685308.5
178481446912.0
2737192.75
178344411136.0
11461614.0
-9454095.0
18622654464.0
-3960167.75
18525829120.0
1141383.625
18428973056.0
6673529.5
-4699996.0
-1642052224.0
-2373980.75
-1696885632.0
-409982.15625
-1751760128.0
1934585.875
-56921583616.0
-56936263680.0
-56950943744.0
SCALARS disp_y float
LOOKUP_TABLE default
-22740985856.0
0.0
0.0
-22741014528.0
-21887084544.0
-21033484288.0
-20181602304.0
-19332947968.0
-18488702976.0
-17649874944.0
-16817474560.0
-15992724480.0
-15176713216.0
-14370242560.0
-13574156288.0
-12790188032.0
-12019384320.0
-11262777344.0
-10521098240.0
-9795848192.0
-9088002048.0
-8398287360.0
-7728102912.0
-7078307328.0
-6450220032.0
-5844851200.0
-5263030272.0
-4706037248.0
-4174891008.0
-3670592256.0
-3194113792.0
-2746647040.0
-2329353984.0
-1943233152.0
-1589519616.0
-1269389440.0
-983175296.0
-731946240.0
-518072288.0
-342463168.0
-204310336.0
-105600480.0
-42506496.0
1816265984.0
1100848768.0
-850074432.0
-324220640.0
-796981568.0
503046208.0
-237233184.0
501414976.0
1947012352.0
814862592.0
32454404.0
6300423680.0
-14012598272.0
-6120909312.0
-203575168.0
-1552504704.0
429289824.0
370047456.0
-880454976.0
1423062528.0
1091089920.0
-3142313472.0
1286568960.0
351808384.0
-2910405632.0
1081031168.0
121259664.0
6040216064.0
2453176064.0
-127590512.0
37221916.0
-1650007808.0
190138464.0
9429325824.0
-34572652544.0
-30127042560.0
12588426240.0
-3622287104.0
-399827136.0
183004758016.0
0.0
0.0
0.0
0.0
0.0
0.0
0.0
-41863804.0
-105255704.0
-203874816.0
-341512064.0
-516990784.0
-731040576.0
-981559104.0
-1267889792.0
-1588950656.0
-1943032448.0
-2329275136.0
-2746575872.0
-3193928960.0
-3670382336.0
-4174748928.0
-4705937920.0
-5262993408.0
-5844914176.0
-6450356224.0
-7078454272.0
-7728220160.0
-8398343680.0
-9088037888.0
-9795853312.0
-10521089024.0
-11262662656.0
-12019188736.0
-12789822464.0
-13573223424.0
-14368754688.0
-15175544832.0
-15992065024.0
-16816906240.0
-17649539072.0
-18488614912.0
-19332939776.0
-20181585920.0
-21033447424.0
-21887084544.0
183003447296.0
-399878240.0
-3622336000.0
12588324864.0
-30128158720.0
-34572738560.0
9429213184.0
188301488.0
-1650090240.0
37179680.0
-127642880.0
2453163520.0
6040198144.0
121059848.0
1081004672.0
-2910464512.0
351792448.0
1286552832.0
-3142165504.0
1091094912.0
1423215872.0
-880455360.0
370089920.0
429302816.0
-1552510080.0
-203532640.0
-6121084416.0
-14012565504.0
6300253696.0
31781552.0
813669376.0
1946940544.0
501188768.0
-237616432.0
503026144.0
-796971456.0
-324213120.0
-850115136.0
1100847488.0
1816266752.0
-22741452800.0
-22744606720.0
-22741434368.0
-22726424576.0
-22724112384.0
-22721058816.0
-22728140800.0
-21886513152.0
-21886279680.0
-21886504960.0
-21031673856.0
-21030971392.0
-21031649280.0
-20178925568.0
-20178012160.0
-20178925568.0
-19329425408.0
-19328247808.0
-19329419264.0
-18484293632.0
-18482800640.0
-18484236288.0
-17644509184.0
-17642688512.0
-17644371968.0
-16811156480.0
-16808966144.0
-16810891264.0
-15985537024.0
-15982986240.0
-15985145856.0
-15168496640.0
-15165557760.0
-15167906816.0
-14361021440.0
-14357728256.0
-14360330240.0
-13564227584.0
-13560723456.0
-13563702272.0
-12779505664.0
-12775879680.0
-12779300864.0
-12007847936.0
-12003974144.0
-12007755776.0
-11250382848.0
-11246241792.0
-11250336768.0
-10507857920.0
-10503452672.0
-10507866112.0
-9781748736.0
-9777056768.0
-9781755904.0
-9073051648.0
-9068075008.0
-9073069056.0
-8382467584.0
-8377210880.0
-8382502400.0
-7711421440.0
-7705874944.0
-7711474688.0
-7060760064.0
-7054942208.0
-7060847104.0
-6431813632.0
-6425707520.0
-6431884288.0
-5825568256.0
-5819145216.0
-5825589248.0
-5242844672.0
-5236118528.0
-5242836480.0
-4684965376.0
-4677927424.0
-4684917248.0
-4152950016.0
-4145604864.0
-4152866560.0
-3647761920.0
-3640116480.0
-3647656192.0
-3170413568.0
-3162484736.0
-3170327040.0
-2722102016.0
-2713921024.0
-2722084096.0
-2303926016.0
-2295449600.0
-2303909376.0
-1916909056.0
-1908106240.0
-1916817152.0
-1562273280.0
-1553050752.0
-1561918336.0
-1240985472.0
-1231297792.0
-1240277120.0
-953869504.0
-943859584.0
-953097600.0
-702016448.0
-691812800.0
-701440960.0
-487129376.0
-476649952.0
-486606432.0
-310566880.0
-299741856.0
-310134816.0
-171532176.0
-160202800.0
-171271056.0
-72315872.0
-60534156.0
-72114760.0
-12642651.0
-4833818.0
-12441380.0
-21873924096.0
1816232960.0
-21865015296.0
1816288640.0
-21868044288.0
1816233344.0
-21872177152.0
-21020020736.0
1100635520.0
-21010411520.0
1100550912.0
-21013444608.0
1100634112.0
-21018224640.0
-20167991296.0
-850459328.0
-20158048256.0
-850599488.0
-20161112064.0
-850479424.0
-20166211584.0
-19319189504.0
-324740224.0
-19308939264.0
-324911968.0
-19312009216.0
-324735136.0
-19317403648.0
-18474778624.0
-797647424.0
-18464178176.0
-797867008.0
-18467244032.0
-797641088.0
-18472914944.0
-17635739648.0
502224352.0
-17624752128.0
501948864.0
-17627807744.0
502216096.0
-17633710080.0
-16803133440.0
-238295056.0
-16791720960.0
-238710896.0
-16794711040.0
-238484208.0
-16800920576.0
-15978235904.0
500242432.0
-15966473216.0
499814112.0
-15969367040.0
500129920.0
-15975901184.0
-15161950208.0
1945731840.0
-15149782016.0
1945291392.0
-15152551936.0
1945694336.0
-15159325696.0
-14355200000.0
813152576.0
-14342665216.0
812381376.0
-14345329664.0
812553408.0
-14352444416.0
-13559007232.0
30724714.0
-13546350592.0
30032184.0
-13548948480.0
30382732.0
-13556631552.0
-12774941696.0
6298665472.0
-12762164224.0
6298050048.0
-12764856320.0
6298578944.0
-12773013504.0
-12003954688.0
-14014453760.0
-11990923264.0
-14015066112.0
-11993595904.0
-14014438400.0
-12002210816.0
-11247175680.0
-6122966016.0
-11233873920.0
-6123679744.0
-11236503552.0
-6123051520.0
-11245555712.0
-10505337856.0
-205723632.0
-10491752448.0
-206432080.0
-10494356480.0
-205700000.0
-10503848960.0
-9779930112.0
-1554812288.0
-9766072320.0
-1555581312.0
-9768568832.0
-1554812672.0
-9778513920.0
-9071941632.0
426840992.0
-9057805312.0
426026624.0
-9060221952.0
426848704.0
-9070608384.0
-8382068224.0
367461504.0
-8367633920.0
366605920.0
-8369971712.0
367483328.0
-8380806656.0
-7711742464.0
-883199552.0
-7696986624.0
-884116032.0
-7699246080.0
-883199680.0
-7710565888.0
-7061798912.0
1420209152.0
-7046734336.0
1419282688.0
-7048941056.0
1420286720.0
-7060697600.0
-6433574912.0
1088052608.0
-6418216960.0
1087041792.0
-6420313088.0
1088057472.0
-6432503808.0
-5828057088.0
-3145460992.0
-5812362240.0
-3146484992.0
-5814337024.0
-3145385728.0
-5826963456.0
-5246074880.0
1283235584.0
-5230023168.0
1282121984.0
-5231913984.0
1283228032.0
-5244963328.0
-4688930816.0
348328128.0
-4672536064.0
347165952.0
-4674304000.0
348320672.0
-4687819264.0
-4157626880.0
-2914043136.0
-4140921344.0
-2915266048.0
-4142550784.0
-2914072832.0
-4156534784.0
-3653170176.0
1077256320.0
-3636139264.0
1075993216.0
-3637649664.0
1077242368.0
-3652093440.0
-3176534272.0
117295368.0
-3159194368.0
115940368.0
-3160603648.0
117195432.0
-3175535616.0
-2728955136.0
6036148224.0
-2711328256.0
6034789376.0
-2712673280.0
6036140544.0
-2728089344.0
-2311516928.0
2448961280.0
-2293577216.0
2447556608.0
-2294781952.0
2448958208.0
-2310696192.0
-1925220096.0
-131962312.0
-1906949888.0
-133425424.0
-1907988992.0
-131984360.0
-1924351744.0
-1571320960.0
32705792.0
-1552661504.0
31193950.0
-1553454720.0
32685582.0
-1570192896.0
-1250839424.0
-1654679168.0
-1231679360.0
-1656252032.0
-1232187648.0
-1654724608.0
-1249206656.0
-964448832.0
184884016.0
-944942464.0
182823680.0
-945302144.0
183960848.0
-962781760.0
-713256448.0
9424351232.0
-693587008.0
9422672896.0
-693915328.0
9424287744.0
-712042176.0
-498944608.0
-34577772544.0
-478928640.0
-34579492864.0
-479154304.0
-34577813504.0
-497788896.0
-323012160.0
-30132568064.0
-302626368.0
-30134601728.0
-302782560.0
-30133131264.0
-322065696.0
-184707936.0
12582994944.0
-164009440.0
12581156864.0
-164160064.0
12582939648.0
-184150416.0
-85797200.0
-3627847680.0
-65259560.0
-3629766400.0
-65353552.0
-3627879424.0
-85385280.0
-24391734.0
-405345280.0
-8348289.0
-407233280.0
-8342349.5
-405374944.0
-23962252.0
183000088576.0
182998499328.0
182999433216.0
SCALARS von_mises_stress float
LOOKUP_TABLE default
1.3570248651319032e+25
9.280640237508488e+25
9.281897186352242e+25
1.3565201513498813e+25
2.2747190365468845e+25
1.0307621721127643e+25
1.2060348779517277e+25
1.0442140687557175e+24
4.106822894179809e+24
4.498524707839255e+25
5.453203968427999e+25
7.030339180813269e+24
8.6893778823737e+25
3.319846669172497e+25
4.256893822060046e+25
1.3465694445060073e+25
1.016286371448519e+25
3.5449523565181396e+24
3.9564664593790464e+24
6.113944248067657e+24
2.212962846822767e+24
1.1282755186842242e+24
2.496793961503651e+24
3.04467300461466e+24
1.2626586960270203e+25
4.7398915786015706e+24
1.1239785347243284e+24
2.6199625601805115e+24
6.22979324048902e+24
2.2782736573544327e+24
8.20462593182719e+24
2.520209717936207e+24
8.291825166516857e+24
4.018615566832285e+24
1.6716366129236856e+25
3.900936701444257e+25
8.885391095867279e+24
1.7240057426285345e+25
1.2085446605777198e+25
4.6536049177515216e+25
5.561009659518681e+25
5.750360630165439e+24
4.121920936238548e+25
6.10716090118397e+23
6.029472594780998e+23
6.156758365488886e+23
6.189588138909609e+23
6.286569238495918e+23
6.222298954457537e+23
6.085155061520507e+23
6.723784758837938e+23
6.336695956004521e+23
6.025157848179227e+23
6.392682813748372e+23
5.702534067936099e+23
5.6339185869623915e+23
5.650517326247344e+23
5.422274464259356e+23
5.3072030596664814e+23
5.21545073044868e+23
5.0605402429891345e+23
4.943003829250683e+23
4.825295039219183e+23
4.6181423405322586e+23
4.4936467588490566e+23
4.3615696912025404e+23
4.119084037893243e+23
3.982069485272716e+23
3.796943870279592e+23
3.621429455975778e+23
3.439584341162957e+23
3.187740156553244e+23
3.047174250807731e+23
2.9931939980766015e+23
2.60822890621968e+23
2.677001867728355e+23
2.514286536526263e+23
2.0283570176116667e+23
2.7019304744051732e+23
2.097284189161391e+23
2.4289570258391647e+23
5.3796294947193854e+23
1.1260857194367787e+24
9.535200198650982e+25
9.53611356935448e+25
9.535495736767022e+25
9.540942625049696e+25
9.549733004032099e+25
9.549658272233983e+25
9.540841033947966e+25
4.120730335459644e+25
5.723491827881571e+24
5.5584725701684885e+25
4.656115748334003e+25
1.2110847670919279e+25
1.721934827084927e+25
8.86244701344731e+24
3.903178033359717e+25
1.669468639769865e+25
4.039541396528385e+24
8.311743427702672e+24
2.503453257285683e+24
8.18657970138598e+24
2.2620968252510448e+24
6.245901631563105e+24
2.60642159444361e+24
1.1352052075810547e+24
4.7266004361088095e+24
1.2639006104476868e+25
3.033411222911087e+24
2.4863130931211963e+24
1.1223602996789202e+24
2.204709974360195e+24
6.121765281684249e+24
3.9496968183272013e+24
3.550834547654771e+24
1.0157826241504122e+25
1.3469514581170905e+25
4.256563420138039e+25
3.3197174501317783e+25
8.689541395631959e+25
7.029926805103732e+24
5.453247466688238e+25
4.498382480611731e+25
4.1090727274520837e+24
1.045580744584627e+24
1.2056216452973889e+25
1.0302439346241918e+25
2.2753227403997e+25
1.1397462055818378e+24
5.468854875885908e+23
2.662152728408109e+23
2.20289775581954e+23
2.5604439984604033e+23
2.1668114285850108e+23
2.6716938892779513e+23
2.6348273273476065e+23
2.6114195361558004e+23
3.0886669557624684e+23
3.037894160122101e+23
3.1940565359530386e+23
3.4649060281961135e+23
3.641119244525424e+23
3.7947337119839947e+23
3.9868932824698795e+23
4.128464728570733e+23
4.3759390082861375e+23
4.49622704865286e+23
4.617525140356489e+23
4.836526593666313e+23
4.946234859241107e+23
5.06562811718843e+23
5.216124530137847e+23
5.3091741086625816e+23
5.42270389599427e+23
5.652550414011635e+23
5.625991368780781e+23
5.698786568338582e+23
6.405158562892297e+23
6.017586846594551e+23
6.328744016894276e+23
6.723383094126685e+23
6.08073467657948e+23
6.219717212091031e+23
6.277568425771915e+23
6.182925023716933e+23
6.153169795285956e+23
6.0137696868411086e+23
6.076255054708828e+23
1.4898924269147143e+25
1.493136391417574e+25
1.4900363466429547e+25
1.466983235810192e+25
1.4782039077792924e+25
1.4782014275843547e+25
1.467051321619156e+25
2.464060861577402e+25
2.4596146698058188e+25
2.464161786842512e+25
1.1030645209091022e+25
1.1011524239472208e+25
1.1029871583765145e+25
1.263371893263088e+25
1.2609525971523546e+25
1.263323882187657e+25
7.464117399093861e+23
7.479104412089465e+23
7.46565172919747e+23
5.06888558224478e+24
5.059776415708407e+24
5.068723546496706e+24
4.879160297261293e+25
4.870331630616016e+25
4.879206005977243e+25
5.869012515108884e+25
5.858214494317776e+25
5.868924995944028e+25
7.988839766007465e+24
7.973792599130668e+24
7.987703884805274e+24
9.316879623190799e+25
9.299774783225652e+25
9.317023590289789e+25
3.6046814214207513e+25
3.5981336171660184e+25
3.604495895987853e+25
4.505668263189477e+25
4.49712210501822e+25
4.5054488215051335e+25
1.4857758066269362e+25
1.483865044705948e+25
1.4860108866548716e+25
1.1186273287150537e+25
1.1162267774068172e+25
1.1183492952046502e+25
4.1503788664782445e+24
4.137852114621725e+24
4.153356401595857e+24
4.255834687431343e+24
4.248604501935956e+24
4.2523685166169236e+24
6.611748662276974e+24
6.599788557150106e+24
6.615506598686602e+24
2.3412414700227146e+24
2.335489913140562e+24
2.3372000195461802e+24
7.308152157871445e+23
7.344278851443395e+23
7.266745873506669e+23
2.6541022805051594e+24
2.643441428951735e+24
2.649509819897299e+24
3.331230090192625e+24
3.323426814504611e+24
3.3262046906961583e+24
1.351057292525411e+25
1.3489407806141541e+25
1.3515874802563421e+25
5.343365146758687e+24
5.328292837185251e+24
5.337862796533886e+24
1.0429345255018778e+24
1.0469811407347929e+24
1.0487684094752864e+24
2.7082228301370906e+24
2.7046279220774414e+24
2.702167756126671e+24
6.750317505221076e+24
6.739040703192636e+24
6.756793851043326e+24
2.3087062933128607e+24
2.3027199447386758e+24
2.3019104324613333e+24
8.739509448776866e+24
8.717749272253937e+24
8.732433171277705e+24
2.526574307317875e+24
2.5222000678514274e+24
2.519438435621173e+24
8.752972240991388e+24
8.741248407514306e+24
8.760707706041204e+24
4.393708732847732e+24
4.3901511794567714e+24
4.401795772404281e+24
1.8478053331311084e+25
1.8440923583880117e+25
1.846967494288365e+25
4.19356426653797e+25
4.186358458450372e+25
4.1944321591470844e+25
9.950846040405246e+24
9.926511418123248e+24
9.942109276332326e+24
1.8292590002284903e+25
1.8257790385364565e+25
1.828452439734848e+25
1.2371737026076226e+25
1.2352600456570967e+25
1.2381412708492918e+25
5.025101129955645e+25
5.016394660060857e+25
5.02607148510849e+25
5.993252885508414e+25
5.981703836654163e+25
5.992217851683847e+25
5.088850761892848e+24
5.06959123691889e+24
5.077820677740716e+24
4.5879521011541976e+25
4.578299831990577e+25
4.58737985086932e+25
2.4608630101893273e+25
2.7711650716790957e+23
2.463734854295571e+25
2.6396305255185307e+23
2.463733798490401e+25
2.7756767147644767e+23
2.460871550283028e+25
1.1020572558369644e+25
2.1384775110755888e+23
1.1029617641640755e+25
1.9648492585303257e+23
1.1029476067186043e+25
2.1415841929536332e+23
1.1020187908798576e+25
1.265859904044582e+25
2.4958258598927944e+23
1.268001448975325e+25
2.3966097363004087e+23
1.2679842782356292e+25
2.493073923352768e+23
1.265808594025072e+25
7.866830318971245e+23
2.132676699176837e+23
7.8249302338037e+23
1.9469435412558688e+23
7.826922559140812e+23
2.1323572270966107e+23
7.872988800963e+23
4.971148722560905e+24
2.0549424132634557e+23
4.955978145166057e+24
1.8368052453224858e+23
4.956243840929012e+24
2.0542538325829242e+23
4.971970271552272e+24
4.869574824829415e+25
3.4232390288368e+23
4.873131616845979e+25
3.487103893248737e+23
4.873098389512249e+25
3.429246514469634e+23
4.86947338641363e+25
5.864145149087674e+25
2.0532357903738312e+23
5.870237287517675e+25
1.8596079631574093e+23
5.870271134664374e+25
2.050118969174209e+23
5.864250222618005e+25
7.924225885716976e+24
4.7670009518303224e+23
7.919229343211864e+24
4.9696548566943504e+23
7.919660035632829e+24
4.753016065121715e+23
7.925533642982596e+24
9.312949455992684e+25
5.733829867484862e+23
9.323477231348203e+25
6.088794177432247e+23
9.323428521346973e+25
5.752325060937872e+23
9.31280399837277e+25
3.597224282850741e+25
4.06150322181582e+23
3.5998979206435335e+25
4.2441434545170506e+23
3.5999490892820995e+25
4.0825575774688336e+23
3.597382069299749e+25
4.510845088579841e+25
5.545835092050567e+23
4.51807415923762e+25
5.858050712731005e+23
4.5181282783547136e+25
5.519794468753337e+23
4.51101091214192e+25
1.4826245846889907e+25
2.4928085964922858e+23
1.4818405427046588e+25
2.4932097186274707e+23
1.4817796661876205e+25
2.4689585915643683e+23
1.4824410153128216e+25
1.1122216504808295e+25
1.6740446053896463e+23
1.113012107729906e+25
1.4571897908866599e+23
1.1130785110333863e+25
1.6793698111899545e+23
1.1124216030689498e+25
4.076273818166109e+24
2.0298164693036653e+23
4.075658859969101e+24
1.8517075659388214e+23
4.0749521486523503e+24
2.0209615391657964e+23
4.0741371499006155e+24
4.2499894942265447e+24
1.8025286596455e+23
4.251149204004148e+24
1.6081261323164935e+23
4.251904459637965e+24
1.8023653609035074e+23
4.252268874308061e+24
6.594900594847937e+24
1.7218868444983016e+23
6.600157687716024e+24
1.530834351227715e+23
6.599336760803307e+24
1.72605401029597e+23
6.592432398825376e+24
2.332712811777778e+24
1.7155814758982472e+23
2.3337928456394418e+24
1.5363532578848968e+23
2.3346812440581732e+24
1.7239312008464604e+23
2.335384072422971e+24
8.060860487473877e+23
1.624269992282385e+23
8.078109115866482e+23
1.4374796977422581e+23
8.086094687010451e+23
1.617904042417522e+23
8.084756012872556e+23
2.632623656716598e+24
1.6122348805367768e+23
2.6396328652840355e+24
1.433399952555009e+23
2.640606944460076e+24
1.605293488756914e+23
2.635546679526247e+24
3.3132164830161675e+24
1.617223972300816e+23
3.3135004562997634e+24
1.449814535907248e+23
3.314516297126108e+24
1.6023703939019815e+23
3.3162646845270937e+24
1.351416666452273e+25
1.5458204699636337e+23
1.352712357045869e+25
1.4253351539964147e+23
1.3526048840323705e+25
1.5735830752353806e+23
1.351095164499972e+25
5.2894070742867e+24
1.5111453652309792e+23
5.291590597695001e+24
1.3859359340498529e+23
5.292712577843778e+24
1.5353890294007155e+23
5.292767510495467e+24
1.0648202880209756e+24
1.4578359441264464e+23
1.0605238029960972e+24
1.3037499195072138e+23
1.0593999285587678e+24
1.4439842104522077e+23
1.0614639209982294e+24
2.7259705867753514e+24
1.2656900415079237e+23
2.726388974913596e+24
1.1077300933952843e+23
2.727554365888448e+24
1.2598825561159548e+23
2.7294752973819016e+24
6.734021817681274e+24
1.2840303752760522e+23
6.739885080279182e+24
1.155231781139741e+23
6.73860963487507e+24
1.3006220820195903e+23
6.730204718701448e+24
2.3214819249773025e+24
1.252729458210491e+23
2.326370638453767e+24
1.1363832317191257e+23
2.327690731940981e+24
1.2728101520465677e+23
2.3254357826444997e+24
8.729998282558438e+24
1.3934933827299018e+23
8.745846675266638e+24
1.297666520687154e+23
8.747212059105371e+24
1.3489470755466962e+23
8.734079219580899e+24
2.554477391552815e+24
1.3155368346785937e+23
2.558267872792403e+24
1.2254303136118913e+23
2.5596087248239334e+24
1.2655637980670108e+23
2.558504754808642e+24
8.774424902463138e+24
9.70053944924767e+22
8.785392884781921e+24
8.935571112393355e+22
8.783910956123378e+24
1.0095562394655488e+23
8.769992572280097e+24
4.3799920994069445e+24
1.1888178673708597e+23
4.3799019811115546e+24
1.1951197127523379e+23
4.378378298869733e+24
1.2591304419437053e+23
4.3754333224189397e+24
1.839560966945593e+25
1.2924856512233717e+23
1.8400492265235498e+25
1.2330690996598215e+23
1.8402075019269642e+25
1.2135485298339636e+23
1.8400343757002546e+25
4.190569171622608e+25
1.591135175946489e+23
4.194774416464331e+25
1.7211915489456414e+23
4.194610498769716e+25
1.6885573114660296e+23
4.19008016001685e+25
9.881032367818179e+24
2.156661444664023e+23
9.883998078971759e+24
2.342044710453636e+23
9.885655613104236e+24
2.261076027703356e+23
9.885993023915307e+24
1.8322125537750384e+25
1.7343141714876178e+23
1.834564512555377e+25
1.784057566282713e+23
1.8347120379844157e+25
1.617992612090106e+23
1.8326560395071042e+25
1.2446388998429194e+25
3.4076125604292036e+22
1.247700298250821e+25
3.034845279019424e+22
1.2475268801711004e+25
2.2049138295593606e+22
1.244120445332362e+25
5.018551419941424e+25
4.006532522369645e+23
5.022990201599791e+25
4.376182778965588e+23
5.022803576098174e+25
4.126885593389041e+23
5.017999354818187e+25
5.986342929371351e+25
9.68793562517368e+22
5.992633532446134e+25
9.377952958967346e+22
5.992834421969642e+25
8.803406773109773e+22
5.9869186519355e+25
5.228658739122087e+24
4.135877421666895e+23
5.274907804807147e+24
4.405455481446378e+23
5.276956976374382e+24
3.998836133333113e+23
5.234452372368111e+24
4.5699433485760955e+25
3.275974077308317e+23
4.572636420638714e+25
3.39356218523334e+23
4.572654670880566e+25
3.2030401654045555e+23
4.570101765257407e+25
2.837993003537057e+23
3.392990627988313e+23
2.8911234702648345e+23
