# vtk DataFile Version 2.0
Generated Volume Mesh
ASCII
DATASET UNSTRUCTURED_GRID
POINTS 569 float
0.0 -0.01 0.0
0.2 -0.01 0.0
0.2 0.01 0.0
0.0 0.01 0.0
0.004999999999990963 -0.01 0.0
0.009999999999980603 -0.01 0.0
0.01499999999997201 -0.01 0.0
0.01999999999996497 -0.01 0.0
0.02499999999995712 -0.01 0.0
0.02999999999994344 -0.01 0.0
0.03499999999992909 -0.01 0.0
0.03999999999991203 -0.01 0.0
0.04499999999989768 -0.01 0.0
0.04999999999988333 -0.01 0.0
0.05499999999986898 -0.01 0.0
0.05999999999985461 -0.01 0.0
0.06499999999984028 -0.01 0.0
0.06999999999982592 -0.01 0.0
0.07499999999980886 -0.01 0.0
0.0799999999997918 -0.01 0.0
0.08499999999977745 -0.01 0.0
0.0899999999997631 -0.01 0.0
0.09499999999974874 -0.01 0.0
0.0999999999997371 -0.01 0.0
0.1049999999997488 -0.01 0.0
0.1099999999997604 -0.01 0.0
0.1149999999997748 -0.01 0.0
0.1199999999997886 -0.01 0.0
0.1249999999998008 -0.01 0.0
0.1299999999998173 -0.01 0.0
0.1349999999998279 -0.01 0.0
0.1399999999998396 -0.01 0.0
0.1449999999998577 -0.01 0.0
0.1499999999998672 -0.01 0.0
0.1549999999998767 -0.01 0.0
0.1599999999998948 -0.01 0.0
0.1649999999999065 -0.01 0.0
0.1699999999999171 -0.01 0.0
0.1749999999999363 -0.01 0.0
0.1799999999999458 -0.01 0.0
0.1849999999999585 -0.01 0.0
0.1899999999999756 -0.01 0.0
0.1949999999999851 -0.01 0.0
0.002499999999995455 -0.01 0.0
0.007499999999986087 -0.01 0.0
0.01249999999997554 -0.01 0.0
0.01749999999996855 -0.01 0.0
0.02249999999996104 -0.01 0.0
0.02749999999995028 -0.01 0.0
0.03249999999993627 -0.01 0.0
0.03749999999992056 -0.01 0.0
0.04249999999990486 -0.01 0.0
0.0474999999998905 -0.01 0.0
0.05249999999987616 -0.01 0.0
0.0574999999998618 -0.01 0.0
0.06249999999984745 -0.01 0.0
0.0674999999998331 -0.01 0.0
0.07249999999981739 -0.01 0.0
0.07749999999980034 -0.01 0.0
0.08249999999978462 -0.01 0.0
0.08749999999977028 -0.01 0.0
0.09249999999975592 -0.01 0.0
0.09749999999974292 -0.01 0.0
0.1024999999997434 -0.01 0.0
0.1074999999997551 -0.01 0.0
0.1124999999997679 -0.01 0.0
0.1174999999997827 -0.01 0.0
0.1224999999997936 -0.01 0.0
0.1274999999998062 -0.01 0.0
0.132499999999822 -0.01 0.0
0.1374999999998325 -0.01 0.0
0.1424999999998486 -0.01 0.0
0.1474999999998629 -0.01 0.0
0.1524999999998725 -0.01 0.0
0.1574999999998845 -0.01 0.0
0.1624999999999003 -0.01 0.0
0.1674999999999127 -0.01 0.0
0.172499999999927 -0.01 0.0
0.1774999999999416 -0.01 0.0
0.1824999999999521 -0.01 0.0
0.1874999999999665 -0.01 0.0
0.1924999999999823 -0.01 0.0
0.1974999999999922 -0.01 0.0
0.2 -0.005000000000010828 0.0
0.2 -2.538941279439655e-14 0.0
0.2 0.004999999999987136 0.0
0.2 -0.00750000000000295 0.0
0.2 -0.002500000000017425 0.0
0.2 0.002499999999982709 0.0
0.2 0.007499999999991696 0.0
0.1950000000000139 0.01 0.0
0.1900000000000277 0.01 0.0
0.1850000000000415 0.01 0.0
0.1800000000000553 0.01 0.0
0.1750000000000692 0.01 0.0
0.170000000000083 0.01 0.0
0.1650000000000968 0.01 0.0
0.1600000000001107 0.01 0.0
0.1550000000001245 0.01 0.0
0.1500000000001384 0.01 0.0
0.1450000000001522 0.01 0.0
0.140000000000166 0.01 0.0
0.1350000000001799 0.01 0.0
0.1300000000001937 0.01 0.0
0.1250000000002075 0.01 0.0
0.1200000000002214 0.01 0.0
0.1150000000002352 0.01 0.0
0.110000000000249 0.01 0.0
0.1050000000002629 0.01 0.0
0.100000000000274 0.01 0.0
0.09500000000026176 0.01 0.0
0.09000000000024955 0.01 0.0
0.08500000000023465 0.01 0.0
0.08000000000022028 0.01 0.0
0.07500000000020751 0.01 0.0
0.07000000000019044 0.01 0.0
0.0650000000001793 0.01 0.0
0.06000000000016711 0.01 0.0
0.0550000000001484 0.01 0.0
0.05000000000013835 0.01 0.0
0.0450000000001283 0.01 0.0
0.04000000000010959 0.01 0.0
0.0350000000000974 0.01 0.0
0.03000000000008626 0.01 0.0
0.02500000000006647 0.01 0.0
0.02000000000005642 0.01 0.0
0.01500000000004315 0.01 0.0
0.01000000000002552 0.01 0.0
0.005000000000015492 0.01 0.0
0.1975000000000092 0.01 0.0
0.1925000000000205 0.01 0.0
0.1875000000000343 0.01 0.0
0.1825000000000489 0.01 0.0
0.1775000000000627 0.01 0.0
0.1725000000000761 0.01 0.0
0.1675000000000899 0.01 0.0
0.1625000000001038 0.01 0.0
0.1575000000001176 0.01 0.0
0.1525000000001314 0.01 0.0
0.1475000000001453 0.01 0.0
0.1425000000001591 0.01 0.0
0.137500000000173 0.01 0.0
0.1325000000001867 0.01 0.0
0.1275000000002006 0.01 0.0
0.1225000000002144 0.01 0.0
0.1175000000002283 0.01 0.0
0.1125000000002421 0.01 0.0
0.1075000000002559 0.01 0.0
0.1025000000002684 0.01 0.0
0.09750000000026633 0.01 0.0
0.09250000000025538 0.01 0.0
0.08750000000024319 0.01 0.0
0.08250000000022609 0.01 0.0
0.07750000000021434 0.01 0.0
0.07250000000019938 0.01 0.0
0.06750000000018136 0.01 0.0
0.06250000000017095 0.01 0.0
0.05750000000016026 0.01 0.0
0.05250000000014343 0.01 0.0
0.04750000000013399 0.01 0.0
0.04250000000011994 0.01 0.0
0.03750000000010362 0.01 0.0
0.03250000000009365 0.01 0.0
0.02750000000007519 0.01 0.0
0.02250000000005931 0.01 0.0
0.01750000000004931 0.01 0.0
0.01250000000003648 0.01 0.0
0.007500000000019047 0.01 0.0
0.002500000000006192 0.01 0.0
0.0 0.005000000000010828 0.0
0.0 2.538941279439655e-14 0.0
0.0 -0.004999999999987136 0.0
0.0 0.00750000000000295 0.0
0.0 0.002500000000017425 0.0
0.0 -0.002499999999982709 0.0
0.0 -0.007499999999991696 0.0
0.004999999999997094 -0.004999999999987727 0.0
0.005000000000003228 2.411959520998152e-14 0.0
0.005000000000009359 0.005000000000010233 0.0
0.009999999999991828 -0.00499999999998832 0.0
0.01000000000000306 2.285064498730449e-14 0.0
0.01000000000001429 0.005000000000009642 0.0
0.01499999999998979 -0.00499999999998891 0.0
0.01500000000000757 2.158082740288947e-14 0.0
0.01500000000002536 0.005000000000009051 0.0
0.01999999999998783 -0.004999999999989502 0.0
0.02000000000001069 2.031187718021243e-14 0.0
0.02000000000003356 0.005000000000008457 0.0
0.02499999999998446 -0.004999999999990098 0.0
0.02500000000001179 1.904205959579741e-14 0.0
0.02500000000003914 0.005000000000007864 0.0
0.02999999999997915 -0.004999999999990686 0.0
0.03000000000001485 1.777224201138239e-14 0.0
0.03000000000005056 0.005000000000007274 0.0
0.03499999999997118 -0.00499999999999128 0.0
0.03500000000001325 1.650329178870535e-14 0.0
0.03500000000005533 0.005000000000006681 0.0
0.03999999999996142 -0.004999999999991873 0.0
0.04000000000001081 1.523347420429033e-14 0.0
0.04000000000006019 0.005000000000006089 0.0
0.04499999999995533 -0.004999999999992464 0.0
0.04500000000001299 1.396495766248229e-14 0.0
0.04500000000007065 0.005000000000005497 0.0
0.04999999999994709 -0.004999999999993056 0.0
0.05000000000001084 1.269514007806727e-14 0.0
0.05000000000007461 0.005000000000004904 0.0
0.05499999999993883 -0.004999999999993651 0.0
0.05500000000000869 1.142488881278325e-14 0.0
0.05500000000007854 0.005000000000004311 0.0
0.05999999999993273 -0.004999999999994243 0.0
0.06000000000001086 1.015593859010622e-14 0.0
0.06000000000008898 0.005000000000003719 0.0
0.06499999999992503 -0.004999999999994832 0.0
0.06500000000000979 8.886121005691193e-15 0.0
0.06500000000009454 0.005000000000003126 0.0
0.06999999999991705 -0.004999999999995426 0.0
0.07000000000000817 7.617604463883153e-15 0.0
0.07000000000009932 0.005000000000002535 0.0
0.07499999999990853 -0.00499999999999602 0.0
0.07500000000000817 6.347786879468131e-15 0.0
0.07500000000010784 0.005000000000001941 0.0
0.0799999999998989 -0.004999999999996613 0.0
0.08000000000000605 5.077535614184114e-15 0.0
0.08000000000011315 0.00500000000000135 0.0
0.08499999999989175 -0.004999999999997203 0.0
0.08500000000000604 3.809019072376073e-15 0.0
0.08500000000012034 0.005000000000000759 0.0
0.08999999999988471 -0.004999999999997795 0.0
0.09000000000000632 2.538767807092057e-15 0.0
0.09000000000012796 0.005000000000000165 0.0
0.09499999999987702 -0.004999999999998389 0.0
0.09500000000000525 1.269817584415023e-15 0.0
0.0950000000001335 0.004999999999999572 0.0
0.0999999999998713 -0.004999999999998979 0.0
0.1000000000000055 0.0 0.0
0.1000000000001398 0.00499999999999898 0.0
0.1049999999998773 -0.004999999999999573 0.0
0.1050000000000058 -1.269817584415023e-15 0.0
0.1050000000001343 0.004999999999998389 0.0
0.1099999999998826 -0.005000000000000167 0.0
0.1100000000000047 -2.538767807092057e-15 0.0
0.1100000000001269 0.004999999999997796 0.0
0.1149999999998898 -0.005000000000000759 0.0
0.115000000000005 -3.808585391507079e-15 0.0
0.1150000000001201 0.004999999999997204 0.0
0.1199999999998968 -0.005000000000001348 0.0
0.120000000000005 -5.077535614184114e-15 0.0
0.1200000000001132 0.004999999999996612 0.0
0.1249999999999025 -0.005000000000001942 0.0
0.1250000000000041 -6.347570039033633e-15 0.0
0.1250000000001058 0.004999999999996019 0.0
0.1299999999999114 -0.005000000000002535 0.0
0.1300000000000055 -7.617387623448655e-15 0.0
0.1300000000000996 0.004999999999995426 0.0
0.1349999999999159 -0.005000000000003124 0.0
0.1350000000000039 -8.886121005691193e-15 0.0
0.1350000000000919 0.004999999999994834 0.0
0.1399999999999212 -0.005000000000003718 0.0
0.1400000000000028 -1.015593859010622e-14 0.0
0.1400000000000844 0.004999999999994243 0.0
0.1449999999999313 -0.005000000000004313 0.0
0.145000000000005 -1.142488881278325e-14 0.0
0.1450000000000786 0.004999999999993649 0.0
0.149999999999935 -0.005000000000004905 0.0
0.1500000000000028 -1.269492323763277e-14 0.0
0.1500000000000706 0.004999999999993059 0.0
0.1549999999999386 -0.005000000000005495 0.0
0.1550000000000006 -1.39645239816133e-14 0.0
0.1550000000000625 0.004999999999992468 0.0
0.1599999999999488 -0.005000000000006088 0.0
0.1600000000000028 -1.523369104472483e-14 0.0
0.1600000000000567 0.004999999999991874 0.0
0.164999999999954 -0.005000000000006681 0.0
0.1650000000000017 -1.650350862913985e-14 0.0
0.1650000000000492 0.00499999999999128 0.0
0.1699999999999586 -0.005000000000007271 0.0
0.17 -1.777224201138239e-14 0.0
0.1700000000000416 0.00499999999999069 0.0
0.1749999999999695 -0.005000000000007865 0.0
0.1750000000000027 -1.904162591492841e-14 0.0
0.175000000000036 0.004999999999990097 0.0
0.1799999999999731 -0.005000000000008458 0.0
0.1800000000000005 -2.031176875999518e-14 0.0
0.180000000000028 0.004999999999989503 0.0
0.1849999999999793 -0.005000000000009051 0.0
0.1850000000000001 -2.158109845343259e-14 0.0
0.1850000000000208 0.004999999999988913 0.0
0.1899999999999887 -0.00500000000000964 0.0
0.1900000000000016 -2.285031972665274e-14 0.0
0.1900000000000147 0.00499999999998832 0.0
0.1949999999999923 -0.005000000000010234 0.0
0.1949999999999995 -2.411956810492721e-14 0.0
0.1950000000000067 0.004999999999987727 0.0
0.004999999999994028 -0.007499999999993862 0.0
0.002499999999998547 -0.00499999999998743 0.0
0.005000000000000161 -0.002499999999981804 0.0
0.002500000000001614 2.475450400218903e-14 0.0
0.005000000000006294 0.002500000000017176 0.0
0.002500000000004679 0.00500000000001053 0.0
0.005000000000012425 0.007500000000005115 0.0
0.009999999999986214 -0.007499999999994159 0.0
0.007499999999994461 -0.004999999999988024 0.0
0.009999999999997443 -0.002499999999982735 0.0
0.007500000000003143 2.348512009864301e-14 0.0
0.01000000000000867 0.002500000000016246 0.0
0.007500000000011824 0.005000000000009937 0.0
0.0100000000000199 0.00750000000000482 0.0
0.0149999999999809 -0.007499999999994454 0.0
0.01249999999999081 -0.004999999999988615 0.0
0.01499999999999868 -0.002499999999983665 0.0
0.01250000000000532 2.221573619509698e-14 0.0
0.01500000000001647 0.002500000000015316 0.0
0.01250000000001983 0.005000000000009347 0.0
0.01500000000003425 0.007500000000004525 0.0
0.0199999999999764 -0.00749999999999475 0.0
0.01749999999998881 -0.004999999999989207 0.0
0.01999999999999926 -0.002499999999984595 0.0
0.01750000000000913 2.094635229155095e-14 0.0
0.02000000000002213 0.002500000000014384 0.0
0.01750000000002946 0.005000000000008754 0.0
0.02000000000004499 0.007500000000004227 0.0
0.02499999999997079 -0.007499999999995048 0.0
0.02249999999998615 -0.0049999999999898 0.0
0.02499999999999813 -0.002499999999985528 0.0
0.02250000000001124 1.967696838800492e-14 0.0
0.02500000000002547 0.002500000000013453 0.0
0.02250000000003635 0.00500000000000816 0.0
0.0250000000000528 0.007500000000003931 0.0
0.02999999999996129 -0.007499999999995341 0.0
0.0274999999999818 -0.004999999999990391 0.0
0.029999999999997 -0.002499999999986457 0.0
0.02750000000001332 1.84071508035899e-14 0.0
0.03000000000003271 0.002500000000012523 0.0
0.02750000000004485 0.005000000000007569 0.0
0.03000000000006841 0.007500000000003636 0.0
0.03499999999995014 -0.007499999999995639 0.0
0.03249999999997517 -0.004999999999990983 0.0
0.03499999999999222 -0.002499999999987388 0.0
0.03250000000001405 1.713776690004387e-14 0.0
0.0350000000000343 0.002500000000011592 0.0
0.03250000000005294 0.005000000000006977 0.0
0.03500000000007637 0.007500000000003339 0.0
0.03999999999993673 -0.007499999999995935 0.0
0.0374999999999663 -0.004999999999991576 0.0
0.03999999999998612 -0.00249999999998832 0.0
0.03750000000001203 1.586838299649784e-14 0.0
0.0400000000000355 0.002500000000010661 0.0
0.03750000000005776 0.005000000000006385 0.0
0.04000000000008488 0.007500000000003043 0.0
0.0449999999999265 -0.007499999999996231 0.0
0.04249999999995838 -0.004999999999992168 0.0
0.04499999999998416 -0.002499999999989249 0.0
0.0425000000000119 1.459921593338631e-14 0.0
0.04500000000004182 0.002500000000009731 0.0
0.04250000000006542 0.005000000000005792 0.0
0.04500000000009947 0.007500000000002747 0.0
0.04999999999991521 -0.007499999999996527 0.0
0.04749999999995121 -0.004999999999992759 0.0
0.04999999999997896 -0.002499999999990181 0.0
0.04750000000001191 1.333004887027478e-14 0.0
0.05000000000004273 0.0025000000000088 0.0
0.04750000000007263 0.005000000000005201 0.0
0.05000000000010648 0.007500000000002451 0.0
0.0549999999999039 -0.007499999999996824 0.0
0.05249999999994296 -0.004999999999993354 0.0
0.05499999999997376 -0.002499999999991113 0.0
0.05250000000000977 1.206001444542526e-14 0.0
0.05500000000004362 0.002500000000007868 0.0
0.05250000000007658 0.005000000000004608 0.0
0.05500000000011347 0.007500000000002154 0.0
0.05999999999989367 -0.00749999999999712 0.0
0.05749999999993578 -0.004999999999993947 0.0
0.0599999999999718 -0.002499999999992043 0.0
0.05750000000000978 1.079041370144473e-14 0.0
0.06000000000004992 0.002500000000006938 0.0
0.05750000000008376 0.005000000000004015 0.0
0.06000000000012805 0.007500000000001858 0.0
0.06499999999988265 -0.007499999999997415 0.0
0.06249999999992888 -0.004999999999994537 0.0
0.06499999999996742 -0.002499999999992973 0.0
0.06250000000001033 9.521029797898704e-15 0.0
0.06500000000005215 0.002500000000006006 0.0
0.06250000000009176 0.005000000000003423 0.0
0.06500000000013692 0.007500000000001562 0.0
0.06999999999987148 -0.007499999999997712 0.0
0.06749999999992104 -0.004999999999995129 0.0
0.0699999999999626 -0.002499999999993904 0.0
0.06750000000000897 8.251862734787173e-15 0.0
0.07000000000005374 0.002500000000005076 0.0
0.06750000000009693 0.00500000000000283 0.0
0.07000000000014488 0.007500000000001266 0.0
0.0749999999998587 -0.007499999999998009 0.0
0.07249999999991279 -0.004999999999995722 0.0
0.07499999999995835 -0.002499999999994836 0.0
0.07250000000000817 6.982695671675642e-15 0.0
0.075000000000058 0.002500000000004145 0.0
0.07250000000010358 0.005000000000002238 0.0
0.07500000000015768 0.007500000000000969 0.0
0.07999999999984535 -0.007499999999998306 0.0
0.07749999999990372 -0.004999999999996316 0.0
0.07999999999995247 -0.002499999999995768 0.0
0.07750000000000712 5.712661246826122e-15 0.0
0.0800000000000596 0.002500000000003214 0.0
0.0775000000001105 0.005000000000001645 0.0
0.08000000000016672 0.007500000000000674 0.0
0.0849999999998346 -0.007499999999998601 0.0
0.08249999999989532 -0.004999999999996908 0.0
0.0849999999999489 -0.002499999999996697 0.0
0.08250000000000604 4.443277343280093e-15 0.0
0.08500000000006319 0.002500000000002284 0.0
0.08250000000011674 0.005000000000001055 0.0
0.08500000000017749 0.007500000000000379 0.0
0.08999999999982392 -0.007499999999998896 0.0
0.08749999999988822 -0.004999999999997499 0.0
0.08999999999994551 -0.002499999999997628 0.0
0.08750000000000618 3.173893439734065e-15 0.0
0.09000000000006714 0.002500000000001352 0.0
0.08750000000012415 0.005000000000000462 0.0
0.09000000000018876 0.007500000000000081 0.0
0.09499999999981287 -0.007499999999999193 0.0
0.09249999999988087 -0.004999999999998092 0.0
0.09499999999994113 -0.002499999999998559 0.0
0.09250000000000579 1.90429269575354e-15 0.0
0.09500000000006938 0.002500000000000421 0.0
0.09250000000013073 0.004999999999999868 0.0
0.09500000000019763 0.007499999999999785 0.0
0.0999999999998042 -0.007499999999999489 0.0
0.09749999999987416 -0.004999999999998683 0.0
0.09999999999993842 -0.00249999999999949 0.0
0.09750000000000539 6.349087922075113e-16 0.0
0.1000000000000726 0.00249999999999949 0.0
0.09750000000013663 0.004999999999999277 0.0
0.1000000000002069 0.007499999999999489 0.0
0.104999999999813 -0.007499999999999785 0.0
0.1024999999998743 -0.004999999999999277 0.0
0.1049999999999416 -0.002500000000000422 0.0
0.1025000000000057 -6.349087922075113e-16 0.0
0.1050000000000701 0.002499999999998559 0.0
0.1025000000001371 0.004999999999998684 0.0
0.1050000000001986 0.007499999999999193 0.0
0.1099999999998215 -0.007500000000000082 0.0
0.1074999999998799 -0.00499999999999987 0.0
0.1099999999999436 -0.002500000000001353 0.0
0.1075000000000053 -1.90429269575354e-15 0.0
0.1100000000000658 0.002499999999997629 0.0
0.1075000000001306 0.004999999999998092 0.0
0.1100000000001879 0.007499999999998897 0.0
0.1149999999998323 -0.007500000000000379 0.0
0.1124999999998862 -0.005000000000000463 0.0
0.1149999999999474 -0.002500000000002284 0.0
0.1125000000000048 -3.173676599299568e-15 0.0
0.1150000000000625 0.002499999999996698 0.0
0.1125000000001235 0.0049999999999975 0.0
0.1150000000001776 0.007499999999998601 0.0
0.1199999999998427 -0.007500000000000673 0.0
0.1174999999998933 -0.005000000000001053 0.0
0.1199999999999509 -0.002500000000003213 0.0
0.117500000000005 -4.443060502845596e-15 0.0
0.1200000000000591 0.002499999999995767 0.0
0.1175000000001166 0.004999999999996908 0.0
0.1200000000001673 0.007499999999998305 0.0
0.1249999999998516 -0.00750000000000097 0.0
0.1224999999998996 -0.005000000000001645 0.0
0.1249999999999533 -0.002500000000004145 0.0
0.1225000000000045 -5.712552826608874e-15 0.0
0.125000000000055 0.002499999999994836 0.0
0.1225000000001095 0.004999999999996316 0.0
0.1250000000001567 0.007499999999998008 0.0
0.1299999999998644 -0.007500000000001266 0.0
0.1274999999999069 -0.005000000000002238 0.0
0.1299999999999585 -0.002500000000005076 0.0
0.1275000000000048 -6.982478831241145e-15 0.0
0.1300000000000525 0.002499999999993904 0.0
0.1275000000001027 0.004999999999995722 0.0
0.1300000000001466 0.007499999999997712 0.0
0.1349999999998719 -0.007500000000001561 0.0
0.1324999999999137 -0.005000000000002829 0.0
0.1349999999999599 -0.002500000000006005 0.0
0.1325000000000047 -8.251754314569924e-15 0.0
0.1350000000000479 0.002499999999992974 0.0
0.1325000000000957 0.00499999999999513 0.0
0.1350000000001359 0.007499999999997416 0.0
0.1399999999998804 -0.007500000000001858 0.0
0.1374999999999185 -0.005000000000003421 0.0
0.139999999999962 -0.002500000000006937 0.0
0.1375000000000033 -9.521029797898704e-15 0.0
0.1400000000000436 0.002499999999992043 0.0
0.1375000000000881 0.004999999999994538 0.0
0.1400000000001252 0.00749999999999712 0.0
0.1449999999998945 -0.007500000000002155 0.0
0.1424999999999262 -0.005000000000004016 0.0
0.1449999999999681 -0.002500000000007869 0.0
0.1425000000000039 -1.079041370144473e-14 0.0
0.1450000000000418 0.002499999999991112 0.0
0.1425000000000815 0.004999999999993946 0.0
0.1450000000001154 0.007499999999996823 0.0
0.1499999999999011 -0.007500000000002452 0.0
0.1474999999999332 -0.005000000000004609 0.0
0.1499999999999689 -0.0025000000000088 0.0
0.1475000000000039 -1.205990602520801e-14 0.0
0.1500000000000367 0.002499999999990182 0.0
0.1475000000000746 0.004999999999993354 0.0
0.1500000000001045 0.007499999999996528 0.0
0.1549999999999077 -0.007500000000002747 0.0
0.1524999999999368 -0.0050000000000052 0.0
0.1549999999999696 -0.00250000000000973 0.0
0.1525000000000017 -1.332972360962303e-14 0.0
0.1550000000000316 0.002499999999989252 0.0
0.1525000000000666 0.004999999999992763 0.0
0.1550000000000935 0.007499999999996233 0.0
0.1599999999999218 -0.007500000000003043 0.0
0.1574999999999437 -0.005000000000005791 0.0
0.1599999999999758 -0.002500000000010661 0.0
0.1575000000000017 -1.459910751316906e-14 0.0
0.1600000000000298 0.00249999999998832 0.0
0.1575000000000596 0.004999999999992171 0.0
0.1600000000000837 0.007499999999995936 0.0
0.1649999999999303 -0.007500000000003339 0.0
0.1624999999999514 -0.005000000000006384 0.0
0.1649999999999779 -0.002500000000011592 0.0
0.1625000000000022 -1.586859983693234e-14 0.0
0.1650000000000255 0.002499999999987388 0.0
0.162500000000053 0.004999999999991576 0.0
0.165000000000073 0.007499999999995639 0.0
0.1699999999999378 -0.007500000000003635 0.0
0.1674999999999563 -0.005000000000006975 0.0
0.1699999999999793 -0.002500000000012522 0.0
0.1675000000000009 -1.713787532026112e-14 0.0
0.1700000000000208 0.002499999999986459 0.0
0.1675000000000454 0.004999999999990985 0.0
0.1700000000000623 0.007499999999995344 0.0
0.1749999999999529 -0.007500000000003931 0.0
0.1724999999999641 -0.005000000000007569 0.0
0.1749999999999861 -0.002500000000013454 0.0
0.1725000000000014 -1.84069339631554e-14 0.0
0.1750000000000194 0.002499999999985528 0.0
0.1725000000000388 0.004999999999990393 0.0
0.1750000000000526 0.007499999999995047 0.0
0.1799999999999594 -0.007500000000004228 0.0
0.1774999999999713 -0.005000000000008162 0.0
0.1799999999999868 -0.002500000000014385 0.0
0.1775000000000017 -1.96766973374618e-14 0.0
0.1800000000000143 0.002499999999984596 0.0
0.177500000000032 0.0049999999999898 0.0
0.1800000000000417 0.00749999999999475 0.0
0.1849999999999689 -0.007500000000004525 0.0
0.1824999999999762 -0.005000000000008754 0.0
0.1849999999999897 -0.002500000000015316 0.0
0.1825000000000003 -2.094643360671388e-14 0.0
0.1850000000000104 0.002499999999983665 0.0
0.1825000000000244 0.004999999999989208 0.0
0.1850000000000311 0.007499999999994455 0.0
0.1899999999999821 -0.007500000000004819 0.0
0.187499999999984 -0.005000000000009345 0.0
0.1899999999999951 -0.002500000000016245 0.0
0.1875000000000009 -2.221570909004266e-14 0.0
0.1900000000000082 0.002499999999982735 0.0
0.1875000000000177 0.004999999999988617 0.0
0.1900000000000212 0.007499999999994159 0.0
0.1949999999999887 -0.007500000000005116 0.0
0.1924999999999905 -0.005000000000009937 0.0
0.1949999999999959 -0.002500000000017177 0.0
0.1925000000000006 -2.348494391578998e-14 0.0
0.1950000000000031 0.002499999999981804 0.0
0.1925000000000107 0.004999999999988024 0.0
0.1950000000000103 0.007499999999993862 0.0
0.1974999999999962 -0.00500000000001053 0.0
0.1974999999999997 -2.475449044966188e-14 0.0
0.1975000000000033 0.00499999999998743 0.0
CELLS 160 1440
8 0 4 176 171 43 293 294 175
8 171 176 177 170 294 295 296 174
8 170 177 178 169 296 297 298 173
8 169 178 128 3 298 299 168 172
8 4 5 179 176 44 300 301 293
8 176 179 180 177 301 302 303 295
8 177 180 181 178 303 304 305 297
8 178 181 127 128 305 306 167 299
8 5 6 182 179 45 307 308 300
8 179 182 183 180 308 309 310 302
8 180 183 184 181 310 311 312 304
8 181 184 126 127 312 313 166 306
8 6 7 185 182 46 314 315 307
8 182 185 186 183 315 316 317 309
8 183 186 187 184 317 318 319 311
8 184 187 125 126 319 320 165 313
8 7 8 188 185 47 321 322 314
8 185 188 189 186 322 323 324 316
8 186 189 190 187 324 325 326 318
8 187 190 124 125 326 327 164 320
8 8 9 191 188 48 328 329 321
8 188 191 192 189 329 330 331 323
8 189 192 193 190 331 332 333 325
8 190 193 123 124 333 334 163 327
8 9 10 194 191 49 335 336 328
8 191 194 195 192 336 337 338 330
8 192 195 196 193 338 339 340 332
8 193 196 122 123 340 341 162 334
8 10 11 197 194 50 342 343 335
8 194 197 198 195 343 344 345 337
8 195 198 199 196 345 346 347 339
8 196 199 121 122 347 348 161 341
8 11 12 200 197 51 349 350 342
8 197 200 201 198 350 351 352 344
8 198 201 202 199 352 353 354 346
8 199 202 120 121 354 355 160 348
8 12 13 203 200 52 356 357 349
8 200 203 204 201 357 358 359 351
8 201 204 205 202 359 360 361 353
8 202 205 119 120 361 362 159 355
8 13 14 206 203 53 363 364 356
8 203 206 207 204 364 365 366 358
8 204 207 208 205 366 367 368 360
8 205 208 118 119 368 369 158 362
8 14 15 209 206 54 370 371 363
8 206 209 210 207 371 372 373 365
8 207 210 211 208 373 374 375 367
8 208 211 117 118 375 376 157 369
8 15 16 212 209 55 377 378 370
8 209 212 213 210 378 379 380 372
8 210 213 214 211 380 381 382 374
8 211 214 116 117 382 383 156 376
8 16 17 215 212 56 384 385 377
8 212 215 216 213 385 386 387 379
8 213 216 217 214 387 388 389 381
8 214 217 115 116 389 390 155 383
8 17 18 218 215 57 391 392 384
8 215 218 219 216 392 393 394 386
8 216 219 220 217 394 395 396 388
8 217 220 114 115 396 397 154 390
8 18 19 221 218 58 398 399 391
8 218 221 222 219 399 400 401 393
8 219 222 223 220 401 402 403 395
8 220 223 113 114 403 404 153 397
8 19 20 224 221 59 405 406 398
8 221 224 225 222 406 407 408 400
8 222 225 226 223 408 409 410 402
8 223 226 112 113 410 411 152 404
8 20 21 227 224 60 412 413 405
8 224 227 228 225 413 414 415 407
8 225 228 229 226 415 416 417 409
8 226 229 111 112 417 418 151 411
8 21 22 230 227 61 419 420 412
8 227 230 231 228 420 421 422 414
8 228 231 232 229 422 423 424 416
8 229 232 110 111 424 425 150 418
8 22 23 233 230 62 426 427 419
8 230 233 234 231 427 428 429 421
8 231 234 235 232 429 430 431 423
8 232 235 109 110 431 432 149 425
8 23 24 236 233 63 433 434 426
8 233 236 237 234 434 435 436 428
8 234 237 238 235 436 437 438 430
8 235 238 108 109 438 439 148 432
8 24 25 239 236 64 440 441 433
8 236 239 240 237 441 442 443 435
8 237 240 241 238 443 444 445 437
8 238 241 107 108 445 446 147 439
8 25 26 242 239 65 447 448 440
8 239 242 243 240 448 449 450 442
8 240 243 244 241 450 451 452 444
8 241 244 106 107 452 453 146 446
8 26 27 245 242 66 454 455 447
8 242 245 246 243 455 456 457 449
8 243 246 247 244 457 458 459 451
8 244 247 105 106 459 460 145 453
8 27 28 248 245 67 461 462 454
8 245 248 249 246 462 463 464 456
8 246 249 250 247 464 465 466 458
8 247 250 104 105 466 467 144 460
8 28 29 251 248 68 468 469 461
8 248 251 252 249 469 470 471 463
8 249 252 253 250 471 472 473 465
8 250 253 103 104 473 474 143 467
8 29 30 254 251 69 475 476 468
8 251 254 255 252 476 477 478 470
8 252 255 256 253 478 479 480 472
8 253 256 102 103 480 481 142 474
8 30 31 257 254 70 482 483 475
8 254 257 258 255 483 484 485 477
8 255 258 259 256 485 486 487 479
8 256 259 101 102 487 488 141 481
8 31 32 260 257 71 489 490 482
8 257 260 261 258 490 491 492 484
8 258 261 262 259 492 493 494 486
8 259 262 100 101 494 495 140 488
8 32 33 263 260 72 496 497 489
8 260 263 264 261 497 498 499 491
8 261 264 265 262 499 500 501 493
8 262 265 99 100 501 502 139 495
8 33 34 266 263 73 503 504 496
8 263 266 267 264 504 505 506 498
8 264 267 268 265 506 507 508 500
8 265 268 98 99 508 509 138 502
8 34 35 269 266 74 510 511 503
8 266 269 270 267 511 512 513 505
8 267 270 271 268 513 514 515 507
8 268 271 97 98 515 516 137 509
8 35 36 272 269 75 517 518 510
8 269 272 273 270 518 519 520 512
8 270 273 274 271 520 521 522 514
8 271 274 96 97 522 523 136 516
8 36 37 275 272 76 524 525 517
8 272 275 276 273 525 526 527 519
8 273 276 277 274 527 528 529 521
8 274 277 95 96 529 530 135 523
8 37 38 278 275 77 531 532 524
8 275 278 279 276 532 533 534 526
8 276 279 280 277 534 535 536 528
8 277 280 94 95 536 537 134 530
8 38 39 281 278 78 538 539 531
8 278 281 282 279 539 540 541 533
8 279 282 283 280 541 542 543 535
8 280 283 93 94 543 544 133 537
8 39 40 284 281 79 545 546 538
8 281 284 285 282 546 547 548 540
8 282 285 286 283 548 549 550 542
8 283 286 92 93 550 551 132 544
8 40 41 287 284 80 552 553 545
8 284 287 288 285 553 554 555 547
8 285 288 289 286 555 556 557 549
8 286 289 91 92 557 558 131 551
8 41 42 290 287 81 559 560 552
8 287 290 291 288 560 561 562 554
8 288 291 292 289 562 563 564 556
8 289 292 90 91 564 565 130 558
8 42 1 83 290 82 86 566 559
8 290 83 84 291 566 87 567 561
8 291 84 85 292 567 88 568 563
8 292 85 2 90 568 89 129 565
CELL_TYPES 160
23
23
23
23
23
23
23
23
23
23
23
23
23
23
23
23
23
23
23
23
23
23
23
23
23
23
23
23
23
23
23
23
23
23
23
23
23
23
23
23
23
23
23
23
23
23
23
23
23
23
23
23
23
23
23
23
23
23
23
23
23
23
23
23
23
23
23
23
23
23
23
23
23
23
23
23
23
23
23
23
23
23
23
23
23
23
23
23
23
23
23
23
23
23
23
23
23
23
23
23
23
23
23
23
23
23
23
23
23
23
23
23
23
23
23
23
23
23
23
23
23
23
23
23
23
23
23
23
23
23
23
23
23
23
23
23
23
23
23
23
23
23
23
23
23
23
23
23
23
23
23
23
23
23
23
23
23
23
23
23
POINT_DATA 569
SCALARS stress11 float
LOOKUP_TABLE default
-227524751.234375
-260880752540.1328
260880952886.53125
227524838.125
-3215724002.9921875
-11519279554.273438
-18142411002.085938
-24086386051.335938
-30027952335.625
-35986584331.78906
-41936420847.55469
-47890689834.16797
-53829654015.60547
-59771668820.09766
-65719917893.208984
-71661736830.7207
-77619499711.90039
-83566913240.38086
-89518143610.6582
-95461477013.50488
-101406756594.9248
-107356690183.66162
-113296796984.24585
-119236818555.6167
-125168954802.80566
-131098465412.55566
-137027475875.27148
-142953855867.64844
-148873293439.5547
-154787773830.3164
-160698087012.84766
-166607402368.16797
-172517667966.72266
-178424231912.47266
-184327873602.16797
-190226525039.27734
-196120014017.95312
-202011913127.32422
-207888078465.02734
-213776258370.4375
-219400428356.76172
-222747136611.4336
-227848876048.0703
-1466912289.515625
-7945247986.296875
-14951825645.222656
-21090034200.898438
-27061272956.515625
-33004643132.41797
-38966738721.984375
-44913705294.25
-50861889056.609375
-56799112748.03125
-62747516406.896484
-68690991887.83203
-74638232351.71289
-80595671132.07227
-86540382875.99414
-92490924274.23242
-98430137557.43164
-104381335262.06396
-110324140220.87354
-116264668534.82373
-122200865745.97656
-128131216503.69922
-134059692521.80371
-139987612253.24414
-145910365276.4453
-151826423171.82227
-157739215096.8086
-163647470313.2754
-169557891813.51562
-175465613493.7539
-181370800362.21875
-187271309102.375
-193166941181.14453
-199058373511.13672
-204945671776.11328
-210806228901.97656
-216636930150.9297
-221748982905.69922
-222285636438.71484
-238555032883.1797
-110002927773.33594
79557.484375
110003083250.46094
-183619019071.8672
-52884123722.75
52884274836.671875
183619202716.3125
227849032997.09375
222747273021.0
219400564764.30078
213776405686.07422
207888228014.03906
202012060796.22266
196120151534.17188
190226661710.4414
184328023454.16797
178424380645.05078
172517806679.28125
166607551724.125
160698225609.83398
154787912709.81836
148873433004.81445
142953995209.54883
137027606653.42188
131098587382.56543
125169084547.53125
119236907755.48071
113296833110.37427
107356711283.24805
101406873739.66992
95461594646.94922
89518138030.37305
83566925928.6211
77619531209.7793
71661771497.22852
65719951363.541016
59771698377.97266
53829674064.14844
47890708315.55469
41936435492.76953
35986594791.61328
30027959840.714844
24086390256.23828
18142413419.703125
11519280591.046875
3215724534.5078125
238555216358.66406
222285766501.21094
221749127022.40625
216637077124.75
210806375622.97266
204945820177.03906
199058521060.1172
193167087628.1328
187271455398.8711
181370951484.72656
175465760642.35547
169558040336.21484
163647601172.89258
157739363113.89844
151826570278.7832
145910515997.61914
139987741919.10547
134059823224.98438
128131339516.6875
122200992837.32715
116264719349.43799
110324168869.61328
104381383744.57666
98430264306.13086
92490963678.57422
86540386016.05078
80595693518.2832
74638272426.86914
68691024993.32617
62747545644.06445
56799137372.453125
50861904882.36328
44913721758.35156
38966751092.67578
33004651133.027344
27061279289.23047
21090038148.09375
14951827762.929688
7945248485.203125
1466912459.1015625
315198264.59375
29.9296875
-315198378.6875
-1407930915.3125
7786103312.734375
-7786103322.671875
1407930985.640625
-5580188828.7109375
65.03125
5580188988.6484375
-6271453720.847656
473.12890625
6271454556.394531
-9053490803.867188
1247.58203125
9053493513.839844
-11988171629.875
2206.34375
11988176895.128906
-14988647140.839844
3469.88671875
14988654458.523438
-17981853927.617188
4894.6015625
17981863316.929688
-20978688527.777344
6731.74609375
20978703002.960938
-23968156110.55078
8621.390625
23968173480.32422
-26961842000.820312
10813.1875
26961864005.492188
-29951151420.69922
13147.83203125
29951177049.910156
-32939542049.220703
15776.90625
32939574488.728516
-35929917587.83008
19168.33984375
35929954707.98242
-38920338512.96875
24538.005859375
38920380524.21289
-41914843522.48047
32848.765625
41914896208.98242
-44902910070.04492
43175.69921875
44902971427.69043
-47892201685.572266
16234.2578125
47892248405.46875
-50881695796.305664
18715.6279296875
50881746527.359375
-53870465790.39209
51100.2138671875
53870542851.563965
-56857770523.958496
44080.366943359375
56857846509.32495
-59841435260.75537
53595.919677734375
59841535658.24634
-62826049109.00049
66060.580078125
62826177234.03662
-65808049217.22266
64837.05859375
65808176642.89844
-68789360727.31836
66308.0400390625
68789491687.875
-71768769402.41406
67739.38671875
71768904424.46484
-74746170272.79688
68725.34375
74746308706.75586
-77722270357.94727
70253.861328125
77722409828.47656
-80697502016.0039
70633.205078125
80697640779.36719
-83672333721.24219
71479.3125
83672479538.77734
-86646650204.8125
71672.453125
86646792786.57812
-89621477009.40234
72230.875
89621622530.8125
-92595353185.4961
72861.28515625
92595502088.95312
-95569367896.46484
72559.4765625
95569508272.82812
-98542893740.71484
72789.57421875
98543036474.67578
-101516610114.14062
73145.0703125
101516757729.88672
-104488585719.16406
73160.59765625
104488734010.69531
-107459679938.32422
73712.390625
107459827704.76172
-110578946001.53906
75223.99609375
110579085984.01562
-114458973421.6875
80652.26171875
114459113088.78906
-122975946026.08594
79575.1328125
122976136315.82812
-4078033891.1640625
-2103115029.1171875
-3804918371.984375
-14.8515625
3804918615.171875
2103115068.9921875
4078034259.359375
-8917346683.710938
-5186612421.390625
-3821575645.8984375
269.65625
3821576797.96875
5186613165.3671875
8917347956.042969
-13447903815.894531
-7759256675.2890625
-4573210532.4609375
867.609375
4573213079.3359375
7759258436.7578125
13447906875.019531
-17997615213.046875
-10516605482.46875
-6010417897.203125
1789.4765625
6010422750.65625
10516608476.890625
17997619192.960938
-22477875338.472656
-13495962616.808594
-7495355816.1796875
2909.5390625
7495363000.175781
13495968198.199219
22477881293.359375
-26977278846.421875
-16485322142.042969
-8989857129.046875
4201.0703125
8989867340.585938
16485330171.730469
26977287865.79297
-31465447817.765625
-19480530455.609375
-10489432905.441406
5871.58984375
10489446142.835938
19480542752.742188
31465461034.59375
-35954771484.19141
-22473108728.777344
-11984075079.648438
7642.07421875
11984091946.445312
22473124028.98047
35954789928.37891
-40439560241.09766
-25465219979.285156
-13478346208.933594
9747.91796875
13478367632.257812
25465240457.472656
40439582700.33203
-44920205369.08594
-28457354627.910156
-14976151661.210938
12019.66796875
14976178288.023438
28457378083.601562
44920229611.00781
-49405800509.78906
-31445883314.253906
-16468012252.583984
14471.859375
16468043972.259766
31445912002.84375
49405831153.384766
-53886738174.44531
-34434352581.927734
-17963430702.958984
17419.83203125
17963468500.41797
34434386385.82422
53886773008.12305
-58375452682.771484
-37424839847.0918
-19458309009.179688
21751.669921875
19458357063.472656
37424877568.26367
58375489508.572266
-62861343471.58008
-40417812412.71875
-20954493762.753906
28154.501953125
20954556205.845703
40417857269.16406
62861378568.96289
-67345776430.71973
-43408926692.265625
-22449318791.847656
36386.255859375
22449400655.655273
43408979915.92969
67345805783.98535
-71828264199.41602
-46397384480.79297
-23942979651.526367
35213.587890625
23943018327.14258
46397437227.19922
71828333255.57227
-76310477648.12402
-49386144188.552734
-25437709244.48047
28775.880859375
25437754269.51172
49386193694.72656
76310550837.58398
-80794114281.75537
-52376079635.30908
-26931892948.75879
39997.7177734375
26931990287.072754
52376140437.487305
80794157522.44482
-85273180659.7456
-55364236786.681885
-28424259565.059814
47731.1240234375
28424352565.95752
55364312789.14673
85273240917.8003
-89749853082.26709
-58348757246.1438
-29916730688.166992
40075.13018798828
29916836192.522217
58348826863.66919
89749947183.05371
-94223946068.42236
-61333030266.26807
-31408434943.444336
68142.3583984375
31408558031.29785
61333161438.86572
94224065779.68164
-98695501770.5625
-64316650209.930176
-32899126192.2959
63445.869140625
32899256114.26758
64316779366.34375
98695628734.92578
-103166793003.20508
-67298529195.583984
-34389427112.802734
65818.7685546875
34389561349.99609
67298660297.92383
103166923460.1748
-107635302299.88477
-70278821985.3877
-35878495493.17383
66985.9609375
35878630634.1543
70278952347.75195
107635442030.92383
-112100145166.69727
-73257035098.1289
-37367634688.05664
68068.9375
37367771922.73242
73257172934.69531
112100284854.41406
-116562816468.91602
-76233534221.42773
-38855083608.28125
68973.755859375
38855223033.458984
76233671259.66016
116562955473.36523
-121023438540.22461
-79209166343.10156
-40342389327.42383
70168.166015625
40342530671.25586
79209305722.0293
121023581911.2461
-125483909650.75977
-82184130381.77734
-41829796066.10547
71009.63671875
41829939283.83984
82184273345.875
125484048497.53125
-129944909015.8164
-85158572167.82812
-43316342197.74219
71704.29296875
43316485527.81641
85158720343.28125
129945052370.35156
-134405494316.72656
-88133413809.48828
-44803428792.41406
71812.4921875
44803574198.640625
88133561488.00781
134405637472.88281
-138865356850.58984
-91107615387.4375
-46290102282.72656
71818.92578125
46290245614.07422
91107758834.9375
138865495496.34375
-143324297199.26562
-94081517652.76172
-47776535868.078125
72711.16796875
47776683551.67578
94081660759.57422
143324444782.47266
-147783434125.53125
-97055382606.89844
-49262743030.68359
72348.546875
49262890524.86328
97055525542.66797
147783581611.41406
-152240268174.98047
-100028540556.32422
-50749637250.90625
73009.53515625
50749784777.57422
100028683502.47266
152240415234.9414
-156705092370.42578
-103002603182.99219
-52230970833.34766
73152.4921875
52231118274.60156
103002750678.8164
156705230822.79688
-161117532259.48828
-105985533846.82422
-53787513386.13672
73252.50390625
53787660821.11719
105985676740.94531
161117679944.30078
-165587052864.9336
-108992156417.73828
-55252770679.8125
74890.51953125
55252920212.60156
108992303938.3125
165587200299.5625
-170695942743.5586
-112646625086.29688
-58001268946.5
79569.3203125
58001424823.82031
112646759005.11719
170696090453.41406
-176632177963.90625
-116134722620.60938
-60653830881.109375
78224.5234375
60654001693.0625
116134887040.3125
176632342779.28906
-113060992555.75781
80106.421875
113061161297.625
SCALARS stress22 float
LOOKUP_TABLE default
2083655034.3515625
-96319574702.10938
96319658755.0625
-2083655183.765625
410094595.2578125
93415928.0703125
-70676853.875
1745274.0390625
-11522101.703125
-7327983.15625
-3085839.234375
-9834952.8515625
-13288678.578125
-9306528.26171875
-10688655.31640625
-14986688.45703125
-10628384.03515625
-8568058.3203125
-10792393.197265625
-14800615.152832031
-18609795.630371094
-14707419.241210938
-19198307.029296875
-16620964.7734375
-16682723.78125
-21928992.4296875
-20756416.05859375
-24114337.015625
-24792584.49609375
-28160778.2734375
-31148523.5546875
-31552217.4921875
-37296085.609375
-42429024.4140625
-48736752.59375
-57729701.515625
-66865248.671875
-90671214.796875
-87059700.78125
-260311855.5625
208146032.40625
-1461995754.3125
4824408193.09375
-452268527.796875
3656118.2890625
-17223416.484375
-23026606.8125
-8596917.8984375
-11222144.765625
-10950468.7734375
-11146436.9921875
-14493690.37109375
-13422171.84765625
-15816716.39453125
-15663472.046875
-15057733.2421875
-15419552.20703125
-13270225.8671875
-17228909.97265625
-17831052.517089844
-20398549.555664062
-19274960.03515625
-20355535.322265625
-20561933.50390625
-22757169.578125
-23943313.23046875
-25393113.109375
-27582409.31640625
-29123348.953125
-32039762.78125
-33652515.5
-37409587.09375
-42084243.0546875
-48027359.625
-55524983.5234375
-64107929.3046875
-80295567.8359375
-88637598.875
-170166415.140625
-108351.875
-1261721283.140625
4972636656.65625
-24222833708.5
-43027937986.953125
33976.609375
43028003525.5625
-70486291381.6875
-21756657423.359375
21756722347.765625
70486363934.40625
-4824410557.84375
1461995331.890625
-208148593.75
260312658.4375
87059690.375
90671280.3359375
66865255.6640625
57729696.21875
48736727.890625
42428982.8828125
37296034.4453125
31552152.765625
31148436.2890625
28160680.9140625
24792480.953125
24114205.69921875
20756448.0859375
21928099.0703125
16687150.525390625
16621128.46484375
19189289.408203125
14701760.253417969
18619293.44921875
14810361.979003906
10785250.109375
8567801.158203125
10627914.3828125
14986750.19921875
10688375.8125
9306207.546875
13288292.00390625
9834550.8984375
3085484.40625
7327610.59375
11521784.234375
-1745519.8515625
70676591.0703125
-93416225.625
-410094833.9765625
24222858109.5
-4972644445.859375
1261721645.25
108234.375
170166647.921875
88637626.96875
80295596.3828125
64107923.9375
55524965.21875
48027318.8359375
42084187.4296875
37409526.296875
33652427.0390625
32039655.3125
29123236.26953125
27582275.4140625
25392985.71484375
23943327.4296875
22755698.916015625
20572481.564453125
20344364.724609375
19267019.553710938
20412291.934570312
17733313.91357422
17242273.81640625
13262453.7890625
15420113.0234375
15057516.83984375
15663247.76953125
15816358.9609375
13421785.00390625
14493233.59765625
11146021.9609375
10950093.3125
11221719.3359375
8596647.265625
23026339.4609375
17223084.8828125
-3656397.7890625
452268233.671875
7813676265.3046875
-10.3125
-7813676964.0859375
216097442.765625
20553239949.023438
-20553239978.28125
-216097563.828125
-907613364.0703125
-166.59375
907613059.5859375
518551785.8359375
-195.7578125
-518552090.5703125
80290761.421875
-194.9296875
-80291108.6796875
22613916.6171875
-190.65625
-22614227.484375
1411126.0078125
-226.140625
-1411498.0546875
-4855331.4921875
-261.9140625
4854909.015625
-1406636.3984375
-273.296875
1406192.359375
-7037057.4765625
-297.8515625
7036580.625
-759008.1796875
-329.49609375
758504.703125
3333654.9765625
-475.0859375
-3334276.2890625
2553818.34765625
-973.75
-2554925.6015625
-59892.3046875
-2143.88671875
57563.05078125
-4021501.30078125
-3624.875
4017466.701171875
1136105.43359375
-2374.75
-1139587.0390625
-3129826.736328125
17031.6171875
3151961.2138671875
-1631171.7431640625
85511.05078125
1723298.810546875
750634.96875
85424.0478515625
-658544.533203125
-1171575.544921875
16098.0869140625
1192769.5102539062
-2480510.1748046875
-6960.912109375
2469050.0966796875
-3949730.083984375
-4485.775390625
3944496.896484375
-1197709.5078125
449.998046875
1200187.16796875
-491685.73046875
-884.71484375
490400.1953125
838229.62890625
-528.41015625
-838813.83984375
324407.81640625
-331.47265625
-324807.7421875
-590054.3828125
-221.80078125
589775.421875
-1860366.9375
-172.125
1860137.7421875
-1364783.0546875
-146.171875
1364587.0703125
690100.5078125
-123.796875
-690266.3203125
32841.109375
-105.109375
-32981.2890625
327328.203125
-89.5234375
-327449.9140625
683303.6875
-72.6640625
-683401.625
1230255.78125
-61.0234375
-1230335.75
1277641.46875
-67.015625
-1277720.3828125
1405190.78125
-113.71875
-1405321.015625
4297199.84375
-289.59375
-4297428.109375
50573234.921875
-438.015625
-50573714.734375
154527734.125
-2423.984375
-154526314.0
1372976898.03125
18.125
-1372976496.5
-8338592265.984375
16065.875
8338611140.203125
170984349.7734375
-1370237619.8359375
-224783856.234375
5.0234375
224783615.359375
1370237413.796875
-170984527.765625
99746181.3828125
193396218.5390625
107758129.3203125
-200.3046875
-107758442.9296875
-193396516.09375
-99746376.5625
56158894.78125
239555312.6484375
72793886.5078125
-180.8046875
-72794224.6796875
-239555637.7109375
-56159116.6953125
3017626.9765625
32103723.5546875
11998468.984375
-173.640625
-11998799.6796875
-32104043.59375
-3017827.5703125
2326673.9375
5185103.3828125
-1135021.7109375
-189.6484375
1134625.0859375
-5185427.9140625
-2326917.7578125
-4994680.7578125
-2428823.4609375
-595893.390625
-232.9921875
595430.8046875
2428399.0625
4994399.0390625
3021752.234375
-4045111.4140625
-2905640.9140625
-256.7890625
2905145.84375
4044674.875
-3022042.96875
-3647342.765625
-4594012.3984375
-5612435.15625
-277.6953125
5611885.265625
4593536.046875
3647021.5625
-5790991.39453125
-4369869.78515625
4286360.6171875
-307.328125
-4286975.07421875
4369353.15625
5790655.81640625
4521740.7109375
807278.56640625
-2846964.06640625
-376.07421875
2846123.54296875
-807835.515625
-4522126.13671875
-991456.91796875
1303318.0703125
2672476.76171875
-653.48046875
-2674092.390625
-1304134.94921875
990834.07421875
-2843525.9453125
889154.3984375
763331.59765625
-1420.84375
-766632.9609375
-890792.14453125
2842376.66015625
-1941460.697265625
-1980332.6328125
-3613527.015625
-2864.49609375
3607826.3515625
1977187.92578125
1939494.0078125
1832582.1953125
-2392415.515625
1421433.009765625
-3942.408203125
-1423575.25
2387624.87890625
-1833678.5859375
-439277.91796875
-1457767.0625
-3248377.970703125
3587.95703125
3277498.94921875
1460962.001953125
449633.3173828125
-3672852.603515625
-2888452.6279296875
61781.4833984375
36523.619140625
103012.220703125
2938162.6513671875
3692257.3349609375
-2351717.3354492188
245780.9541015625
450921.82958984375
165348.482421875
-286315.30078125
-137024.51318359375
2371087.7211914062
-871229.4487304688
-397884.59716796875
-1670324.83984375
36100.46142578125
1697580.5234375
447170.80615234375
880953.7724609375
-4379848.21484375
-1890035.234375
571429.5341796875
1876.7060546875
-579624.943359375
1891363.6337890625
4374768.70703125
-1919625.65234375
-2689222.419921875
-3377469.955078125
-10141.158203125
3370421.640625
2673054.3359375
1917161.123046875
-310677.53125
-2759008.333984375
-1096760.53125
1603.564453125
1094812.72265625
2764919.251953125
310540.119140625
-1882207.765625
-960188.708984375
58556.078125
-1044.91796875
-59631.82421875
958592.5625
1881784.52734375
-644309.0
-27999.984375
914772.3125
-666.5390625
-915783.94140625
27238.3359375
643931.29296875
-1302752.75
-12484.45703125
1191732.36328125
-474.01953125
-1192375.87890625
11922.5078125
1302500.546875
-664723.21875
-396003.453125
-1304805.93359375
-306.09375
1304338.48828125
395627.80859375
664529.39453125
-2453990.3515625
-1099526.89453125
-1154399.25
-232.109375
1154020.9140625
1099230.828125
2453827.84375
-2136658.6875
-1215769.515625
-825409.3203125
-192.4140625
825085.7734375
1215516.3359375
2136517.484375
417749.6328125
-100642.796875
-356501.1796875
-165.875
356225.7265625
100425.1484375
-417868.3046875
-922722.5625
259587.3359375
19782.640625
-140.203125
-20015.8984375
-259768.84375
922621.7265625
-856461.8671875
161016.9296875
-127521.5625
-119.53125
127322.890625
-161174.734375
856374.5
-407700.3203125
421297.6640625
-402172.5703125
-99.84375
402010.375
-421429.84375
407629.875
-497087.875
837831.28125
264320.25
-80.3828125
-264454.203125
-837936.1015625
497032.0
-338106.796875
1007615.6171875
21862.84375
-72.0
-21997.046875
-1007705.1015625
338054.265625
-817637.734375
1596631.3671875
-206465.5703125
-87.4375
206264.078125
-1596741.4375
817574.265625
1620102.28125
-129484.71875
4504835.421875
-188.6953125
-4505233.765625
129341.7578125
-1620233.5625
7962428.53125
23649621.5625
10195879.4375
-301.9375
-10196693.09375
-23650174.515625
-7962463.59375
173610545.234375
27562035.859375
212688192.953125
-1319.203125
-212688947.015625
-27561063.4375
-173610047.5625
11050115.75
843025786.40625
23638052.125
-1324.328125
-23635946.8125
-843027446.640625
-11049013.90625
-3224794617.703125
-1469316481.25
-2325910482.125
5639.0625
2325933466.328125
1469325122.4375
3224802564.703125
-12936966842.46875
24649.53125
12936996527.734375
SCALARS stress12 float
LOOKUP_TABLE default
-751931677.6842041
44171164543.05414
44171222500.48688
-751931838.3273926
737674114.7503662
427216266.4633789
403002728.157959
347109541.6405029
347651974.4213867
345120145.5406494
346515539.3985596
344923602.2702637
345420722.2919922
345642882.25561523
343111962.5515137
344257955.7108154
344096704.7628174
344137056.12194824
343188868.0505371
344032611.9136963
345106655.55877686
345512896.32940674
344818725.9926758
344791704.11328125
344453481.53948975
345100062.7428589
345793220.6860962
345627766.46484375
345958823.48864746
347128016.9716797
349514294.9336548
351015461.9827881
352489693.783844
355134424.56048584
358703619.3260803
362973763.1793213
369372443.13253784
377653922.3404236
395987118.39004517
401971379.1378174
443718743.47247314
-543713935.4953613
-2310785552.968445
205208041.9885254
580937102.7459717
322000851.35632324
290353169.5686035
271948274.7010498
277968099.5218506
270142288.34716797
276216280.79089355
272742666.0876465
270771699.44018555
274840536.7277832
269880443.0961914
273820390.8673096
269923847.3297119
272905958.04833984
271531640.7373047
272026084.4692383
273666027.4060669
273693124.3791504
272544322.8909912
271700167.9077759
273385024.50390625
273264111.75787354
274401086.3565674
273644801.6960449
274977507.3566284
276539766.58929443
278038105.11364746
280528785.5704956
281874212.7378845
285202678.046051
289179202.7031555
294215297.10943604
302186457.3404846
312719274.02975464
336522533.80400085
316150308.1148529
411427744.0790405
-1499244829.388733
19158318353.31494
-3727127783.2648315
-15013692020.63839
-3727106563.542938
19271015530.37137
-12324068566.276978
-12324059696.943542
19271057970.46289
-2310784872.9335938
-543716066.8660278
443720537.96572876
401971367.5026245
395987122.17671204
377653926.9415436
369372394.6390381
362973648.2826233
358703478.54037476
355134201.2375183
352489361.64157104
351014983.80877686
349513809.42767334
347127272.895813
345957955.2807617
345626656.1589966
345792018.9483032
345098872.3067627
344453025.09039307
344772313.2321167
344822267.8948364
345511800.41638184
345075925.03564453
344059260.0662842
343185964.40966797
344130323.2286377
344093178.6446533
344255494.7811279
343109934.7487793
345641001.595459
345418908.1143799
344921998.62683105
346514033.79992676
345118846.28686523
347650875.70983887
347108570.7437744
403002025.79296875
427215746.75
737673923.8352051
19158344524.804962
-1499245420.6175537
411427779.1194458
316150825.02130127
336522454.8256378
312719204.3818512
302186433.14920044
294215241.4656067
289179051.26708984
285202514.4093323
281873924.636322
280528410.31433105
278037551.83776855
276539105.75860596
274976763.52783203
273643828.3015747
274399928.55999756
273262751.2317505
273384673.50823975
271689495.3679199
272536225.4975586
273695572.6660156
273645081.2883301
272023962.8903198
271548436.61083984
272899005.1867676
269919978.8808594
273817709.03356934
269878292.8173828
274838574.59851074
270769813.00354004
272740908.5864258
276214739.4433594
270140841.9399414
277966931.1867676
271947301.81640625
290352354.20202637
322000200.9436035
580936673.5761719
205207930.70581055
1904890971.5336914
13510863048.549927
1904890840.347046
-151459688.01367188
7803914721.977539
7803914624.506592
-151459671.38220215
5934025150.76123
3441313331.53125
5934025178.562866
4875169048.071777
5556551605.986206
4875168918.068481
4687810254.26416
6048700946.470581
4687810342.232178
4642799823.583008
6132586199.25354
4642799833.30957
4642452907.291138
6144884701.29834
4642452797.581665
4646007857.236694
6148970578.50647
4646007916.834961
4641887334.330933
6143072414.218018
4641887481.029297
4638544612.346924
6136483254.738159
4638544600.983154
4633364741.80249
6132857360.493042
4633364551.395386
4635812419.741333
6134753392.864868
4635812336.168701
4636004769.386353
6134893520.992432
4636003956.816895
4637595402.869873
6138227878.465088
4637593009.935303
4639942223.471802
6140497417.564209
4639935934.908569
4637117531.608032
6136793459.139526
4637106877.735596
4635679262.055786
6133787647.63269
4635672386.429443
4633337868.749634
6132323948.209839
4633429644.952026
4635990059.153381
6134737352.596558
4635899350.670044
4634954661.328186
6133339901.7127075
4634961524.066711
4631339447.230408
6129272368.598328
4631349674.072876
4627508371.874268
6124555760.448364
4627514746.207275
4623992552.455383
6119258761.713074
4623994046.479492
4622669596.250488
6116943600.737305
4622670700.847961
4621634140.104492
6115652510.373596
4621634550.795349
4618348635.44281
6112159839.057251
4618348736.139709
4614594476.24115
6107597805.106323
4614594561.569519
4612650748.556091
6104849157.504517
4612650681.679321
4612127971.721313
6104138324.394714
4612127913.797974
4612807990.860596
6104213213.977478
4612808155.996613
4612138118.872711
6103598820.106293
4612138197.404633
4611504224.638306
6103030696.648346
4611504082.507904
4611043568.076416
6102485201.494934
4611043405.694122
4610251297.887604
6101642297.207092
4610251217.36087
4610060614.637238
6101449282.5997925
4610060451.5468445
4609854028.844452
6100654918.401276
4609853754.683014
4610361027.046921
6104282178.083084
4610360931.73349
4592389482.639725
6119532692.190735
4592388734.808212
4503370407.045593
6423664891.305313
4503367686.625641
4540173119.38707
6851129635.216339
4540169777.934479
6975070908.212524
6670034103.100838
6975078757.095337
3280395522.303589
4317912755.962769
4665840315.086548
7732446449.126221
4665840318.202637
4317912620.673828
3280395522.4473877
2838130144.888794
4873384085.167358
5357043562.668579
4841283382.959717
5357043556.499023
4873384101.308838
2838130150.652588
2617197496.4709473
4682152473.262329
5496080075.423584
5818423449.46106
5496080072.920288
4682152501.519409
2617197355.916382
2561573956.9508057
4564179686.35022
5545690315.9140625
6003261592.862305
5545690316.20813
4564179856.80896
2561574085.845093
2556593651.536255
4550004166.699585
5550643115.832153
6043410853.787476
5550643114.721558
4550004191.368408
2556593641.465576
2558677359.5699463
4557503175.717407
5555478371.486572
6059558267.474731
5555478373.973022
4557502915.904053
2558677350.1759033
2556967642.515869
4553256980.378052
5550196713.85022
6053576016.75061
5550196717.233643
4553256883.1241455
2556967634.2839355
2555201194.3812256
4550994807.590454
5544718178.039551
6048606673.706909
5544718177.230713
4550994563.580322
2555201050.210205
2552617870.602661
4543686975.111816
5540276461.810303
6043957856.262573
5540276459.955811
4543687010.877197
2552617998.7598877
2554247721.3618164
4544757577.953003
5542646854.100098
6040464937.4313965
5542646853.315186
4544757473.815186
2554247564.887085
2552965819.4189453
4547249480.592041
5543016676.368286
6046601271.630981
5543016134.221802
4547249258.014404
2552965276.3531494
2554657680.8061523
4543656152.503174
5545239897.527466
6041569606.513672
5545238647.19104
4543655002.671143
2554655996.8223877
2556108142.1086426
4552097273.715088
5547541589.248535
6050261870.5842285
5547538003.508179
4552093543.17627
2556103758.006592
2554194697.0161133
4547423430.676758
5544446451.869873
6047801711.851685
5544440801.451172
4547415232.886719
2554186445.532959
2553129006.8203125
4547130271.948486
5542082533.606201
6043577181.47937
5542078626.4104
4547121975.785522
2553126071.411255
2551867463.8605957
4543053751.390503
5540291334.835571
6041436958.779785
5540343192.694458
4543069515.090454
2551932153.30896
2554221185.2869263
4544217636.015381
5542500454.125183
6041890449.054016
5542449067.313171
4544217922.768921
2554157121.6083374
2553695227.1743774
4547232497.622498
5541504474.057495
6044202195.720825
5541508387.587158
4547217636.94989
2553698348.3914795
2551037725.758423
4542363997.004395
5537697166.145447
6040000278.716064
5537702593.070435
4542371637.334961
2551045294.4716187
2549184283.94281
4540504944.68689
5533186162.408691
6035749491.018555
5533189559.858398
4540513478.024353
2549188073.500183
2546940436.2000732
4535365448.734863
5528501010.966675
6030882293.550415
5528501768.271851
4535368912.912048
2546941154.190979
2546514663.069763
4532891547.195801
5526628454.934509
6026570247.088318
5526628950.256958
4532892606.911804
2546515560.039612
2546092238.446228
4532604905.97583
5525461093.830627
6025989181.66272
5525461352.951416
4532605592.7146
2546092493.6759033
2543839027.7216187
4530754892.430176
5522004919.485596
6023577453.571472
5522004944.288208
4530755340.682312
2543839165.0372314
2541639295.6829834
4526737445.804138
5517869286.691528
6018234619.841248
5517869563.851685
4526737469.643066
2541639285.413269
2540693447.555603
4523455981.982788
5515336141.332886
6014837616.122559
5515336137.401001
4523456011.509216
2540693445.5008545
2541005688.065796
4522490883.896973
5514770482.762146
6013291585.522034
5514770483.769043
4522490893.478516
2541005542.7560425
2541391483.8146973
4523202876.247253
5515137338.997864
6013799493.5407715
5515137351.265076
4523202890.570862
2541391473.102051
2540801158.344452
4522963779.367859
5514458318.676819
6013303892.394867
5514458608.296661
4522963791.611237
2540801154.9247437
2540518686.648651
4521998776.114685
5513920049.956543
6012326966.042633
5513920035.815735
4521998631.189301
2540518686.482422
2540400061.3885803
4521901851.694
5513384738.598328
6012112337.722382
5513384741.523041
4521902008.053101
2540400060.7677307
2540020147.870636
4521030910.211151
5512652753.86499
6011377850.014435
5512652757.031128
4521031054.627686
2540020146.632965
2539649948.54541
4520389713.240723
5512299410.131348
6010511786.991882
5512299405.573914
4520389568.369873
2539649946.7666016
2540812592.1898193
4520832299.823578
5512676450.039398
6010735611.053436
5512676480.815994
4520832296.934723
2540812588.4467926
2536047614.166931
4518416867.602005
5512383917.999527
6010269561.11026
5512383985.612701
4518416474.438904
2536047341.295746
2541103502.9776917
4522080063.256866
5527281806.920807
6024889257.549362
5527281057.170975
4522079546.694885
2541103118.0151978
2331903097.4160156
4444664973.0894165
5635332844.807205
6124910193.679413
5635330056.148674
4444663234.740463
2331902723.4421387
2069606382.3797607
4470111429.60527
6155083674.405571
6545321811.702621
6155073818.402451
4470108506.436584
2069609674.944458
1471287901.531433
4619151110.530823
5772966635.476227
6865589851.257591
5772966429.1744995
4619151497.492249
1471295222.769043
2511175020.743164
-2875606177.5567627
2511189603.410095
SCALARS strain11 float
LOOKUP_TABLE default
-0.001019673013509248
-0.1998368305579526
0.19983699979788394
0.0010196731556675331
-0.0030862457192899484
-0.010518976296234328
-0.016482029365121775
-0.021919291314633327
-0.02732094225643511
-0.03274493475111573
-0.038160939661960214
-0.04357669306922496
-0.048979801270230716
-0.054388590245387114
-0.05980095770318705
-0.06520633489250649
-0.0706295987976926
-0.07604254888482398
-0.08145729875301466
-0.08686417641747912
-0.09227289151203966
-0.09768884981390835
-0.10309259619835265
-0.10849902427358238
-0.11389724660422562
-0.11929105627238545
-0.1246869129214967
-0.13007860465431964
-0.13546502633934
-0.1408458999031288
-0.14622310062031918
-0.1516004286334922
-0.15697652991690947
-0.16234951111598606
-0.16771936612942207
-0.1730836234492651
-0.1784431403412131
-0.18379547560285203
-0.18914419590982312
-0.1944348820716737
-0.19973556140927284
-0.20212970923290502
-0.20922400410051933
-0.0011585054350078394
-0.0072316015310764925
-0.013599443727214222
-0.019182952079585647
-0.02462240547431982
-0.03002984799970676
-0.035455458217580116
-0.040867124915219044
-0.04627866320655549
-0.05168195977624013
-0.057094070020209386
-0.06250269418366639
-0.06791492413899469
-0.07333604390850734
-0.07874657001081253
-0.08416002605230144
-0.08956447077630791
-0.09497906147432911
-0.10038744646652908
-0.1057929114154681
-0.1111947724523965
-0.1165905383043766
-0.12198499059981938
-0.12737882121639554
-0.1327676864688656
-0.13815069008748626
-0.1435301968021585
-0.148906077201181
-0.15428308749216857
-0.15965730204360296
-0.16502869132850773
-0.17039523034726456
-0.17575691803329174
-0.18111179276042244
-0.18646599487268256
-0.1917672993425349
-0.19713957180268016
-0.20129951066339036
-0.20421924392975155
-0.20763817394998113
-0.08332176678772268
5.8660375945596144e-08
0.08332188206690261
-0.13960365519148132
-0.039639456467557954
0.03963956886759595
0.1396037864121466
0.20922413959901842
0.20212984615539242
0.19973568868045544
0.19443500795744495
0.18914433489327553
0.18379561521638288
0.17844327563425744
0.17308374828110396
0.16771949032876776
0.16234962808264508
0.15697665597360166
0.15160056388377718
0.14622323569717421
0.14084601750335035
0.1354651531036999
0.1300787318288359
0.12468703201177878
0.11929116488012559
0.11389735921217836
0.1084991053668749
0.1030926328934405
0.09768887357976164
0.09227299535011557
0.08686427275936293
0.08145729876908447
0.07604256051189928
0.07062962740523826
0.06520636403449753
0.05980098481191565
0.054388614897743714
0.048979824481267364
0.04357670745165887
0.03816095249877094
0.03274494303601827
0.027320948821139446
0.02191929595036779
0.01648203280565408
0.01051897778162214
0.003086246178197527
0.20763832503323887
0.2042193795929696
0.20129964848574894
0.1971397062915356
0.1917674336573334
0.18646613476647922
0.1811119313203231
0.17575705256008356
0.17039536226424457
0.1650288254353276
0.1596574195670244
0.15428322356910273
0.1489061957995126
0.14353031581300701
0.1381508247504395
0.13276780639392527
0.12737893867144257
0.12198510060798506
0.11659064676190711
0.11119487976302844
0.10579295829207602
0.10038748041852852
0.09497910139667054
0.08956461976880536
0.08416004968644852
0.07874658127671985
0.07333606431997985
0.0679149526840579
0.06250272297665571
0.05709409522219655
0.05168198236948918
0.046278681914794007
0.0408671394062754
0.03545546946105649
0.030029855381830117
0.024622410922885862
0.019182955984757832
0.0135994456628028
0.007231602534149673
0.0011585057062255544
-0.002760503511792578
-3.044675622732029e-11
0.0027605035002764566
-0.001365495119289406
-0.0009304094538222785
0.0009304094609330349
0.001365495241236303
-0.0047240027438100185
1.1687539824833948e-10
0.004724002816523409
-0.0059092580948298945
5.186855389638367e-10
0.005909259002969236
-0.008269989898147756
1.2012781880343937e-09
0.00826999275126905
-0.010918055691072404
2.1754278378693925e-09
0.010918060147956155
-0.013640219616300797
3.1995988081234827e-09
0.013640226296711688
-0.01636159289952932
4.589780999708637e-09
0.016361602178580625
-0.01909005808716291
6.202207636363255e-09
0.01909007078884084
-0.021808277116304176
7.93053800407506e-09
0.021808293509364418
-0.024534979947279822
9.940738010527639e-09
0.024535000724671185
-0.02725684705916631
1.2076228905755215e-08
0.02725687204234717
-0.029975979862619795
1.4754100163827388e-08
0.029976007974235053
-0.032696202397424656
1.8196243622981e-08
0.03269623570281244
-0.03541593983741276
2.3648308200563406e-08
0.035415979442651846
-0.03814295051050909
3.0943774653735545e-08
0.03814299938332866
-0.040860428946919214
3.291980732456068e-08
0.04086047613023602
-0.04358126678102536
-1.8393787826198604e-08
0.04358127207521978
-0.04630263525286615
-1.6201491703782267e-08
0.04630264646673066
-0.049021666477843784
4.026865019213233e-08
0.04902173011203104
-0.05173960436083336
4.271242293185651e-08
0.0517396773756813
-0.05445416726311114
5.0445480681560184e-08
0.054454260432209356
-0.05717123670276569
6.014686348976284e-08
0.05717135552152541
-0.05988513551875796
5.9378389760667005e-08
0.0598852491273516
-0.06259864533149173
6.04381957813871e-08
0.06259876648330476
-0.0653097052763183
6.177852052147159e-08
0.06530982945618513
-0.06801878578944853
6.288903220408315e-08
0.06801891157492745
-0.0707265412914504
6.38136992137106e-08
0.07072666900169322
-0.07343419316268451
6.433179988718507e-08
0.07343432131461292
-0.07614209366578661
6.460709101041573e-08
0.07614222414328609
-0.07884846366588483
6.513365158333784e-08
0.07884859389651755
-0.08155567163298505
6.554398912506088e-08
0.08155580097026616
-0.08426203812851285
6.619501702331831e-08
0.08426217022369098
-0.08696860041460397
6.659875262382542e-08
0.08696873487645851
-0.08967452860936043
6.631783500132826e-08
0.08967466045386441
-0.09238066401593115
6.650818218378873e-08
0.09238079473280325
-0.09508629095011567
6.643375494164161e-08
0.09508642602048933
-0.09780803641047009
6.687392051230034e-08
0.0978081680629746
-0.10068710484844434
6.982648337316988e-08
0.10068723492400555
-0.1046931258708228
7.333322415981058e-08
0.10469325576006944
-0.10865605983050758
6.641751737479495e-08
0.10865622272632319
-0.003777694663607889
-0.001379442000990494
-0.003374810036572029
5.007372294585366e-11
0.0033748103719677403
0.0013794421032358173
0.003777695133445391
-0.008153686554887685
-0.004795241894745672
-0.0035196595105393413
2.978488566895976e-10
0.0035196607862602036
0.0047952423094272945
0.008153687703462253
-0.012259494763442902
-0.0071543500185109465
-0.004190010918234677
8.561817921304282e-10
0.004190013715383856
0.007154351620314081
0.01225949758771172
-0.016379005612353836
-0.009582631273644004
-0.005474159801678979
1.586638376238625e-09
0.005474163988720804
0.009582634477552254
0.01637901030739375
-0.020455773466232507
-0.012283347440745551
-0.006820331109805622
2.75808620386897e-09
0.006820337896161988
0.012283353047896739
0.020455779840593102
-0.02454737563889431
-0.015000694769906175
-0.008180537849389324
3.892685285222797e-09
0.008180547139884808
0.015000703634438395
0.024547384840935216
-0.028634735395332456
-0.01772570582390376
-0.009544250565347134
5.290934801394087e-09
0.00954426257886265
0.01772571596700523
0.02863474836141222
-0.0327174199535909
-0.020448737783196336
-0.010903319618197571
7.058985396213302e-09
0.010903335426251104
0.020448750636603563
0.03271743668561733
-0.03679774258786406
-0.023171647173779952
-0.01226696649312764
8.944923024500895e-09
0.012266986520876877
0.023171664808923076
0.03679776106294508
-0.040879150720445345
-0.025896508008279362
-0.013627187534359209
1.104502267423868e-08
0.013627211759986047
0.025896530358474834
0.04087917265403895
-0.0449588924548836
-0.028616261833303014
-0.014986933136728275
1.3557192701796339e-08
0.01498696299515867
0.028616287694195996
0.0449589220205624
-0.04903582318264732
-0.03133560814463454
-0.016347019646161698
1.645833158647747e-08
0.016347055868686233
0.031335640612624616
0.04903585460016213
-0.05312090515724144
-0.03405583211548535
-0.01770565299991045
2.090996886749963e-08
0.017705698461165653
0.0340558683309764
0.053120938686244124
-0.05720453812407911
-0.03677927503830247
-0.019069143802570743
2.7283935111199753e-08
0.019069201565525162
0.036779317788528054
0.05720456998198653
-0.061284485185463033
-0.039501554124485416
-0.020427612810679285
3.178664353953309e-08
0.020427677094649432
0.03950160274190573
0.061284508392226655
-0.06536228723982518
-0.04222049329902777
-0.021788135332464265
1.7705955812630236e-08
0.021788107463301287
0.0422205227785204
0.0653623395399876
-0.06944161432382812
-0.04494148584079394
-0.023148491944186222
-3.8165606675022445e-08
0.02314846874447607
0.04494148957114952
0.06944167457226058
-0.07352230108209978
-0.047662076483263593
-0.024507371616687923
2.2337413696504882e-08
0.024507449828258476
0.047662113361162994
0.07352234147220704
-0.07759688327639314
-0.050380718056317164
-0.02586629815729946
4.29928732614826e-08
0.025866386535478014
0.050380787226912194
0.07759694219393243
-0.0816716182220274
-0.05309632126070607
-0.02722290640317393
4.0351406660477096e-08
0.027223005043919724
0.05309639049085435
0.08167170380998101
-0.08574366855881399
-0.05581198060290404
-0.02858124664101469
6.162426346989491e-08
0.0285813604639924
0.0558120997038265
0.08574377694918844
-0.08981216917658763
-0.05852778024657779
-0.029938227545535767
5.831754013030377e-08
0.029938346684096562
0.05852789318585838
0.08981228829983223
-0.093881528454971
-0.06124164783343922
-0.03129473505467706
6.001950403344836e-08
0.03129485810992616
0.06124176686181437
0.09388164735015803
-0.09794762041860405
-0.06395372233969887
-0.032649895067005996
6.126604823464277e-08
0.03265001792598321
0.06395384293579731
0.09794774299108067
-0.10201087362538264
-0.06666374611455206
-0.03400403901094062
6.217845260891863e-08
0.034004163775444685
0.06666387089427417
0.10201100056552592
-0.10607120980628637
-0.06937208437898068
-0.0353576745014319
6.333689084314642e-08
0.035357803291356404
0.06937221153914308
0.10607133688006298
-0.11013049378275275
-0.07207986519730092
-0.03671125096262973
6.378914063631669e-08
0.03671138184523448
0.07207999175893387
0.11013062398612483
-0.1141905175122877
-0.07478752097546848
-0.038064976206661605
6.478666114695386e-08
0.038065106888276246
0.0747876512479888
0.11419064789934108
-0.11824950836420034
-0.07749440551644016
-0.039417879013638135
6.507903127506154e-08
0.03941800919085403
0.07749453614055346
0.11824963917137721
-0.12230866520786465
-0.08020146829736419
-0.0407710697483612
6.555101039751321e-08
0.04077120188553174
0.08020160266751963
0.1223087961766709
-0.12636731057918182
-0.08290809202635119
-0.0421238357034317
6.623486026313685e-08
0.04212396798333007
0.08290822679993393
0.12636744515847487
-0.13042491662598454
-0.08561450718251784
-0.043476753092882015
6.586967193911164e-08
0.04347688316275722
0.0856146371094122
0.13042505065803178
-0.1344827866421423
-0.0883207896789715
-0.04482910729178047
6.599182855726582e-08
0.04482923938784422
0.08832092379650802
0.1344829214748714
-0.13853833057945197
-0.09102659216535547
-0.046182091352884536
6.655413686829093e-08
0.046182223356129315
0.09102672715409443
0.13853844993266795
-0.14260227041970475
-0.09373231829724205
-0.047531940475646905
6.698489196654833e-08
0.04753207449146579
0.09373245332953051
0.14260238876043263
-0.14662005936806216
-0.09645605647081357
-0.0489506163101765
6.705902044767953e-08
0.04895075039966512
0.09645619056256649
0.14662019344644195
-0.15075192393361236
-0.09919360883531209
-0.05036296928997491
6.857870887833073e-08
0.050363105276816034
0.09919374301184158
0.1507520504234452
-0.15533762351661673
-0.10283720940026403
-0.052790372534412155
7.259816131588437e-08
0.052790514277718525
0.10283733212067192
0.15533775031335817
-0.15947761456378345
-0.1051095624760896
-0.05428788172563792
6.85826301860537e-08
0.054288029544125094
0.10510971214159609
0.15947775612464188
-0.09784008848805792
6.275291219992596e-08
0.09784023022495969
SCALARS strain22 float
LOOKUP_TABLE default
0.001984860826560464
0.014092673905665265
-0.014092683827641395
-0.0019848609179504706
0.0016273184877633184
0.004577527417062299
0.007011224175528241
0.009395278796546336
0.011700415977919931
0.014028099590003507
0.016352396789248047
0.018668420194043023
0.020981471945617614
0.023302482165092897
0.025621041392259514
0.02793443832365483
0.03026193276989808
0.03258329889016842
0.03490225404839098
0.037216508637936574
0.03953169988261651
0.041855724087038304
0.04416828014742258
0.04648723207062311
0.04880071166772737
0.05110844556547889
0.05342182909627624
0.05573006217482401
0.05803802249230117
0.060341606735050846
0.06264390521166874
0.06494817353325288
0.06724795090157443
0.06954684091479635
0.0718435253694949
0.07413581013042858
0.07642595967831056
0.07870213502459222
0.08099713210765458
0.08313585706149951
0.08575557734622663
0.08554096137668665
0.0932512768813325
0.0001605314881913955
0.00310197385356048
0.005815538378612928
0.008204159581993054
0.010546073908351161
0.012861598139341623
0.015187062615225955
0.017506201279203992
0.0198229473060465
0.022139441179881203
0.02445713686877582
0.026775232736630628
0.029095209331476468
0.03141827839504252
0.033738673522158535
0.03605578481538796
0.03837152663287258
0.04069015873307791
0.04300887145401511
0.04532469671751649
0.04763962815920486
0.04995046609798415
0.05226149493463339
0.05457205905373641
0.05687994389862894
0.05918580388666683
0.0614891396853352
0.06379188659835222
0.06609353689653119
0.06839329238783876
0.07069091036454012
0.07298528039888907
0.07527676855036702
0.07755969704133747
0.07984815591750305
0.08205958245638811
0.08448830456225664
0.08533393839977776
0.09121649813921806
0.07099368434622022
0.003745716242775643
-1.3784529073745944e-10
-0.003745720606730174
0.007468888127476703
0.0008262484019070371
-0.000826249796929801
-0.007468896097009292
-0.09325133671818264
-0.08554102208878334
-0.08575563737941394
-0.08313591608430926
-0.08099718240502796
-0.0787021947322799
-0.07642601531767212
-0.07413586564814523
-0.07184358136962743
-0.06954689640340206
-0.06724800655212704
-0.06494822931647093
-0.06264396145177997
-0.06034166038311639
-0.05803807608774747
-0.0557301132528103
-0.05342188125701952
-0.05110849659464911
-0.04880075797629857
-0.04648726657461033
-0.04416830351093459
-0.04185573685587052
-0.03953173829999379
-0.03721654550257836
-0.03490225865235619
-0.03258330474078441
-0.030261945956855385
-0.027934453197969944
-0.02562105452640573
-0.023302493543731373
-0.020981481365890176
-0.01866842777373634
-0.016352402443242653
-0.01402810379262931
-0.01170041935215238
-0.00939528050357552
-0.007011225609709015
-0.00457752811954748
-0.001627318780762721
-0.07099372864331599
-0.0912165583080693
-0.08533399159561128
-0.08448836340791388
-0.08205963365898583
-0.07984820661798153
-0.0775597489276052
-0.07527682749640974
-0.07298533960305065
-0.0706909627203558
-0.06839335201920704
-0.0660935885411007
-0.06379194231817209
-0.06148919635353067
-0.05918585929412856
-0.05687999977055824
-0.054572110881835556
-0.05226154407639072
-0.04995051476992174
-0.04763966792287455
-0.04532472504719465
-0.04300888985654616
-0.04069016441035522
-0.03837166346652898
-0.03605578283438371
-0.03373868080776177
-0.031418288898697355
-0.029095221749811273
-0.026775245878809528
-0.024457150159978625
-0.02213945033619069
-0.019822954913255586
-0.017506208863146355
-0.015187067238400687
-0.012861602016371876
-0.010546076610701505
-0.008204161367999063
-0.00581553976529392
-0.0031019743110576314
-0.00016053176695862703
0.006987518272623561
2.5060842290258734e-11
-0.0069875183382279715
0.0007457417581804293
0.015666867660172556
-0.015666867610221402
-0.0007457418127572168
0.0013503455548473653
-2.106546048707969e-10
-0.0013503458031181026
0.0029177490198222245
-3.7836400679225335e-10
-0.0029177497219237125
0.003603926015586012
-6.636327043452184e-10
-0.0036039273706762742
0.004695965770991961
-1.0580336606835772e-09
-0.004695967735017348
0.005846856440896886
-1.5837997580092633e-09
-0.005846859636477575
0.007008504359511392
-2.1529764637762128e-09
-0.007008508536372915
0.008180408295263675
-2.836678447692975e-09
-0.00818041426834526
0.009341177245232757
-3.6104417233673303e-09
-0.009341184528746993
0.010514427913978608
-4.4793502240736416e-09
-0.010514437104390595
0.011683982678807325
-5.566054284145139e-09
-0.011683993158964512
0.012848745599766787
-7.024645753972436e-09
-0.012848758558078544
0.014012613058399737
-9.45721545519973e-09
-0.014012629618619599
0.015175272834815345
-1.2897995560479103e-08
-0.015175292492820347
0.016347822984021043
-1.4952554749925184e-08
-0.016347846190180704
0.017509287094986448
-1.4188392682967788e-09
-0.01750929091982556
0.01867647467500544
7.144873737097157e-08
-0.018676408581378423
0.01984454441581951
7.036733551402108e-08
-0.01984448120998561
0.02100841555653421
-5.343875564278733e-09
-0.021008426756137233
0.022172273576700263
-2.35193651221266e-08
-0.02217231265466424
0.023334565696602638
-2.490559758427935e-08
-0.023334610070836703
0.02450106832368526
-2.5459243602199422e-08
-0.024501117315301357
0.025664691979198295
-2.5984078888541262e-08
-0.0256647432772521
0.026828613217261932
-2.6442080525157508e-08
-0.02682866476789414
0.027990115398392135
-2.675709609434307e-08
-0.027990167713344505
0.029150470336155365
-2.7060686136337608e-08
-0.029150523787819793
0.030309992732540536
-2.739430016163169e-08
-0.030310048324739824
0.031470783488853016
-2.7697495852407883e-08
-0.03147083853283661
0.03263283843781295
-2.786887876027322e-08
-0.03263289424622684
0.03379222383339453
-2.8159128362403862e-08
-0.033792280315076084
0.03495267448743533
-2.807697541129528e-08
-0.03495273071027327
0.036112811550587764
-2.8446443423035817e-08
-0.036112867358518486
0.03727317167553679
-2.837451518189482e-08
-0.037273228438699846
0.0384328907853444
-2.8584523192876077e-08
-0.03843294660135399
0.0395927570210759
-2.8481423441917286e-08
-0.039592813775428226
0.04075445902189756
-2.8752040748258878e-08
-0.040754516416214415
0.041955296533878084
-2.9275312840582046e-08
-0.041955355349365675
0.04326640923516578
-3.1450724691239884e-08
-0.043266462694262486
0.045888408484046295
-3.148301175315282e-08
-0.04588846182631556
0.04037249873868376
-1.662244386579914e-08
-0.04037255661126693
0.001746028965655455
-0.00042670135100308926
0.001279364848755904
-1.191224896501808e-10
-0.0012793652025280267
0.0004267011205030258
-0.001746029376228364
0.0035685343377309664
0.002198769354322394
0.001588474432949738
-2.334274995519081e-10
-0.0015884751278107956
-0.002198769818001267
-0.003568535003530826
0.005295787399155927
0.003244105464311531
0.0018497945266133797
-4.919300522487902e-10
-0.0018497958591225938
-0.0032441063697277173
-0.005295788516306743
0.007021815511528473
0.00413069047348813
0.00235498168252235
-8.548681762476917e-10
-0.002354983647030906
-0.0041306920920121115
-0.007021817840985989
0.008768488509126371
0.005268143880066134
0.0029221559543586295
-1.3150938116268662e-09
-0.002922158965176891
-0.0052681461740391455
-0.008768491243067444
0.01051659348556555
0.0064270652518381155
0.003505502074357736
-1.8294770143256756e-09
-0.0035055062538447146
-0.006427068981817996
-0.010516597686191176
0.012274274108598604
0.007593726341060147
0.0040882344285115835
-2.519552566582206e-09
-0.0040882402637620885
-0.007593731239026624
-0.012274279684053369
0.014019042244328261
0.008760331874814398
0.00466868191130132
-3.261263259446423e-09
-0.004668689138750182
-0.008760338407594048
-0.01401904922384034
0.01576615871880449
0.009927459870215927
0.005260455425517563
-4.081968540958769e-09
-0.00526046450553963
-0.009927467294591708
-0.01576616749935411
0.017522995503171046
0.011099103225568285
0.0058381084237026926
-4.982872781056358e-09
-0.005838119347028936
-0.011099112380954068
-0.01752300566269227
0.01926736018276287
0.012265080610486478
0.00642495651900532
-6.24581986130579e-09
-0.00642497053029345
-0.012265092785348486
-0.01926737335205786
0.021013239851315646
0.01343020693322039
0.007006432798878137
-8.131078033102312e-09
-0.007006450472221815
-0.01343022140059702
-0.021013254756892863
0.02276465993686294
0.014593885551320795
0.007585452505811219
-1.1092271989809888e-08
-0.007585476001889191
-0.01459390365152835
-0.022764676774995607
0.024517591969361874
0.01576076876831678
0.008173546311001978
-1.4603358522435883e-08
-0.008173572451629418
-0.01576079179689671
-0.02451760609187925
0.026264452648917747
0.01692815511215695
0.008752278415273373
-1.0889108281730842e-08
-0.008752283498177249
-0.016928172890795956
-0.02626445534569566
0.028009680203264997
0.018092350913362587
0.009337818446097046
1.9525272954012962e-08
-0.009337683634406568
-0.018092326526637503
-0.028009689216908606
0.029758944779286978
0.019260819858281764
0.00992111735863288
1.39091255402235e-07
-0.009920984873816874
-0.019260740317295966
-0.029758956566165118
0.03150891245308962
0.02042630850194893
0.010501918302728619
1.7214745628990613e-08
-0.01050193135516686
-0.020426287731254877
-0.031508919332000396
0.033252553487125525
0.02159033225880247
0.011085980983903454
-1.69355747203781e-08
-0.011086024973046449
-0.021590361234014033
-0.03325258320493951
0.03500069544352691
0.022753569418545894
0.011664450999345988
-2.4665933295864306e-08
-0.011664498472704565
-0.022753610243736233
-0.03500073448672758
0.03674705685623714
0.02391737119145887
0.012248291281752088
-2.5166666972609164e-08
-0.012248341092291781
-0.02391741772417255
-0.03674710338810527
0.03848953346128248
0.02508262060026034
0.012830712407032152
-2.5844684614639846e-08
-0.012830764600394673
-0.025082670959870157
-0.038489581840430276
0.040234462737874566
0.026246399506501206
0.013412709749253793
-2.620453898316555e-08
-0.01341276237457123
-0.026246451848994212
-0.04023451514356324
0.041976581561485204
0.02740872894369417
0.013993697975834607
-2.6705681221983468e-08
-0.013993751003010146
-0.027408782072573246
-0.04197663792934847
0.04371845214188852
0.028569883406053265
0.014572190233760551
-2.6897048144292057e-08
-0.014572244245933064
-0.028569936530995932
-0.04371850617331319
0.04545726565265795
0.029730077074560768
0.015152431499718233
-2.7263844515346136e-08
-0.015152486521131436
-0.029730132029694545
-0.04545732158282689
0.04719719624968022
0.030890469266186216
0.015732780324235307
-2.759206196856212e-08
-0.015732836240768933
-0.030890522345700333
-0.047197250341838526
0.04893910481758468
0.0320517211261091
0.01631329564884254
-2.7822057546700307e-08
-0.01631335140955059
-0.03205177700419526
-0.048939160699099205
0.050677674385852356
0.03321207989451125
0.016893391692413218
-2.7952957282195712e-08
-0.01689344748349697
-0.0332121356127999
-0.05067773019272437
0.052417362377703114
0.03437217688144045
0.01747322054310274
-2.8206592617152637e-08
-0.017473278487017296
-0.03437223281120083
-0.05241742037093644
0.054157116478812384
0.035532351227601566
0.018052773746994433
-2.8446841326967842e-08
-0.018052829572617668
-0.035532407076715344
-0.054157172251173336
0.05589602446809039
0.036692552806655954
0.018633089618489862
-2.831632173183607e-08
-0.01863314734241328
-0.03669261046039907
-0.05589607983372957
0.05763523201319032
0.03785251642452181
0.019212490042349373
-2.832645407124801e-08
-0.019212547850116835
-0.037852572030189435
-0.05763528764374115
0.059372959082949706
0.039012583767409126
0.019792170937009246
-2.869771265068266e-08
-0.01979222778250289
-0.039012639610149336
-0.0593730168182347
0.06111645743654037
0.040170897017880236
0.020374177986361985
-2.864780412892287e-08
-0.020374235724609946
-0.040170956615540376
-0.06111651736692636
0.06284308538587169
0.04135587787399686
0.020986408765857334
-2.918608998925265e-08
-0.02098646650728142
-0.041355935663872856
-0.06284314528546986
0.06473693539081182
0.04253202199884498
0.02174212587281943
-3.040526763697926e-08
-0.02174218555214935
-0.04253207763692757
-0.064736991432504
0.06658147585937968
0.04469933522689473
0.02264200543667272
-3.230323386560485e-08
-0.022642063115100086
-0.04469939118726529
-0.06658153147226642
0.06595198564218663
0.0439554621479914
0.021538416906345503
-2.5161391192796145e-08
-0.021538461868772174
-0.04395552192240615
-0.0659520413183401
0.032321148482381545
-8.741523060962209e-09
-0.03232118592480049
SCALARS strain12 float
LOOKUP_TABLE default
-0.001955022402862827
0.11484502531443186
0.11484518119600828
-0.001955022736742862
0.0019179527042529898
0.0011107624716113484
0.0010478070594635014
0.000902484714438323
0.0009038952230895347
0.0008973122739064365
0.0009009404520128328
0.000896801302417316
0.0008980937597933281
0.0008986713973884175
0.0008920910712635344
0.0008950707288586379
0.0008946513895720098
0.0008947563151744387
0.000892291177857496
0.0008944848183218834
0.0008972772595174927
0.0008983335768208978
0.0008965285924038557
0.0008964583012989191
0.000895578985826706
0.0008972603657144695
0.0008990622536997339
0.0008986319212032079
0.000899492985539041
0.0009025328338511107
0.000908737211962718
0.0009126400996013473
0.000916473243494198
0.0009233495915186296
0.00093262948164341
0.0009437317737786
0.0009603685838317499
0.0009819002883889039
0.0010295664879317878
0.0010451253429643592
0.001153668739027447
-0.0014136561164601602
-0.006008042371700495
0.000533540995010906
0.0015104365448124213
0.0008372022921094846
0.000754918271766325
0.0007070656010621512
0.0007227170045349673
0.000702369739573605
0.000718162378809506
0.000709130858979945
0.0007040062956136239
0.0007145853422856341
0.0007016891626689947
0.0007119329930274088
0.0007018022765175047
0.0007095554172731333
0.0007059822831025908
0.0007072676511643561
0.0007115316339378897
0.000711602176825199
0.0007086151197646107
0.0007064204133191421
0.0007108011072574083
0.0007104868716110158
0.0007134426918569137
0.0007114764338357338
0.0007149416158553912
0.000719003316959177
0.0007228989810670328
0.0007293749138191918
0.0007328729812615675
0.0007415270337235436
0.0007518658262655187
0.0007649598156387882
0.0007856847406066958
0.0008130701046243916
0.0008749584805780586
0.0008219908032685574
0.0010697122687324812
-0.003898036337758648
0.049811627394785174
-0.00969053191016761
-0.03903560135935738
-0.0096904777036953
0.050104642814545075
-0.03204257743133737
-0.03204255363602504
0.050104748834169266
-0.006008040602190179
-0.0014136617192646028
0.001153673314501391
0.0010451255383793212
0.0010295665038428936
0.0009819001994317844
0.0009603684390662726
0.0009437314376641304
0.0009326291027800249
0.0009233490183264692
0.0009164723493888527
0.000912638922385467
0.0009087357563148935
0.0009025310240875495
0.000899490704272532
0.0008986293553513436
0.0008990590656698938
0.0008972571715264444
0.000895577832223049
0.0008964080293749621
0.0008965378760026343
0.0008983305831988808
0.0008971974167562013
0.0008945540718692246
0.0008922834972162619
0.0008947388328441885
0.0008946422887015082
0.0008950644814917919
0.0008920858687828659
0.0008986665300381169
0.0008980892032981469
0.0008967970134934333
0.0009009365316359208
0.0008973088881645275
0.0009038921860593518
0.0009024823019228023
0.001047805141218383
0.0011107607944889075
0.001917952137360679
0.04981169538031205
-0.003898037945383126
0.0010697122979324014
0.0008219923259226158
0.0008749584609403227
0.0008130701017035058
0.0007856845911071719
0.0007649596563097383
0.0007518654132596669
0.0007415266051288283
0.0007328722397705878
0.0007293738693543439
0.0007228976239741502
0.0007190017234897095
0.0007149394782475227
0.0007114740206389802
0.0007134398313631829
0.0007104832488284973
0.0007108000825615246
0.0007063925594492648
0.0007085941670426088
0.0007116086329961302
0.0007114772421568105
0.0007072622619774815
0.0007060258667297425
0.0007095373673535743
0.0007017919784892968
0.0007119260049690546
0.0007016835197017901
0.0007145801985206646
0.0007040015099446517
0.0007091263993566077
0.0007181582051327684
0.0007023662166378841
0.0007227139552439255
0.0007070628977166038
0.000754915998723682
0.0008372004029770785
0.00151043556795738
0.0005335406408364385
0.004952716315074657
0.035128242490463535
0.004952716162990534
-0.00039379518702142846
0.020290177633270456
0.020290177626797856
-0.00039379518713378303
0.015428465879629094
0.00894741465288984
0.01542846538207332
0.012675439266398136
0.014447033850125468
0.012675439617706008
0.012188306619080436
0.015726622571870852
0.012188306721899966
0.012071279578300675
0.015944724319043146
0.012071279147944924
0.012070377722247283
0.015976700661882948
0.012070377523700326
0.012079620165399874
0.01598732362216415
0.012079620533530733
0.012068907231213455
0.015971988175549345
0.012068907339636947
0.012060216189693884
0.015954857325827465
0.01206021601914764
0.01204674797481764
0.015945428696934272
0.012046748062744417
0.012053112374264208
0.01595035827466762
0.012053112039666747
0.012053611598686231
0.015950723607852213
0.012053610629569445
0.012057748251846467
0.015959392784188564
0.012057742155678675
0.012063850188973824
0.0159652936340704
0.012063833467083063
0.012056505987332544
0.01595566252866898
0.012056477729739168
0.012052765987760283
0.015947848306596013
0.01205274831790959
0.012046678520953868
0.01594404270697014
0.012046917109679534
0.012053574633904107
0.01595031722799689
0.012053338281607262
0.012050881565251803
0.01594668285592471
0.012050899738328624
0.012041482545703586
0.015936107874150673
0.01204150910984736
0.012031521872815754
0.01592384449697315
0.012031537988053564
0.0120223804851185
0.015910072582105084
0.01202238478191453
0.01201894090389466
0.015904053338790414
0.01201894371437251
0.012016248764923576
0.015900696626554245
0.012016250096219983
0.012007706462387135
0.015891615881455046
0.012007706787807826
0.011997945668398513
0.01587975434960176
0.011997945720977232
0.011992891827615204
0.015872607910662806
0.011992891917579684
0.011991532884558898
0.015870759696380188
0.011991532924573
0.011993300894663661
0.01587095431958241
0.011993300865081102
0.011991558802906255
0.01586935739000761
0.011991558832924132
0.011989910944145254
0.015867879538847496
0.011989910927503122
0.011988713217585878
0.015866461530013587
0.011988713216540492
0.011986653241251422
0.015864270264172364
0.01198665325668452
0.011986157432615552
0.01586376805734202
0.01198615718545809
0.011985620370037586
0.015861702671810085
0.011985620116310602
0.011986939117913376
0.015871133873906818
0.011986938375034728
0.011940212743779266
0.01591078476852273
0.011940210818611074
0.011708762843537418
0.01670152935696348
0.011708755885475569
0.011804449676041329
0.01781293689587743
0.011804441298026214
0.01813518451671614
0.017342088377826026
0.018135204563782037
0.008529028445007913
0.011226573309991661
0.01213118495093557
0.020104360417456668
0.01213118495321952
0.011226572794094558
0.008529028455864562
0.0073791383515939835
0.01267079871854948
0.01392831258043703
0.012587336878037814
0.013928312579175817
0.012670798736963196
0.007379138605315028
0.006804713159958009
0.012173597223830601
0.01428980831535931
0.01512790069706682
0.01428980833304605
0.012173596766005268
0.00680471313954456
0.006660092376179705
0.011866867832255323
0.014418794200576457
0.01560848032149087
0.014418794218786335
0.011866867375520673
0.006660092360385672
0.006647143582089843
0.011830010861869411
0.014431672261260076
0.01571286772363578
0.01443167225696751
0.011830010398490298
0.006647143565076785
0.006652561161370585
0.01184950780700822
0.014444243794028644
0.01575485133870025
0.014444243780554089
0.011849508413884546
0.00665256113552104
0.006648115818837841
0.011838467757694815
0.014430512097673542
0.015739298091149045
0.01443051208740842
0.011838467858529267
0.0066481158050968325
0.00664352314619987
0.011832585864321121
0.014416267930957627
0.01572637778492858
0.014416267934079796
0.011832585984387745
0.006643522876242702
0.006636806754844571
0.011813585887624045
0.014404718758431967
0.015714290532803155
0.014404718765090418
0.011813585970610996
0.006636806717971178
0.006641044052662304
0.011816369330939214
0.014410881873890613
0.01570520917386653
0.0144108814080115
0.011816369432132712
0.006641043786633327
0.006637710922991147
0.011822848791128049
0.01441184328233458
0.015721162533544053
0.014411841882859378
0.011822847978739004
0.006637709967727279
0.006642109909162475
0.011813505796123058
0.014417623530522228
0.015708080441128924
0.014417620286720778
0.01181350255035385
0.006642105665892961
0.0066458815416936545
0.011835452869049412
0.014423607609561406
0.015730680668999186
0.014423598255226988
0.011835442941595664
0.006645869491006762
0.006640906391023105
0.011823301313484968
0.014415560449655418
0.015724284152727197
0.01441554645516896
0.01182327998681032
0.006640884916936818
0.006638135269636969
0.011822539027727341
0.014409414516429297
0.015713300180071554
0.014409404173178597
0.011822516950402706
0.006638127745161038
0.0066348552461830135
0.011811939823569428
0.01440475750491621
0.015707736418884455
0.014404891723337254
0.011811980822563184
0.0066350230527836285
0.006640974960827162
0.011814965169436586
0.01441050058469795
0.015708915100199894
0.014410367694038584
0.011814966237067237
0.006640808276944465
0.006639607556348626
0.011822805223002497
0.014407911419082264
0.015714925944841918
0.014407921722183081
0.011822765917091305
0.006639615667522358
0.0066326980940154545
0.01181014680837178
0.014398012436223073
0.015704000897358572
0.014398026026646082
0.01181016630425491
0.006632717836655422
0.006627879241202228
0.011805312663829115
0.014386284092332335
0.015692948508604587
0.014386292542261092
0.011805334815893742
0.00662788885057064
0.006622045157744116
0.011791950044365063
0.014374102775498221
0.0156802936228988
0.01437410504796488
0.011791958927006796
0.006622047111823237
0.006620937676617089
0.011785517966269143
0.014369234327760383
0.01566908206624107
0.014369235720324447
0.011785520871418598
0.006620940023642996
0.006619840219364015
0.011784772577402514
0.014366198777641559
0.01566757147616693
0.01436619922354554
0.011784774619917116
0.006619840872987837
0.006613981544151937
0.0117799634342719
0.014357212529901742
0.015661301032363406
0.01435721251952704
0.011779963984687059
0.006613981763578636
0.006608262199821913
0.011769517353773407
0.014346460356298607
0.015647409806987755
0.01434646036861198
0.011769517434618848
0.006608261925784675
0.006605802923860038
0.01176098566834527
0.014339873918990498
0.015638578237588074
0.014339873926476066
0.011760985714087568
0.006605802647453807
0.006606614751071493
0.01175847596506463
0.014338403271845657
0.015634557940457428
0.01433840327482816
0.011758476014594232
0.00660661447134081
0.006607617996829185
0.011760327333217857
0.014339357674954978
0.01563587879435646
0.014339357660568708
0.01176032791268522
0.006607617977358982
0.006606082717751205
0.01175970542977367
0.014337591795651972
0.0156345895256077
0.014337591784538195
0.011759705433723733
0.006606082712876771
0.0066053483600885254
0.011757196627150912
0.014336191932450282
0.015632050237488926
0.014336191950231725
0.011757196654945234
0.006605348358234897
0.006605040130503337
0.011756944712532635
0.014334799825802214
0.015631491682958742
0.014334799834021639
0.01175694469648092
0.006605039869901019
0.0066040526333628335
0.011754680303010523
0.014332897732303729
0.015629582601678238
0.014332897722403648
0.011754680295470277
0.006604052626304202
0.006603089635140003
0.011753013204676976
0.014331978876177098
0.015627330853296595
0.014331978876497509
0.01175301271590734
0.0066030896329764
0.006606112614822912
0.011754164021022473
0.01433295851400368
0.01562791276017761
0.014332958574880206
0.011754164014753543
0.0066061126160568695
0.006593723825981002
0.011747883359554567
0.014332198516049
0.015626701377048136
0.01433219863051427
0.01174788289785128
0.006593723087963355
0.006606869247146541
0.01175740807100445
0.014370932734750874
0.015664712635254485
0.01437093141698767
0.011757407158984545
0.00660686832011359
0.006062948186628114
0.011556128355174722
0.014651865276931547
0.015924766803681878
0.014651858324347566
0.01155612443741763
0.00606294727407336
0.005380976435100271
0.011622289884143794
0.016003217678450726
0.017017837042391765
0.016003192115720877
0.011622282122552924
0.0053809850286445915
0.0038253482472563327
0.012009793173096805
0.015009712997688662
0.017850534314039546
0.015009713174455597
0.012009794229383253
0.0038253674150966477
0.006529055062693301
-0.007476576495293763
0.006529092778379764
SCALARS disp_x float
LOOKUP_TABLE default
0.021693079016501065
0.0
0.0
-0.021693094359133986
0.021689671163316247
0.02165528967979844
0.02158794771015366
0.02149257381341028
0.021369789785559395
0.021219796753796143
0.021042491182390353
0.02083796511839672
0.020606218158929043
0.020347308024209802
0.020061183687447436
0.019747868144456393
0.01940734602924422
0.019039567621563468
0.018644596387111172
0.018222409666955253
0.017773063159407514
0.01729649545711807
0.016792740535228976
0.016261811844237733
0.015703725982319453
0.01511851353069271
0.01450617748299788
0.013866716074659618
0.013200151189370162
0.012506509182069948
0.011785801715814516
0.011038042116010838
0.010263213421930423
0.009461320672867908
0.0086323652017581
0.007776355744512335
0.006893295013632944
0.005983189260990695
0.005045986397856469
0.004081917390905231
0.0030902897129541623
0.00207770725743262
0.0010539208747921075
0.021691408541418804
0.02167660607262031
0.021625387057233828
0.021543696757013
0.021434554572733407
0.021298181624731904
0.021134522903675193
0.020943609172114953
0.02072546017354568
0.020480135727379598
0.020207619569041525
0.019907894697173443
0.019580989459890893
0.0192268303663813
0.018845458591241565
0.018436873182197375
0.01800110838537613
0.017538156854622223
0.01704798634420195
0.016530647501039993
0.01598613423385475
0.015414482275486653
0.014815710469560288
0.014189809256354498
0.013536793447364259
0.012856686578953952
0.012149510784603702
0.011415278879310544
0.010653984547527036
0.00986562315008532
0.009050199315530333
0.008207715543310037
0.007338180559558479
0.006441595421749488
0.005517950625732131
0.004567253493307432
0.003589528089155231
0.002585630214753424
0.0015697807104729498
0.0005212620645452513
0.0
0.0
0.0
0.0
0.0
0.0
0.0
-0.0010539216570637133
-0.0020777086785432218
-0.0030902917891587082
-0.004081920131691746
-0.005045989799722148
-0.005983193327279006
-0.006893299743991762
-0.007776361137854811
-0.008632371256341424
-0.009461327386272884
-0.01026322079095781
-0.011038050136510786
-0.011785810382392362
-0.01250651848799143
-0.013200161126319741
-0.013866726632365201
-0.014506188647997634
-0.015118525286015927
-0.015703738286964388
-0.01626182473641285
-0.016792753635360095
-0.01729650869378436
-0.017773076577326293
-0.01822242388223733
-0.01864461072587125
-0.019039581975242706
-0.01940736049717341
-0.019747882767826342
-0.02006119846231062
-0.020347322932817154
-0.020606233179823904
-0.020837980230537977
-0.02104250636685265
-0.02121981199370802
-0.021369805066072355
-0.021492589122657165
-0.021587963037882588
-0.021655305017485738
-0.021689686505052673
-0.0005212624810993545
-0.0015697818102386046
-0.002585631969506625
-0.0035895304983723053
-0.004567256563833554
-0.00551795435977578
-0.006441599820191041
-0.007338185621658331
-0.008207721267633047
-0.009050205700015277
-0.009865630191945212
-0.010653992243125635
-0.011415287223917728
-0.012149519772176761
-0.012856696202027349
-0.013536803696724413
-0.014189820120348768
-0.01481572193339335
-0.01541449431055238
-0.015986146841013446
-0.016530660514423673
-0.01704799952676867
-0.01753817014826441
-0.018001122206980073
-0.01843688750231267
-0.018845472931324995
-0.01922684476978553
-0.019581004005208638
-0.01990790939891407
-0.020207634414418283
-0.02048015069588951
-0.02072547524359613
-0.020943624323576875
-0.021134538118686798
-0.021298196887317423
-0.021434569869564272
-0.021543712077176525
-0.021625402391234293
-0.021676621413139988
-0.021691423883932193
-0.01084378214769776
-7.672996443446872e-09
0.010843766802650485
-0.01626288308712532
-0.0054297858804194426
0.005429770535163337
0.01626286774357733
0.010837055943494444
-7.672795930729495e-09
-0.010837071287953432
0.010813695158557115
-7.671340933847735e-09
-0.010813710500001534
0.01077765921986273
-7.667158405606884e-09
-0.010777674552601386
0.01072975328714701
-7.658920182756969e-09
-0.010729768602876793
0.01066832170914655
-7.645583482479587e-09
-0.010668336997724534
0.010593317435113072
-7.626145159907555e-09
-0.010593332684370496
0.01050468862256733
-7.599358403745073e-09
-0.010504703817810223
0.010402449756176796
-7.564140620943109e-09
-0.010402464880473148
0.010286597524034703
-7.51951813677247e-09
-0.010286612558556242
0.010157122836917783
-7.46438024173968e-09
-0.01015713776093937
0.010014052137552047
-7.397280514358767e-09
-0.010014066928946377
0.009857388450301147
-7.3148040074064e-09
-0.009857403084596431
0.009687126416786932
-7.210352299207646e-09
-0.009687140865836063
0.009503247971368763
-7.073575043478228e-09
-0.009503262199816183
0.009305761925678911
-6.9154414730505825e-09
-0.009305775919741514
0.009094682893699082
-6.832699595591013e-09
-0.009094696746990817
0.008870002552343112
-7.012252053645603e-09
-0.008870016372741357
0.008631720165382896
-6.906165533263074e-09
-0.008631733796658193
0.008379847300844831
-6.691022540958971e-09
-0.008379860584451495
0.008114400237860038
-6.505619412561492e-09
-0.008114413205274179
0.007835377114992485
-6.181730463481487e-09
-0.007835389459547825
0.007542777174856532
-5.891390737551959e-09
-0.0075427889483005136
0.007236610279991435
-5.590004559843476e-09
-0.0072366214551490985
0.006916885677947955
-5.283953828159238e-09
-0.00691689624302796
0.0065836136352410484
-4.972504201369565e-09
-0.006583623578232765
0.006236803116705471
-4.6562619747911915e-09
-0.00623681242763803
0.0058764563865825155
-4.335973935915714e-09
-0.00587646505723692
0.005502574404122941
-4.012380585142301e-09
-0.0055025824278555025
0.005115161216451324
-3.686168994836288e-09
-0.005115168587993855
0.004714215879348626
-3.3579494669244783e-09
-0.00471422259464384
0.004299741025789958
-3.0282107087264395e-09
-0.004299747081760585
0.003871737937897319
-2.6973557864071815e-09
-0.0038717433322745295
0.003430207382143572
-2.3657061212228502e-09
-0.0034302121133380527
0.002975153221219025
-2.0334248651528488e-09
-0.0029751572881080847
0.002506574398138968
-1.7002109334878663e-09
-0.0025065777999463946
0.002024373228222423
-1.3657931542824584e-09
-0.002024375964052934
0.0015285473267749952
-1.022389957170966e-09
-0.0015285494005225569
0.0010136349241875674
-6.572532824729428e-10
-0.0010136363980790643
0.0004908265196544824
-3.1409131626665217e-10
-0.000490827230159272
0.016257746415828504
0.010847160736064114
0.005422469445605493
-7.673066866744398e-09
-0.005422484789818304
-0.010847176081086938
-0.016257761758010733
0.016227537640006378
0.010826540729872209
0.0054053423415706715
-7.672460127605542e-09
-0.0054053576817692205
-0.010826556073572573
-0.016227552977767352
0.016176617757385017
0.01079698158270958
0.0053869197472708
-7.669869524120295e-09
-0.005386935078095957
-0.010796996921096381
-0.016176633085000502
0.016104934603930605
0.010755355907774483
0.0053627997006304145
-7.663885849061955e-09
-0.005362815014131354
-0.010755371233674644
-0.01610494991325968
0.016012857417658625
0.010700738642627635
0.005332089167540867
-7.653265264372113e-09
-0.005332104453559836
-0.010700753946765833
-0.016012872698545753
0.015900344745614588
0.010632526386270623
0.005294585288781129
-7.637077479637082e-09
-0.005294600534949069
-0.010632541657574861
-0.015900359985650862
0.015767390972612386
0.010550715504312287
0.005250274505136491
-7.614167607690793e-09
-0.00525028969684593
-0.010550730729402517
-0.01576740615730864
0.015614008227784004
0.010455272187100201
0.0051991581093382335
-7.583339204219786e-09
-0.005199173229792723
-0.010455287350028057
-0.015614023340240715
0.0154402221519663
0.010346233619880843
0.005141229821216264
-7.543593956200933e-09
-0.005141244851643991
-0.01034624870280551
-0.01544023717332056
0.015246023209598423
0.010223567440123954
0.005076493384370649
-7.493904214568497e-09
-0.0050765083041161155
-0.010223582423180734
-0.015246038119431864
0.015031423756729194
0.010087293693752367
0.005004959728135343
-7.433099742657828e-09
-0.005004974513905502
-0.010087308555468395
-0.015031438533919651
0.014796432604318118
0.009937426996113337
0.004926623324242544
-7.359035820894283e-09
-0.004926637947344697
-0.009937441713435177
-0.014796447229246874
0.014541034870073034
0.00977396245886489
0.004841492499281484
-7.266886630782314e-09
-0.0048415069193312255
-0.009773977005719579
-0.014541049329862858
0.014265214876639402
0.00959689860330452
0.004749556279844929
-7.147050764435295e-09
-0.004749570442736479
-0.009596912948430503
-0.014265229172901342
0.013968982758026376
0.009406208684419362
0.004650813900152664
-6.995484192604858e-09
-0.004650827765008962
-0.00940622279658869
-0.0139689969002834
0.013652359192129246
0.009201929262182103
0.004545275164843534
-6.8524809068588635e-09
-0.004545288830526619
-0.009201943156813669
-0.01365237322427883
0.013315338879186678
0.00898404950193214
0.004432932950609791
-6.924558832852154e-09
-0.004432946952731889
-0.008984063343065793
-0.013315352484481865
0.012957917388355085
0.008752566169876316
0.004313793795509984
-6.985243153983607e-09
-0.0043138075502206115
-0.008752579933552466
-0.01295793083046539
0.012580108174155618
0.00850748935702312
0.004187858246405513
-6.802935302635904e-09
-0.004187871603509486
-0.008507502824401056
-0.01258012136249276
0.012181924179703207
0.008248826990099052
0.004055135224896827
-6.597808928045184e-09
-0.004055148128069515
-0.008248840117876442
-0.012181937009672395
0.011763374043699606
0.007976593367478798
0.003915626871428367
-6.344138219883128e-09
-0.0039156392347872914
-0.00797660602784899
-0.011763386375352049
0.01132446972446907
0.007690778895550013
0.003769327809375038
-6.037661204791687e-09
-0.003769339581667628
-0.007690790958141043
-0.011324481480333975
0.010865219258007295
0.007391395593873355
0.0036162448699408826
-5.741765898301504e-09
-0.003616256043605461
-0.007391407070666325
-0.010865230423287183
0.010385629954488903
0.007078448514934526
0.00345638311186696
-5.437983602704524e-09
-0.0034563936745907967
-0.007078459387345261
-0.010385640511909981
0.009885716774433373
0.006751948885872325
0.0032897484928456123
-5.129157230701367e-09
-0.0032897584336739525
-0.006751959141861794
-0.00988572671124818
0.00936549341172858
0.006411906760002897
0.0031163445471534823
-4.815179845242981e-09
-0.0031163538562754074
-0.006411916388591443
-0.009365502717607468
0.008824969329696175
0.0060583283029338846
0.002936171948590524
-4.496776593312058e-09
-0.002936180617778396
-0.0060583372950452795
-0.008824977996241948
0.008264146240688115
0.00569121432976977
0.00274923189774195
-4.1747076755246526e-09
-0.0027492399203042864
-0.0056912226780281225
-0.00826415426115189
0.007683025694506566
0.005310565195139367
0.0025555252025835887
-3.849689629092203e-09
-0.0025555325732200193
-0.005310572893607388
-0.007683033063520682
0.007081607618406709
0.004916386525845365
0.0023550526654877104
-3.5223762424733054e-09
-0.002355059380087751
-0.004916393569900877
-0.007081614331778184
0.0064598933794638306
0.004508675968675937
0.0021478158542701156
-3.193318404399805e-09
-0.0021478219097222496
-0.004508682354789082
-0.00645989943400176
0.005817887660315738
0.0040874372011962335
0.0019338145537354788
-2.8629552424834374e-09
-0.0019338199477583332
-0.004087442926717401
-0.005817893053656275
0.005155592952812646
0.0036526699759106425
0.0017130496897055797
-2.5316563081136194e-09
-0.0017130544206600655
-0.003652675038934909
-0.005155597683258746
0.004473007899351123
0.0032043778722041726
0.0014855236116772552
-2.199675149657873e-09
-0.0014855276782875582
-0.0032043822714206095
-0.0044730119658234644
0.0037701372233363466
0.002742559947197651
0.0012512325949103602
-1.8670126248400404e-09
-0.0012512359957479956
-0.0027425636816387163
-0.0037701406255371364
0.003046973521221731
0.0022672038470025325
0.0010101397044458605
-1.5332684107032069e-09
-0.00101014243673734
-0.0022672069161034617
-0.003046976259919523
0.0023035842607376697
0.0017782382487301367
0.0007616576584041116
-1.1961591884636012e-09
-0.0007616597173935331
-0.001778240651309846
-0.0023035863429301602
0.0015402776001468322
0.0012740369149629202
0.000504547628156062
-8.462852887362877e-10
-0.0005045489944511304
-0.0012740386790001282
-0.001540279023553025
0.0007506404181029789
0.0007524254355476896
0.0002379745698860258
-4.816951851898341e-10
-0.0002379752190725123
-0.0007524265479273924
-0.0007506411257521132
0.00022250994856293555
-1.534830795784849e-10
-0.00022251026733547609
SCALARS disp_y float
LOOKUP_TABLE default
-0.29110287341957564
0.0
0.0
-0.2911028734201971
-0.2802336058761613
-0.2693524756102422
-0.2584954085330509
-0.24767990308243534
-0.23691909252385907
-0.22622638091917782
-0.21561560749400432
-0.20510023916504969
-0.19469404634241114
-0.18441054821613687
-0.1742632192065329
-0.16426580304927518
-0.15443176710559212
-0.1447748802361507
-0.1353086447844303
-0.12604674420658155
-0.11700272874930102
-0.10819016021095063
-0.09962269847640569
-0.09131395138161728
-0.08327751495128442
-0.07552691024414122
-0.06807571099933796
-0.06093746665130623
-0.05412577599877574
-0.04765415952188835
-0.04153614636252884
-0.035785253206402384
-0.03041499201624841
-0.025438929070621837
-0.020870578278832416
-0.016723474498006822
-0.013011147077267892
-0.00974709810210503
-0.006944930498661475
-0.004617939404492769
-0.002781243219875242
-0.0014430729409272767
-0.0006058040787505932
-0.28567037950878504
-0.2747908421710518
-0.2639196829616166
-0.25308166111373515
-0.242291810552561
-0.2315633621928477
-0.22090990823285195
-0.21034513297326696
-0.19988266228253015
-0.1895361172826313
-0.17931899255481615
-0.1692449320169995
-0.15932750543404753
-0.14958033278117264
-0.1400170736599497
-0.130651308413078
-0.12149666085090649
-0.11256666135984228
-0.10387494928105956
-0.09543514819467601
-0.0872608519671654
-0.07936563809626934
-0.07176304300438752
-0.06446662335050124
-0.057489962405657534
-0.050846617995553574
-0.04455011420981003
-0.038613967874244814
-0.03305169603313863
-0.027876844838049693
-0.023102945324944762
-0.01874352648204186
-0.014812120066821538
-0.01132224313497585
-0.008287432764655673
-0.00572119762969832
-0.0036373524175327587
-0.002049133441443836
-0.0009686330788327614
-0.00032833593098971237
0.0
0.0
0.0
0.0
0.0
0.0
0.0
-0.0006058045889840199
-0.0014430735121673877
-0.0027812437965009924
-0.004617939977909125
-0.00694493107108546
-0.009747098672682902
-0.013011147646696095
-0.0167234750662304
-0.02087057884549069
-0.025438929635115095
-0.03041499257779425
-0.03578525376410095
-0.04153614691528567
-0.04765416006849516
-0.05412577653791075
-0.06093746718189811
-0.0680757115202873
-0.0755269107549771
-0.08327751543301656
-0.09131395181324282
-0.09962269884770208
-0.10819016032168237
-0.1170027281234156
-0.12604674355823497
-0.1353086448230919
-0.14477488043923326
-0.1544317673034076
-0.16426580321097817
-0.17426321933823297
-0.1844105483244194
-0.19469404643130941
-0.20510023923673476
-0.21561560755021703
-0.2262263809616504
-0.23691909255454793
-0.24767990310328122
-0.25849540854609776
-0.2693524756171522
-0.2802336058791804
-0.00032833628475685924
-0.0009686336518790521
-0.0020491340130748366
-0.003637352991388614
-0.005721198203119307
-0.008287433336021494
-0.011322243704991911
-0.01481212063571723
-0.018743527049593024
-0.023102945890683187
-0.027876845401263423
-0.0330516965929596
-0.03861396842973492
-0.044550114759783044
-0.05084661853870863
-0.05748996294079944
-0.06446662387660046
-0.07176304352035458
-0.07936563859904794
-0.08726085242456438
-0.09543514859846193
-0.1038749495544638
-0.11256666117386918
-0.12149666009314855
-0.13065130818150392
-0.14001707382487816
-0.14958033299018672
-0.15932750561386935
-0.1692449321633237
-0.17931899267463428
-0.1895361173813718
-0.19988266236324598
-0.21034513303757005
-0.2209099082824438
-0.2315633622298949
-0.24229181057839821
-0.2530816611308101
-0.26391968297187823
-0.2747908421761925
-0.2856703795109071
-0.2911044064415941
-0.2911982232902072
-0.29110440644149743
-0.29110009254151686
-0.29114238987848423
-0.2911423898785015
-0.2911000925412147
-0.2802228676283124
-0.2802192931837709
-0.28022286762994353
-0.2693346081542835
-0.26932682867433705
-0.2693346081578971
-0.258468932663867
-0.2584596622181423
-0.25846893267048254
-0.24764479897976927
-0.2476330096757928
-0.24764479899025907
-0.2368752509615485
-0.23686063602226076
-0.2368752509770322
-0.2261738009917104
-0.2261562699320983
-0.22617380101315643
-0.2155542304078103
-0.21553378775836995
-0.21555423043614225
-0.2050301438501657
-0.20500680165443255
-0.2050301438862715
-0.1946152197641402
-0.19458890966038062
-0.19461521980891644
-0.1843229280253494
-0.1842937366395503
-0.18432292808027861
-0.17416688081378168
-0.1741347504338948
-0.17416688088231544
-0.16416073825573396
-0.16412570190679743
-0.1641607383447178
-0.15431794135368862
-0.15428001491371596
-0.1543179414718656
-0.14465228593553653
-0.1446114146500187
-0.14465228606588454
-0.13517731807838954
-0.13513355711921624
-0.13517731810135228
-0.12590669508088492
-0.12586000306970696
-0.1259066944819939
-0.11685393241972386
-0.1168043239584954
-0.1168539318316594
-0.10803261092808958
-0.1079801004555798
-0.10803261098788619
-0.09945643409118626
-0.09940100114314208
-0.09945643431002887
-0.09113894261413007
-0.09108062104126322
-0.09113894285081878
-0.08309377227474446
-0.08303252984374208
-0.08309377252427144
-0.07533445765083488
-0.07527030241259275
-0.07533445790983048
-0.06787453218820536
-0.06780746588905229
-0.06787453245077618
-0.06072757685752281
-0.06065760555439063
-0.06072757712386878
-0.05390717559265196
-0.05383431428447937
-0.05390717586286546
-0.04742686640530014
-0.047351103938179866
-0.04742686667909262
-0.04130015327132375
-0.04122148925928325
-0.041300153548119466
-0.035540547436478276
-0.0354589807376105
-0.03554054771568597
-0.030161593952006203
-0.030077126544529962
-0.030161594233084902
-0.025176831918037667
-0.02508946538081992
-0.025176832200540195
-0.020599780984152844
-0.02050951709643784
-0.020599781267686777
-0.016443981958788646
-0.016350816107615015
-0.016443982243065116
-0.012722957576211672
-0.012626894991277436
-0.012722957861102169
-0.009450218877549148
-0.00935125750792645
-0.00945021916322281
-0.006639335064106521
-0.006537460692095031
-0.006639335351364477
-0.004303700850543165
-0.0041987595441366375
-0.004303701140617539
-0.0024574677709644816
-0.002348811072125703
-0.002457468065724188
-0.0011109704576499444
-0.0009977198702479132
-0.0011109707482183998
-0.00028408772324340584
-0.00017276572242077987
-0.00028408795405713807
-0.2802290117281606
-0.2856762518367345
-0.28022290230808405
-0.2856805279015786
-0.2802229023089053
-0.28567625183752865
-0.2802290117304786
-0.26934229196355164
-0.2747773973818864
-0.2693283063486483
-0.27476934143579124
-0.2693283063504641
-0.27477739738440377
-0.269342291968724
-0.2584801099870165
-0.2638975001656201
-0.25846219653718566
-0.26388920207858324
-0.2584621965404557
-0.2638975001706299
-0.25848010999679805
-0.2476594177486606
-0.25305087395193915
-0.2476359449799136
-0.25304047222930304
-0.24763594498513214
-0.2530508739603938
-0.24765941776424666
-0.23689353718173572
-0.24225233948453231
-0.23686430378130366
-0.2422391752210038
-0.23686430378901968
-0.2422523394974325
-0.23689353720474304
-0.2261957048119142
-0.2315151453045422
-0.22616065776644992
-0.23149908540002045
-0.2261606577771543
-0.23151514532298048
-0.2261957048437841
-0.2155798080397428
-0.22085293261918634
-0.21553890099156145
-0.2208339535249132
-0.2155389010056953
-0.22085293264406197
-0.21557980808194765
-0.20505934773673667
-0.21027940447551563
-0.20501263955218582
-0.21025751123964154
-0.20501263957020718
-0.21027940450775442
-0.20505934779054638
-0.1946480649297309
-0.19980819129591737
-0.19459549603341564
-0.19978337756139328
-0.19459549605577542
-0.19980819133639216
-0.1946480649964788
-0.1843594509741056
-0.18945288647112324
-0.18430103792254832
-0.1894251480864174
-0.18430103795007766
-0.18945288652088704
-0.18435945105567103
-0.1742070253460737
-0.17922702040702357
-0.17414278788725923
-0.17919636972012346
-0.17414278792191906
-0.17922702046833577
-0.17420702544637862
-0.1642045234302961
-0.1691442213400463
-0.1641344695870603
-0.16911065394168617
-0.16413446963292955
-0.16914422141793356
-0.16420452355717566
-0.15436536792326214
-0.1592180531411939
-0.15428949780811788
-0.15918157781411651
-0.15428949787007862
-0.15921805324440758
-0.15436536808491014
-0.14470337144748976
-0.14946212771965495
-0.14462163848928233
-0.1494227332129096
-0.14462163856042534
-0.14946212785063215
-0.1447033716278059
-0.13523203819562618
-0.1398901164671377
-0.13514449970817888
-0.13984780365125166
-0.13514449971480771
-0.13989011657341388
-0.13523203822223812
-0.12596504907647513
-0.130515617963611
-0.1258716788424553
-0.13047039746756298
-0.12587167853693498
-0.13051561778813028
-0.12596504843782536
-0.11691593892333321
-0.12135222568215498
-0.1168167320068412
-0.12130408403432398
-0.11681673170652523
-0.12135222435324437
-0.11691593830058183
-0.1080982575591041
-0.11241348347365536
-0.10799322901031772
-0.11236243016244885
-0.10799322903614211
-0.11241348332055262
-0.10809825764105435
-0.0995257119443306
-0.10371303522241923
-0.09941486530922643
-0.10365906931283465
-0.0994148654238886
-0.10371303538793458
-0.09952571225122853
-0.09121186171896647
-0.09526450318230298
-0.09109520272265534
-0.09520763019525086
-0.09109520284458023
-0.09526450341463809
-0.09121186205817092
-0.08317033267688366
-0.08708147810274076
-0.08304784266536813
-0.08702169715077016
-0.08304784279125288
-0.08708147834587618
-0.08317033304407734
-0.07541465047365914
-0.07917753886347291
-0.07528634655728188
-0.07911484368210675
-0.0752863466871421
-0.07917753911891864
-0.07541465085939134
-0.06795835851080659
-0.07156622210402382
-0.06782423541845434
-0.07150061832691822
-0.06782423555005214
-0.07156622236534384
-0.06795835890297802
-0.06081503319292744
-0.06426108617111025
-0.0606751034246843
-0.0641925765019274
-0.060675103557950305
-0.06426108643583477
-0.06081503359150742
-0.05399826040791228
-0.057275715529067225
-0.05385253048594145
-0.05720430410698826
-0.053852530621090654
-0.05727571579763909
-0.05399826081265864
-0.04752157171537648
-0.05062366851251076
-0.047370046073380793
-0.050549358015189005
-0.04737004621029358
-0.05062366878482636
-0.04752157212563097
-0.041398485317320474
-0.04431846461959978
-0.04124115804546966
-0.044241252781055763
-0.041241158183882014
-0.044318464895184366
-0.041398485732141034
-0.03564251030877562
-0.03837361594222584
-0.03547937377393321
-0.03829350096734113
-0.035479373913548884
-0.03837361622049444
-0.0356425107272701
-0.03026717766315356
-0.032802644714911476
-0.030098245981553064
-0.0327196290475572
-0.030098246122103163
-0.03280264499527926
-0.030267178084500364
-0.025286040244043406
-0.02761909489627238
-0.02511130852724748
-0.027533179651553323
-0.02511130866850649
-0.027619095178254022
-0.025286040667569995
-0.020712614464169676
-0.022836497293577233
-0.020532084075899844
-0.022747683423275034
-0.020532084217672445
-0.0228364975767566
-0.020712614889286465
-0.016560439307375295
-0.018468381601549934
-0.016374109714928604
-0.01837666774542339
-0.01637410985707234
-0.018468381885578884
-0.016560439733641318
-0.012843035455830924
-0.014528279315007895
-0.012650909803910013
-0.01443366612411047
-0.012650909946370567
-0.014528279599666847
-0.012843035882996328
-0.00957392859285799
-0.011029706618697063
-0.009376007102117775
-0.010932196096153904
-0.009376007244994013
-0.011029706903980764
-0.009573929021061621
-0.0067666287577655086
-0.007986202750984463
-0.006562903923877022
-0.007885791788009713
-0.00656290406779468
-0.007986203037355045
-0.006766629187640925
-0.004434820762764897
-0.005411240483238815
-0.004225131115075883
-0.005307888030900952
-0.004225131260096375
-0.005411240771674869
-0.004434821195682856
-0.002591797019405282
-0.003318645480789908
-0.0023757673381912896
-0.0032119971665447687
-0.0023757674918996035
-0.0033186457733484997
-0.002591797451948646
-0.0012541136177069612
-0.0017209453654487004
-0.0010268001755323948
-0.0016096937620296804
-0.0010268003296133115
-0.00172094566220606
-0.001254114048599991
-0.00040389387996866033
-0.0006309986668871931
-0.00019874565301188776
-0.0005181634868544295
-0.0001987457479618556
-0.0006309989401297203
-0.00040389424535484415
-4.7441261969142765e-05
1.3325527178632418e-05
-4.744138360622751e-05
SCALARS von_mises_stress float
LOOKUP_TABLE default
2561966559.4357224
240959705584.43604
240959902422.60754
2561966872.0853896
3668827983.5208807
11589916021.713697
18120625189.315525
24094760602.793625
30028230963.45511
35987885742.69184
41939172774.74553
47889499722.97099
53826336021.36364
59770014392.10083
65717261370.542816
71656725564.96243
77616474322.55206
83564755409.74713
89514721542.14357
95455937475.82764
101399214820.5408
107351005310.30252
113288773356.55046
119230004564.78351
125162036218.03198
131088865047.00581
137018407869.63847
142943053791.11792
148862104724.56662
154774863171.56558
160683655399.0413
166592737902.8851
172500103376.52966
178404081593.06387
184304557254.71234
190198705806.80786
196087633633.18454
201967652034.97137
207845693943.27008
213647355831.05988
219505920821.15225
222021746247.2946
230333758717.19592
1348803635.1787624
8010523793.702255
14953625610.391161
21084528825.27178
27061075218.559692
33002545510.076694
38964074133.13507
44910681424.545006
50856837865.600136
56794339274.3134
62741415490.030815
68684752156.55912
74632211581.53197
80589318588.0308
86535039533.01791
92483506856.22432
98422351014.09229
104372213824.54173
110315522558.63351
116255450519.6078
122191492292.74284
128120714464.52074
134048558063.6267
139975724308.79416
145897345900.83853
151812610692.6069
157723924949.88882
163631355305.0227
169539886381.3423
175445254457.08798
181347464254.96912
187244222697.05035
193135567491.90518
199018926127.91592
204902083259.72012
210722003365.73087
216637568037.6442
221121970340.8671
224828201503.8645
229821439342.1346
96231610482.4128
26004477389.029053
96231742829.942
163877252463.10135
50745925149.404976
50746037780.062164
163877424268.1497
230333916815.37906
222021882878.19382
219506058521.17682
213647502745.06522
207845843496.6792
201967799670.36264
196087771144.89703
190198842479.21
184304707117.38153
178404230344.17923
172500242111.7545
166592887287.1768
160683794035.49368
154775002093.67752
148862244334.39917
142943193189.38193
137018538621.43001
131088987452.90762
125162163744.60985
119230093513.48042
113288814022.12024
107351029227.8478
101399326901.97523
95456050522.93314
89514719499.40446
83564768143.04099
77616506007.37645
71656760163.94038
65717294947.4565
59770044076.177956
53826356226.94489
47889518369.16768
41939187558.51773
35987896349.89248
30028238587.485573
24094764887.307907
18120627688.79809
11589917149.144064
3668828495.2423677
229821616573.76437
224828335568.48517
221122114275.75983
216637715072.00778
210722149969.50223
204902231645.7604
199019073662.0022
193135713940.8056
187244369001.4648
181347615396.5266
175445401631.53043
169540034931.95435
163631486205.4674
157724073016.53568
151812757851.12527
145897496682.66977
139975854030.77698
134048688750.57294
128120838209.55066
122191614039.29837
116255506860.64008
110315555194.49477
104372255272.69327
98422526599.24367
92483539728.03122
86535046492.33412
80589340654.67136
74632251734.52643
68684785348.03672
62741444879.21521
56794364064.26078
50856853890.67395
44910698066.6992
38964086660.48769
33002553692.89675
27061081656.215588
21084532871.0761
14953627850.006062
8010524334.0233
1348803801.7075067
8341214441.93584
23401501254.193405
8341214944.314823
1549850944.0368226
22488501117.41295
22488501036.515
1549851079.8202891
11512409778.032398
5960529534.976249
11512409942.03053
10684283831.679678
9624229696.44657
10684284268.672127
12191216057.153547
10476657359.07709
12191218311.273922
14444882849.500109
10621950878.903097
14444887362.25225
17009932479.670025
10643252509.302032
17009939002.220829
19698120555.404724
10650329456.220585
19698129360.384132
22465912378.782078
10640113536.00263
22465926193.494812
25275525314.61911
10628700777.005743
25275542003.2328
28130493541.465088
10622420543.952383
28130514778.860935
31010378903.15079
10625704568.355944
31010403920.94969
33905385696.17716
10625947277.396494
33905417417.444824
36816826306.84557
10631722553.95668
36816862765.0507
39739444377.79753
10635653510.9998
39739485293.55889
42677983849.89703
10629238066.840714
42678033832.02557
45613587568.70416
10624031848.60498
45613634978.69281
48559121943.91609
10621496647.06209
48559148864.76421
51511769264.28642
10625676786.072454
51511749401.20722
54464781158.68808
10623256329.952295
54464848649.31335
57419621681.58347
10616211155.948587
57419705069.891716
60373856372.9842
10608041751.032883
60373959940.71977
63333886049.2563
10598867080.152534
63334012244.108894
66293093212.85062
10594857103.71146
66293220574.85344
69253969688.61072
10592620869.612423
69254100143.75186
72213343478.52469
10586571385.446957
72213477887.6844
75171998197.68799
10578669710.864273
75172136001.31854
78130892493.92456
10573908913.575838
78131031335.51634
81091256447.19585
10572677714.51643
81091394623.22975
84053263861.89174
10572807427.084347
84053409128.89989
87014138456.75314
10571743265.684864
87014280518.6602
89976865864.13521
10570759246.994501
89977010849.79552
92939484994.91504
10569814421.677803
92939633372.18703
95902997385.3777
10568354468.62326
95903137302.53073
98866504881.71191
10568020157.518427
98866647165.91176
101830825606.72597
10566644278.369532
101830972795.68341
104795419073.49953
10572926876.431238
104795567035.11336
107778894395.97208
10599341541.710955
107779041903.2579
110930860118.6731
11126113962.799967
110930998713.46814
115419802046.49225
11866504617.709549
115419940783.43091
119637469014.00781
11552837955.017653
119637650970.15825
7045556073.641965
7704024164.88237
8887229315.868752
13392990116.692167
8887229467.288713
7704023936.220645
7045556347.2568445
10226604549.699633
9959469818.272501
10055923889.49933
8385348793.125174
10055924386.587448
9959470319.890244
10226605757.145096
14218075062.575817
11308840674.80986
10577010157.837856
10077805034.416767
10577011339.334742
11308842055.55066
14218077990.23956
18537892435.844357
13169390735.564676
11334082508.746325
10397954089.96455
11334085173.547499
13169393436.249268
18537896450.928272
22911038761.46334
15630694979.81333
12190191536.880583
10467494649.773548
12190196074.137094
15630699961.617195
22911044720.326214
27336410618.440968
18276715177.486313
13168226697.907478
10495462790.691166
13168233830.053776
18276722416.592552
27336419654.81578
31777094688.86963
21014488565.435925
14227149513.602226
10485101228.494202
14227159458.319017
21014500102.789497
31777107918.687096
36224323676.76685
23813274796.13866
15355211694.777563
10476494073.863445
15355225069.006104
23813289318.580345
36224342111.64456
40677653015.67377
26651481046.598297
16547132614.837067
10468442085.856537
16547150316.376305
26651500876.64528
40677675532.73774
45139788796.96496
29526402937.199608
17787784925.812435
10462392172.976665
17787807694.687077
29526425764.283413
45139813087.427315
49602792710.68033
32417849969.06032
19063434808.473938
10473020615.585913
19063462436.998573
32417878100.636868
49602823458.59296
54066682517.30505
35322651226.65206
20370262929.582764
10464305515.961369
20370296696.49373
35322684535.4729
54066717568.098175
58542131943.9526
38245382683.90909
21699795908.771687
10479360958.974539
21699838800.17863
38245419801.20269
58542169070.508896
63017739063.21883
41176935890.44058
23050884053.67262
10475099839.073025
23050937716.294582
41176979553.51477
63017773617.545715
67490587661.63914
44116899479.975204
24413992654.321247
10467782737.843801
24414051879.133465
44116947711.665306
67490611452.17117
71962294428.56248
47058487975.26993
25794422615.258995
10464075763.392527
25794415447.524998
47058520041.79843
71962360553.00902
76437436386.44846
50009530269.909424
27189087076.994408
10464861232.645206
27189020772.50273
50009525536.43973
76437493362.57074
80914662398.48387
52964751001.486885
28590325130.918148
10468865294.277525
28590406259.997227
52964782931.30046
80914701015.22699
85385392520.37976
55919525125.21549
29999217395.15274
10461587360.571177
29999312402.477894
55919601576.00292
85385455912.2409
89857436349.99677
58875029699.129265
31412707475.481567
10454224780.303295
31412813100.6092
58875108678.111
89857531890.37149
94327002795.03845
61832677527.13093
32835168791.289062
10445794547.113993
32835287842.81389
61832805467.813965
94327122502.1008
98793069183.1853
64793603514.25949
34263468839.283012
10438325863.535934
34263594344.140854
64793732733.56678
98793196301.71361
103260682085.42928
67754879302.03194
35696726984.10393
10437319428.709885
35696856914.590126
67755010037.412704
103260812630.93399
107724794878.87436
70715593485.07849
37132018701.25855
10433142193.128723
37132149604.2419
70715723407.6534
107724934628.70837
112186219395.2324
73675221324.37866
38569832910.78856
10423888133.65826
38569966211.01126
73675358569.35341
112186359071.49951
116644629172.30548
76634541052.58424
40011616657.10929
10418004350.629833
40011752232.277565
76634677525.23547
116644768158.85632
121102370846.33742
79594940200.63225
41457365555.1727
10415326547.087585
41457503254.05301
79595079030.57266
121102514184.0539
125561299827.191
82556653930.24017
42906493055.14781
10416206269.58721
42906632817.38697
82556796359.83667
125561438647.26408
130018946651.86118
85518279472.08643
44356894728.43195
10415347863.22691
44357034918.12945
85518427116.82472
130019089974.44438
134477077956.31252
88480835436.30037
45809949368.25266
10413655777.150303
45810091671.51753
88480982591.46555
134477221079.45973
138934846656.16873
91443855749.07333
47264650498.285095
10413284029.99487
47264790954.135284
91443998758.4894
138934985267.54483
143391554947.2665
94407255814.69153
48721432953.92297
10412011859.97333
48721577840.52656
94407398501.349
143391702488.85242
147848716264.4622
97371180839.01775
50179430669.27025
10410511794.813192
50179575533.411316
97371323336.37378
147848863711.21677
152303453549.66983
100335349758.35925
51639945856.060486
10410899469.46442
51640090947.84305
100335492323.01768
152303600579.7596
156767453472.4284
103299424965.461
53098670000.23017
10410092247.285357
53098815255.37772
103299572057.0601
156767591922.81253
161181617353.41223
106286349481.77971
54637877372.21199
10435414304.309591
54638022699.44074
106286492197.25853
161181764982.47247
165723152250.41605
109277445550.97885
56213311989.51189
10608655647.518354
56213458784.82351
109277592007.72824
165723299376.25122
170739102178.9579
113335266065.2805
58984523057.30045
11336829930.041672
58984672246.04538
113335400159.99905
170739249425.13324
175060609961.3954
115684068471.16785
60358952197.83584
11891550446.547476
60359109831.44404
115684228305.90242
175060771060.15225
107267911496.68304
4980696002.594206
107268068136.1887
