# vtk DataFile Version 2.0
Generated Volume Mesh
ASCII
DATASET UNSTRUCTURED_GRID
POINTS 205 float
0.0 -0.009999999776482582 0.0
0.20000000298023224 -0.009999999776482582 0.0
0.20000000298023224 0.009999999776482582 0.0
0.0 0.009999999776482582 0.0
0.004999999888241291 -0.009999999776482582 0.0
0.009999999776482582 -0.009999999776482582 0.0
0.014999999664723873 -0.009999999776482582 0.0
0.019999999552965164 -0.009999999776482582 0.0
0.02500000037252903 -0.009999999776482582 0.0
0.029999999329447746 -0.009999999776482582 0.0
0.03500000014901161 -0.009999999776482582 0.0
0.03999999910593033 -0.009999999776482582 0.0
0.04500000178813934 -0.009999999776482582 0.0
0.05000000074505806 -0.009999999776482582 0.0
0.054999999701976776 -0.009999999776482582 0.0
0.05999999865889549 -0.009999999776482582 0.0
0.06499999761581421 -0.009999999776482582 0.0
0.07000000029802322 -0.009999999776482582 0.0
0.07500000298023224 -0.009999999776482582 0.0
0.07999999821186066 -0.009999999776482582 0.0
0.08500000089406967 -0.009999999776482582 0.0
0.09000000357627869 -0.009999999776482582 0.0
0.0949999988079071 -0.009999999776482582 0.0
0.10000000149011612 -0.009999999776482582 0.0
0.10499999672174454 -0.009999999776482582 0.0
0.10999999940395355 -0.009999999776482582 0.0
0.11500000208616257 -0.009999999776482582 0.0
0.11999999731779099 -0.009999999776482582 0.0
0.125 -0.009999999776482582 0.0
0.12999999523162842 -0.009999999776482582 0.0
0.13500000536441803 -0.009999999776482582 0.0
0.14000000059604645 -0.009999999776482582 0.0
0.14499999582767487 -0.009999999776482582 0.0
0.15000000596046448 -0.009999999776482582 0.0
0.1550000011920929 -0.009999999776482582 0.0
0.1599999964237213 -0.009999999776482582 0.0
0.16500000655651093 -0.009999999776482582 0.0
0.17000000178813934 -0.009999999776482582 0.0
0.17499999701976776 -0.009999999776482582 0.0
0.18000000715255737 -0.009999999776482582 0.0
0.1850000023841858 -0.009999999776482582 0.0
0.1899999976158142 -0.009999999776482582 0.0
0.19499999284744263 -0.009999999776482582 0.0
0.20000000298023224 -0.004999999888241291 0.0
0.20000000298023224 -2.538941279439655e-14 0.0
0.20000000298023224 0.004999999888241291 0.0
0.19499999284744263 0.009999999776482582 0.0
0.1899999976158142 0.009999999776482582 0.0
0.1850000023841858 0.009999999776482582 0.0
0.18000000715255737 0.009999999776482582 0.0
0.17499999701976776 0.009999999776482582 0.0
0.17000000178813934 0.009999999776482582 0.0
0.16500000655651093 0.009999999776482582 0.0
0.1599999964237213 0.009999999776482582 0.0
0.1550000011920929 0.009999999776482582 0.0
0.15000000596046448 0.009999999776482582 0.0
0.14499999582767487 0.009999999776482582 0.0
0.14000000059604645 0.009999999776482582 0.0
0.13500000536441803 0.009999999776482582 0.0
0.12999999523162842 0.009999999776482582 0.0
0.125 0.009999999776482582 0.0
0.11999999731779099 0.009999999776482582 0.0
0.11500000208616257 0.009999999776482582 0.0
0.10999999940395355 0.009999999776482582 0.0
0.10499999672174454 0.009999999776482582 0.0
0.10000000149011612 0.009999999776482582 0.0
0.0949999988079071 0.009999999776482582 0.0
0.09000000357627869 0.009999999776482582 0.0
0.08500000089406967 0.009999999776482582 0.0
0.07999999821186066 0.009999999776482582 0.0
0.07500000298023224 0.009999999776482582 0.0
0.07000000029802322 0.009999999776482582 0.0
0.06499999761581421 0.009999999776482582 0.0
0.05999999865889549 0.009999999776482582 0.0
0.054999999701976776 0.009999999776482582 0.0
0.05000000074505806 0.009999999776482582 0.0
0.04500000178813934 0.009999999776482582 0.0
0.03999999910593033 0.009999999776482582 0.0
0.03500000014901161 0.009999999776482582 0.0
0.029999999329447746 0.009999999776482582 0.0
0.02500000037252903 0.009999999776482582 0.0
0.019999999552965164 0.009999999776482582 0.0
0.014999999664723873 0.009999999776482582 0.0
0.009999999776482582 0.009999999776482582 0.0
0.004999999888241291 0.009999999776482582 0.0
0.0 0.004999999888241291 0.0
0.0 2.538941279439655e-14 0.0
0.0 -0.004999999888241291 0.0
0.004999999888241291 -0.004999999888241291 0.0
0.004999999888241291 2.4119595209981526e-14 0.0
0.004999999888241291 0.004999999888241291 0.0
0.009999999776482582 -0.004999999888241291 0.0
0.009999999776482582 2.285064498730449e-14 0.0
0.009999999776482582 0.004999999888241291 0.0
0.014999999664723873 -0.004999999888241291 0.0
0.014999999664723873 2.158082740288947e-14 0.0
0.014999999664723873 0.004999999888241291 0.0
0.019999999552965164 -0.004999999888241291 0.0
0.019999999552965164 2.0311877180212434e-14 0.0
0.019999999552965164 0.004999999888241291 0.0
0.02500000037252903 -0.004999999888241291 0.0
0.02500000037252903 1.904205959579741e-14 0.0
0.02500000037252903 0.004999999888241291 0.0
0.029999999329447746 -0.004999999888241291 0.0
0.029999999329447746 1.777224201138239e-14 0.0
0.029999999329447746 0.004999999888241291 0.0
0.03500000014901161 -0.004999999888241291 0.0
0.03500000014901161 1.6503291788705354e-14 0.0
0.03500000014901161 0.004999999888241291 0.0
0.03999999910593033 -0.004999999888241291 0.0
0.03999999910593033 1.523347420429033e-14 0.0
0.03999999910593033 0.004999999888241291 0.0
0.04500000178813934 -0.004999999888241291 0.0
0.04500000178813934 1.3964957662482291e-14 0.0
0.04500000178813934 0.004999999888241291 0.0
0.05000000074505806 -0.004999999888241291 0.0
0.05000000074505806 1.2695140078067269e-14 0.0
0.05000000074505806 0.004999999888241291 0.0
0.054999999701976776 -0.004999999888241291 0.0
0.054999999701976776 1.1424888812783252e-14 0.0
0.054999999701976776 0.004999999888241291 0.0
0.05999999865889549 -0.004999999888241291 0.0
0.05999999865889549 1.0155938590106217e-14 0.0
0.05999999865889549 0.004999999888241291 0.0
0.06499999761581421 -0.004999999888241291 0.0
0.06499999761581421 8.886121005691194e-15 0.0
0.06499999761581421 0.004999999888241291 0.0
0.07000000029802322 -0.004999999888241291 0.0
0.07000000029802322 7.617604463883154e-15 0.0
0.07000000029802322 0.004999999888241291 0.0
0.07500000298023224 -0.004999999888241291 0.0
0.07500000298023224 6.347786879468131e-15 0.0
0.07500000298023224 0.004999999888241291 0.0
0.07999999821186066 -0.004999999888241291 0.0
0.07999999821186066 5.077535614184114e-15 0.0
0.07999999821186066 0.004999999888241291 0.0
0.08500000089406967 -0.004999999888241291 0.0
0.08500000089406967 3.809019072376074e-15 0.0
0.08500000089406967 0.004999999888241291 0.0
0.09000000357627869 -0.004999999888241291 0.0
0.09000000357627869 2.538767807092057e-15 0.0
0.09000000357627869 0.004999999888241291 0.0
0.0949999988079071 -0.004999999888241291 0.0
0.0949999988079071 1.2698175844150228e-15 0.0
0.0949999988079071 0.004999999888241291 0.0
0.10000000149011612 -0.004999999888241291 0.0
0.10000000149011612 0.0 0.0
0.10000000149011612 0.004999999888241291 0.0
0.10499999672174454 -0.004999999888241291 0.0
0.10499999672174454 -1.2698175844150228e-15 0.0
0.10499999672174454 0.004999999888241291 0.0
0.10999999940395355 -0.004999999888241291 0.0
0.10999999940395355 -2.538767807092057e-15 0.0
0.10999999940395355 0.004999999888241291 0.0
0.11500000208616257 -0.004999999888241291 0.0
0.11500000208616257 -3.80858539150708e-15 0.0
0.11500000208616257 0.004999999888241291 0.0
0.11999999731779099 -0.004999999888241291 0.0
0.11999999731779099 -5.077535614184114e-15 0.0
0.11999999731779099 0.004999999888241291 0.0
0.125 -0.004999999888241291 0.0
0.125 -6.347570039033634e-15 0.0
0.125 0.004999999888241291 0.0
0.12999999523162842 -0.004999999888241291 0.0
0.12999999523162842 -7.617387623448657e-15 0.0
0.12999999523162842 0.004999999888241291 0.0
0.13500000536441803 -0.004999999888241291 0.0
0.13500000536441803 -8.886121005691194e-15 0.0
0.13500000536441803 0.004999999888241291 0.0
0.14000000059604645 -0.004999999888241291 0.0
0.14000000059604645 -1.0155938590106217e-14 0.0
0.14000000059604645 0.004999999888241291 0.0
0.14499999582767487 -0.004999999888241291 0.0
0.14499999582767487 -1.1424888812783252e-14 0.0
0.14499999582767487 0.004999999888241291 0.0
0.15000000596046448 -0.004999999888241291 0.0
0.15000000596046448 -1.2694923237632771e-14 0.0
0.15000000596046448 0.004999999888241291 0.0
0.1550000011920929 -0.004999999888241291 0.0
0.1550000011920929 -1.3964523981613297e-14 0.0
0.1550000011920929 0.004999999888241291 0.0
0.1599999964237213 -0.004999999888241291 0.0
0.1599999964237213 -1.523369104472483e-14 0.0
0.1599999964237213 0.004999999888241291 0.0
0.16500000655651093 -0.004999999888241291 0.0
0.16500000655651093 -1.650350862913985e-14 0.0
0.16500000655651093 0.004999999888241291 0.0
0.17000000178813934 -0.004999999888241291 0.0
0.17000000178813934 -1.777224201138239e-14 0.0
0.17000000178813934 0.004999999888241291 0.0
0.17499999701976776 -0.004999999888241291 0.0
0.17499999701976776 -1.9041625914928417e-14 0.0
0.17499999701976776 0.004999999888241291 0.0
0.18000000715255737 -0.004999999888241291 0.0
0.18000000715255737 -2.0311768759995186e-14 0.0
0.18000000715255737 0.004999999888241291 0.0
0.1850000023841858 -0.004999999888241291 0.0
0.1850000023841858 -2.158109845343259e-14 0.0
0.1850000023841858 0.004999999888241291 0.0
0.1899999976158142 -0.004999999888241291 0.0
0.1899999976158142 -2.2850319726652746e-14 0.0
0.1899999976158142 0.004999999888241291 0.0
0.19499999284744263 -0.004999999888241291 0.0
0.19499999284744263 -2.4119568104927214e-14 0.0
0.19499999284744263 0.004999999888241291 0.0
CELLS 160 800
4 0 4 88 87
4 87 88 89 86
4 86 89 90 85
4 85 90 84 3
4 4 5 91 88
4 88 91 92 89
4 89 92 93 90
4 90 93 83 84
4 5 6 94 91
4 91 94 95 92
4 92 95 96 93
4 93 96 82 83
4 6 7 97 94
4 94 97 98 95
4 95 98 99 96
4 96 99 81 82
4 7 8 100 97
4 97 100 101 98
4 98 101 102 99
4 99 102 80 81
4 8 9 103 100
4 100 103 104 101
4 101 104 105 102
4 102 105 79 80
4 9 10 106 103
4 103 106 107 104
4 104 107 108 105
4 105 108 78 79
4 10 11 109 106
4 106 109 110 107
4 107 110 111 108
4 108 111 77 78
4 11 12 112 109
4 109 112 113 110
4 110 113 114 111
4 111 114 76 77
4 12 13 115 112
4 112 115 116 113
4 113 116 117 114
4 114 117 75 76
4 13 14 118 115
4 115 118 119 116
4 116 119 120 117
4 117 120 74 75
4 14 15 121 118
4 118 121 122 119
4 119 122 123 120
4 120 123 73 74
4 15 16 124 121
4 121 124 125 122
4 122 125 126 123
4 123 126 72 73
4 16 17 127 124
4 124 127 128 125
4 125 128 129 126
4 126 129 71 72
4 17 18 130 127
4 127 130 131 128
4 128 131 132 129
4 129 132 70 71
4 18 19 133 130
4 130 133 134 131
4 131 134 135 132
4 132 135 69 70
4 19 20 136 133
4 133 136 137 134
4 134 137 138 135
4 135 138 68 69
4 20 21 139 136
4 136 139 140 137
4 137 140 141 138
4 138 141 67 68
4 21 22 142 139
4 139 142 143 140
4 140 143 144 141
4 141 144 66 67
4 22 23 145 142
4 142 145 146 143
4 143 146 147 144
4 144 147 65 66
4 23 24 148 145
4 145 148 149 146
4 146 149 150 147
4 147 150 64 65
4 24 25 151 148
4 148 151 152 149
4 149 152 153 150
4 150 153 63 64
4 25 26 154 151
4 151 154 155 152
4 152 155 156 153
4 153 156 62 63
4 26 27 157 154
4 154 157 158 155
4 155 158 159 156
4 156 159 61 62
4 27 28 160 157
4 157 160 161 158
4 158 161 162 159
4 159 162 60 61
4 28 29 163 160
4 160 163 164 161
4 161 164 165 162
4 162 165 59 60
4 29 30 166 163
4 163 166 167 164
4 164 167 168 165
4 165 168 58 59
4 30 31 169 166
4 166 169 170 167
4 167 170 171 168
4 168 171 57 58
4 31 32 172 169
4 169 172 173 170
4 170 173 174 171
4 171 174 56 57
4 32 33 175 172
4 172 175 176 173
4 173 176 177 174
4 174 177 55 56
4 33 34 178 175
4 175 178 179 176
4 176 179 180 177
4 177 180 54 55
4 34 35 181 178
4 178 181 182 179
4 179 182 183 180
4 180 183 53 54
4 35 36 184 181
4 181 184 185 182
4 182 185 186 183
4 183 186 52 53
4 36 37 187 184
4 184 187 188 185
4 185 188 189 186
4 186 189 51 52
4 37 38 190 187
4 187 190 191 188
4 188 191 192 189
4 189 192 50 51
4 38 39 193 190
4 190 193 194 191
4 191 194 195 192
4 192 195 49 50
4 39 40 196 193
4 193 196 197 194
4 194 197 198 195
4 195 198 48 49
4 40 41 199 196
4 196 199 200 197
4 197 200 201 198
4 198 201 47 48
4 41 42 202 199
4 199 202 203 200
4 200 203 204 201
4 201 204 46 47
4 42 1 43 202
4 202 43 44 203
4 203 44 45 204
4 204 45 2 46
CELL_TYPES 160
9
9
9
9
9
9
9
9
9
9
9
9
9
9
9
9
9
9
9
9
9
9
9
9
9
9
9
9
9
9
9
9
9
9
9
9
9
9
9
9
9
9
9
9
9
9
9
9
9
9
9
9
9
9
9
9
9
9
9
9
9
9
9
9
9
9
9
9
9
9
9
9
9
9
9
9
9
9
9
9
9
9
9
9
9
9
9
9
9
9
9
9
9
9
9
9
9
9
9
9
9
9
9
9
9
9
9
9
9
9
9
9
9
9
9
9
9
9
9
9
9
9
9
9
9
9
9
9
9
9
9
9
9
9
9
9
9
9
9
9
9
9
9
9
9
9
9
9
9
9
9
9
9
9
9
9
9
9
9
9
POINT_DATA 205
SCALARS stress11 float
LOOKUP_TABLE default
-6777698139.887695
-263644786614.0266
263634030814.08398
6779660293.043457
-6242582621.151855
-12346934536.597168
-19999099732.466797
-26237573604.083496
-32602265505.6875
-38937379663.01953
-45298664626.32178
-51672172861.34668
-58053918086.1084
-64437541991.18506
-70820575309.22021
-77213164226.24512
-83588558381.60938
-89959597669.40625
-96335503194.0459
-102708754863.1753
-109078090983.31445
-115446652586.0791
-121812263713.33643
-128185937180.81396
-134558247685.6919
-140923477463.9165
-147285552273.8828
-153646480767.63623
-160004772121.71777
-166358548211.03223
-172710460442.9829
-179054743308.23877
-185395925308.43945
-191730939473.04834
-198055101127.0454
-204368843676.54688
-210662012197.29932
-216947628582.90186
-223145730446.45264
-229547194789.28955
-234779846371.0298
-238560467118.4856
-238479241845.51562
-126445388170.05078
-4444862.75
126436328493.50427
238471066118.95874
238552591640.0984
234771706308.81885
229538834107.84082
223137492698.35107
216940044365.7539
210653941043.02588
204361701329.67188
198046740002.1543
191722376684.60254
185389316925.9209
179047205087.28027
172702484990.9961
166353259646.68115
159999354279.5005
153643280162.24902
147281487133.2422
140918433796.45898
134552958487.28223
128180230273.49219
121807451475.20605
115446923303.48633
109074936077.05469
102702543036.68994
96332297020.86719
89963536872.3125
83587296671.47021
77208330648.29883
70824338446.45654
64436889316.58301
58048331263.43848
51672683661.79883
45302282970.25293
38946515779.53906
32599223204.78125
26241012519.171875
19995152286.165527
12351492533.172363
6248403509.521484
5668202845.387207
-391764.83728027344
-5667415069.946289
-3379041639.722168
-908744.375
3380242052.94458
-6916566600.756592
2295200.635498047
6921979178.423096
-9199835624.432617
2189422.302001953
9199841559.119629
-12144467894.901367
2225907.75
12149980285.476562
-15176909590.901367
2380482.533935547
15180903460.738525
-18199882104.26123
334931.2598876953
18200742855.1167
-21224318031.62915
291586.5625
21225819315.697266
-24250347858.51123
1579097.0045166016
24251759015.979004
-27274716967.193848
2476622.928588867
27277303970.365723
-30304876600.277832
-518340.59375
30304547344.566162
-33329499449.930176
3625536.303894043
33330928086.52832
-36361703979.00244
-261886.8969116211
36359705847.20288
-39382910348.3667
1353044.9263305664
39384893421.38501
-42405066247.631836
552373.2810668945
42405193593.46997
-45427130003.9751
469963.6438598633
45426143188.387695
-48449385830.67627
-1783532.9822387695
48446753223.75171
-51468749584.40039
-1152029.6697998047
51465869474.444336
-54489272906.99414
-1641116.736694336
54486111053.39429
-57507092010.41211
-2250327.08782959
57502971971.72168
-60527662160.22461
-2082236.80078125
60523667818.45044
-63546784276.02637
-2074961.8925170898
63543085977.683105
-66567441423.25586
-2649861.0681152344
66562291149.96948
-69586850529.47559
-2539713.890563965
69579925720.7395
-72604684062.40405
-3279687.3864746094
72600255619.61401
-75622473822.34766
-2970834.8985595703
75617714518.35498
-78641742589.55664
-3648658.2571411133
78635194542.15259
-81659055805.06812
-3342691.5696105957
81652303243.76147
-84676795661.4187
-4216597.258361816
84668423572.52368
-87694069864.96777
-3842671.724304199
87686001103.75122
-90711328531.16675
-3878649.96673584
90702894884.49219
-93727111481.70679
-3126494.089050293
93720292332.05322
-96742369980.45898
-3070470.074584961
96736258818.21533
-99758870490.4668
-4481066.168136597
99750326527.7351
-102772035709.22314
-4237485.472747803
102763704009.51416
-105778506805.76367
-4249692.188903809
105770026846.21973
-108751774732.09131
-4140320.772918701
108743535534.073
-112149723310.40942
-4196409.354820251
112141359630.35986
-117195629137.92651
-4192122.0250701904
117187133007.14673
-111092803113.08789
-3816662.674156189
111085152132.90442
SCALARS stress22 float
LOOKUP_TABLE default
-5637715299.575439
-108422144323.75366
108417174583.20764
5632875250.440796
-1849290227.1469727
-1598044836.2529297
-3801203489.328369
-4751069767.660156
-5889693451.0625
-6973381405.564453
-8087927223.319092
-9201577267.72705
-10319863101.70337
-11441332961.386475
-12550396002.08081
-13679929581.344727
-14791193647.117676
-15900580284.25
-17015994759.748291
-18132750419.55127
-19247657410.739746
-20366605422.370605
-21476102294.665283
-22594298549.588867
-23710031429.638184
-24823691829.135498
-25937773379.0
-27047432794.72827
-28159493130.874268
-29268235559.692627
-30378953922.285645
-31483814811.417236
-32589353950.30005
-33691794136.916504
-34788502881.74829
-35881897424.78125
-36965267216.53369
-38058681082.45581
-39068387887.74756
-40353212713.94751
-40465909724.84326
-41269648770.24097
-37402365935.0343
-51792850139.68207
-1906745.125
51788812914.46835
37402369395.200806
41269543349.148926
40465837392.31555
40353049359.018555
39068166939.40527
38058863815.46387
36963750814.77515
35883821042.96875
34788377113.140625
33690512068.21582
32590306896.35034
31483496352.375732
30380310397.678955
29273520836.380127
28160619390.761475
27051618921.598633
25938188685.53125
24824655905.26587
23712276089.118896
22594107107.008057
21478301500.276123
20373411136.15454
19244117910.597168
18128481940.070312
17012817684.754395
15902458393.75
14783171922.40039
13666568297.514404
12548304982.105469
11436389669.848877
10318626930.067383
9211520376.96875
8092556081.710449
6990449669.984375
5890478852.0
4764011926.661133
3795821894.4558105
1610863446.322998
1854370711.3591309
9515717983.544373
7866820.668579102
-9511336014.374756
272468340.383667
3335377.8125
-267505219.6743164
-285752394.13012695
6583347.323059082
299112125.2388916
-342635130.03881836
4825116.133605957
345103681.42297363
-371728597.7114258
4598632.75
383120626.2609863
-471725977.1623535
8814418.831359863
480981667.1397705
-555656283.7192383
7525072.585418701
571379535.3425293
-652017883.086792
7433795.0
664791323.6918945
-750947955.0887451
1828775.8481750488
755179716.4925537
-840119445.2480469
-1163311.4652404785
842776130.7636719
-941059961.6240234
-4731470.875
933550196.2241211
-1021033186.206543
3986137.9536743164
1021986492.7423096
-1124854870.5760498
-5794713.6429748535
1111800636.3270264
-1211136014.682129
555524.9564819336
1205455576.303833
-1298769469.538208
-301380.61012268066
1296444828.4216309
-1389174723.2424316
296452.51678466797
1387769648.6262207
-1482260629.0081787
-2087411.469406128
1478547699.0133057
-1571225673.572998
2543706.6791381836
1572855676.8874512
-1666963662.4421387
2408580.660583496
1671736011.6347656
-1754890953.2202148
1093413.391708374
1756507956.7636719
-1847715701.1015625
649318.5971221924
1849699092.2675781
-1939465317.0821533
-437240.9144592285
1940090065.9627686
-2031794863.4846191
-901537.2053833008
2031458787.602539
-2122323530.6103516
1554416.4682312012
2122461239.77771
-2213177047.1644287
1292513.7347717285
2217263027.783325
-2302703866.1103516
1514731.7722625732
2305430018.516968
-2396593139.0664062
-914089.9202880859
2398120292.204468
-2487063187.196289
1068915.689781189
2489145518.4124756
-2577874880.5595703
-12791.26481628418
2577361362.0281982
-2669493201.953003
34598.20616912842
2669518183.0872803
-2761248901.6989746
-815603.0647201538
2759260498.819092
-2850384352.9283447
492950.3572540283
2851255715.6175537
-2939483457.940796
1496933.501663208
2941948412.781494
-3031058221.7539062
-843147.69871521
3029329940.2214355
-3120941034.6030273
-230526.6201286316
3120652825.725464
-3204067492.8529053
-169809.72161102295
3203707469.2070312
-3312817736.512207
-4630.5444984436035
3312736889.6228027
-3486254405.1760864
-39779.77752304077
3486105406.024414
-3689752698.1256714
-266377.688621521
3689268327.592041
-163336462.8880005
-150602.56217193604
163372490.32678223
SCALARS stress12 float
LOOKUP_TABLE default
1729191621.0
47053235292.875
47051168309.875
1732152406.5
2236094840.0
2424930424.5
2547273409.0
2475415522.5
2494455042.625
2490204038.125
2493220772.25
2494771374.125
2497110671.875
2495385937.125
2496215246.875
2495179561.625
2489819551.125
2488316974.5
2488771446.875
2490655262.125
2491164388.75
2490903279.4375
2491822186.1875
2494164531.0
2495071795.0
2495811822.125
2497395924.375
2499172955.8125
2500959769.5
2503167076.375
2507065684.3125
2512125658.0
2518314703.25
2524828954.875
2533965077.3125
2545722807.125
2564380612.4375
2583430885.625
2647934157.4375
2642382633.5625
2975550386.75
2500210770.875
12957863358.875
28456870770.875
22198464712.0
28455885368.0
12957348930.25
2499986856.625
2975487393.5
2642101092.875
2647317956.8125
2582930361.125
2564720325.3125
2545995434.8125
2534012358.5625
2524466523.0625
2517579302.625
2512051345.6875
2507008314.4375
2503796591.5625
2500920765.5625
2498645159.6875
2496481236.375
2494754381.125
2494605502.25
2493730882.4375
2491027355.25
2490325466.0625
2491814890.5
2490348205.5
2490094030.125
2489975747.125
2491570210.0
2491629456.625
2496111122.25
2495855023.375
2496097975.625
2493796960.125
2493445291.25
2490810627.125
2496790239.5
2478831490.75
2547151644.75
2426468947.25
2238625378.5
2994844434.25
7389601323.25
2997548288.5
3450745766.5
5926156127.25
3451451523.0
3809551680.75
4781346473.0
3809795214.75
3774693451.5
5074462678.5
3775616438.75
3800275511.625
5072244642.25
3802730144.375
3792745300.375
5074786834.0
3794165719.375
3793813428.375
5071862897.625
3795788796.0
3794856818.625
5072845313.75
3796039181.25
3799950107.0
5078505719.625
3799084028.125
3801427842.375
5079342332.125
3800469620.0
3800956682.625
5080360900.125
3802140822.125
3800674903.5
5079043299.75
3800744250.25
3798267268.625
5073272119.75
3794981119.25
3792985745.25
5068932598.25
3792827980.375
3790368252.75
5066553660.875
3790700512.25
3790024112.75
5064734469.625
3789910787.25
3789112579.875
5064329456.5
3789190381.625
3788882057.0
5062345622.75
3788383219.125
3787981631.5625
5063050254.1875
3787786944.8125
3790045066.3125
5064857858.125
3789677622.125
3790935904.625
5066688006.625
3790226927.4375
3791183784.6875
5066225676.5625
3790294445.5625
3789094404.0625
5064428188.6875
3789328322.875
3789128102.8125
5063822727.4375
3788909355.0625
3789425844.1875
5064310097.125
3789063394.5625
3788776505.625
5063163795.9375
3788553974.4375
3788442635.625
5062567143.0625
3788149293.625
3788507549.3125
5063320247.4375
3789104480.5625
3789872649.375
5064076354.5625
3789951217.5625
3790753858.8125
5064462515.9375
3790571348.8125
3791080960.1875
5064642887.125
3790789053.25
3791594589.75
5065126121.375
3791707556.3125
3792604082.625
5065224718.0
3792820653.125
3792490400.4375
5065968362.625
3792656640.5
3797255144.6875
5063407995.75
3797024660.3125
3790837102.3125
5073247373.125
3790667642.4375
3833448046.4375
5034909787.6875
3833413328.8125
3793401212.375
5348276810.25
3793412435.75
4593578923.75
5739721839.75
4593463943.25
4940658036.25
3976218224.0
4940557225.25
SCALARS strain11 float
LOOKUP_TABLE default
-0.003968996169199546
-0.19763210182748758
0.1976242615446997
0.0039726691881885046
-0.004959526983648654
-0.010612472612576695
-0.016716711013594843
-0.02202327534043702
-0.02737108092556184
-0.03271339972660048
-0.03806749283482569
-0.043433062567123315
-0.04880431744251279
-0.05417603905279078
-0.059552066268321546
-0.0649288017076528
-0.07029702516677094
-0.07566200956662694
-0.08102906811839317
-0.0863931879760691
-0.09175447748000476
-0.09711348029960609
-0.1024734785866297
-0.10783742627564408
-0.11320109341965257
-0.11855912287806358
-0.12391411716478196
-0.12926979603192335
-0.13462214073793888
-0.1399716663527788
-0.14531871688314846
-0.15066113119218194
-0.15600044834501325
-0.1613353516322098
-0.16666262243249808
-0.17198170769406573
-0.1772859705527976
-0.18257945033279688
-0.18782594783344164
-0.19315020091825796
-0.19786794876769154
-0.20099485134436557
-0.20242918603722293
-0.09486609732850249
-3.300853528287462e-06
0.09485942560972938
0.20242174989074124
0.20098773260755443
0.19786057275067037
0.19314264178713003
0.18781852775193242
0.18257248736183396
0.17727922647585492
0.1719744622696986
0.16665506952375297
0.16132806555421997
0.15599406543793393
0.1506544001566743
0.14531093084340618
0.13996479758768698
0.1346167768694535
0.1292652518090267
0.12391026165433772
0.11855416163913945
0.11319540872356448
0.10783231092718726
0.10246824402163002
0.09711107208144343
0.09175298761588335
0.08638920952175866
0.08102739335522235
0.07566485619601249
0.0702989978225732
0.06492961838244105
0.05955631177645593
0.054177377540250315
0.04879971600012745
0.04342964823240969
0.03806897938381004
0.03271505431359678
0.027368005376573024
0.02202135637556113
0.016715217728409115
0.010611621640287172
0.004962842482886032
0.001446934333471095
-3.4241568948045753e-06
-0.001447926708297631
-0.0031811903245444473
-2.127690700959306e-06
0.0031803474062392922
-0.0061826322032443315
-4.788445417958087e-07
0.006182347443273395
-0.008238222689085362
1.1057530924230008e-07
0.00823726547297432
-0.010906491707577626
2.3220861855577368e-07
0.010907065223607182
-0.013627014437588292
-1.2714168885485932e-06
0.013627038673622138
-0.016345186770100106
-2.6296772901446275e-06
0.016339837539705915
-0.019059842760916768
-2.633766706949814e-06
0.0190562271135597
-0.021774947519213717
7.238277863752529e-07
0.021774579597021004
-0.024492345980561714
2.707429161530328e-06
0.024493662842033803
-0.027210423846043774
1.3734074482130154e-06
0.02721305330965973
-0.029931640300434825
1.7446965219214405e-06
0.029932570226332444
-0.03265045794680543
2.0218442836617e-06
0.03265372939273181
-0.03536610524571371
1.0147447682684607e-06
0.035370127348166136
-0.038082089213713255
6.202761784201982e-07
0.03808311398648767
-0.04079691094264937
3.120059210992565e-07
0.04079655917617031
-0.043510858899533655
-8.095394212204177e-07
0.043509912349384505
-0.04622378281301254
-2.040433178973622e-06
0.04622052675979327
-0.048935122284339716
-2.4328836351061867e-06
0.04893038326055699
-0.05164704538261944
-2.47429708544189e-06
0.051642666340296906
-0.0543595633925793
-2.147968484245144e-06
0.05435515383310685
-0.05707118198675065
-1.7180612101319603e-06
0.05706757233128523
-0.05978397247962253
-2.0599005038368645e-06
0.059779414490301
-0.062496327314354616
-2.9177503340360733e-06
0.062489974372395674
-0.06520712331900258
-3.4888289540124795e-06
0.06520149881348392
-0.06791839476897477
-3.2949937201487423e-06
0.06791300452849836
-0.07062931470513067
-2.963846747361387e-06
0.07062275857657618
-0.0733397861799816
-3.4579585549143754e-06
0.07333282766398375
-0.07605051290303688
-3.832609137610632e-06
0.0760430926596447
-0.07876050201990892
-3.509947286373105e-06
0.07875314970959546
-0.08147042221220602
-3.210604087283686e-06
0.08146352064683549
-0.0841800154111152
-3.0376895022166117e-06
0.08417347430360134
-0.08688915794704921
-3.3772747121962876e-06
0.08688263896164772
-0.08959845806611666
-3.748707681619501e-06
0.08959135745847546
-0.09230538809909161
-3.765984577130954e-06
0.09229791298163503
-0.09500885314270335
-3.8015498231153133e-06
0.09500127809549097
-0.09767211678211218
-3.765597068230986e-06
0.09766464882976611
-0.10069661093220317
-3.8035206985642667e-06
0.10068905858037058
-0.1052090156597163
-3.7109007711561004e-06
0.10520147915109401
-0.10103074940647438
-3.4144583611617207e-06
0.10102377049760503
SCALARS strain22 float
LOOKUP_TABLE default
-0.0024870186917614334
0.004157306475749162
-0.004157645994890796
0.002481848955546151
0.0007517531282415779
0.003361083468346099
0.004340553743715933
0.005909180890136076
0.007355263123486111
0.008839803368370494
0.010306466889561688
0.01177871270092111
0.013249952095429077
0.014719027141210803
0.01619916378101602
0.01766439692175263
0.01913955449896182
0.020614718892602468
0.0220862930061773
0.02355561088514304
0.025025087082429218
0.026490585940021807
0.02796352920920496
0.029431707070268327
0.030901589821805187
0.03237059815477382
0.033837992498547464
0.03530896489306793
0.03677672357224807
0.03824574201806763
0.03971222905286464
0.04118108239085725
0.04264810562420791
0.04411553539682471
0.04558395188183456
0.04705132421543112
0.04851978932847553
0.04997617514434319
0.051474607302482
0.05280198870213683
0.05474016046239891
0.05548319654261316
0.0589707548992037
0.002182209857109235
-1.7702461718727136e-09
-0.002182351834219734
-0.058967569113421964
-0.055480225669190336
-0.0547370538670117
-0.05279886705375666
-0.0514715915300954
-0.04997305901367274
-0.04851802974713314
-0.047046795248718354
-0.04558080893374722
-0.04411336232148724
-0.0426446597768341
-0.04117843402810259
-0.03970788553998368
-0.03823887310246341
-0.03677359216918888
-0.03530391084965536
-0.03383603091364762
-0.03236775536559856
-0.030897486489334228
-0.029429655409023384
-0.0279596527618872
-0.02648449774202552
-0.025027081339377616
-0.023557074966467036
-0.022087932781168905
-0.02061454302932475
-0.01914635910085448
-0.017674673925015538
-0.0162025367312274
-0.014723273403908013
-0.013248898994991778
-0.011769863343112391
-0.010303664269499246
-0.00882783239791303
-0.007353360937145226
-0.005898744173535739
-0.004343911594587926
-0.003351196693463135
-0.0007494000676900037
0.006448704253955037
7.310686061523519e-06
-0.006445023744328066
0.0015657723501164705
3.389490586869215e-06
-0.001561724301230874
0.0024374264293627323
5.095715991498828e-06
-0.002427380032825721
0.003276138053401531
3.5369907880333784e-06
-0.0032738939473063167
0.004398069725432413
3.3165578088301118e-06
-0.0043898529816234905
0.005489724374640764
7.092810562658869e-06
-0.005482858982585034
0.006592306824385108
6.7169211328821365e-06
-0.006578334320499965
0.007684147915857115
6.650782268025068e-06
-0.007673109699668182
0.008774273796265553
1.0483190273635756e-06
-0.008770972191664797
0.009872631906766238
-2.0244196804186654e-06
-0.009871221970539037
0.010962537527339652
-4.103440573999251e-06
-0.010969243209517698
0.012069364431295304
2.2134850379135207e-06
-0.012069055032608897
0.013157447459086341
-5.171337318740643e-06
-0.013168547374364722
0.014257201162965666
-2.2216500139560225e-08
-0.014263144973519146
0.015356095038180542
-4.899095377153273e-07
-0.015358261677961976
0.016452432005878426
8.674945887326979e-08
-0.016453325878101305
0.01754640441394962
-1.2036104427085026e-06
-0.017548756559855203
0.01864299689799407
2.764064182446402e-06
-0.018640390181786835
0.019733880756481713
2.8320486838012693e-06
-0.01972830257221407
0.02083081532179111
1.8726123755738455e-06
-0.020827737493093246
0.021924367841909778
1.402651235507535e-06
-0.021921004283941524
0.02301833357794271
4.1145564480538077e-07
-0.023016321859977047
0.02411237125669756
2.1301881820284807e-07
-0.02411066550199107
0.025207558467006175
2.4054353456523514e-06
-0.02520473326437088
0.026301836656467084
2.455061790120061e-06
-0.02629639060761846
0.02739730372878632
2.5371052908354508e-06
-0.027392969878130224
0.02848938187063081
5.91077108334781e-07
-0.02848543650426543
0.029583805135078883
2.275444350247069e-06
-0.02957927648404101
0.03067808606121282
1.6336016204349102e-06
-0.030675286432866877
0.03177144867854553
1.5298368313265698e-06
-0.03176828049296415
0.032864681598423984
7.699986308146167e-07
-0.03286320197812556
0.0339597210759123
1.6680089224979655e-06
-0.0339562700346991
0.03505459634173258
2.559282027119608e-06
-0.035049971444233274
0.03614769871919498
9.804125197972191e-07
-0.03614593776199719
0.03724103998757142
1.4427823947487511e-06
-0.03723804957244091
0.03833791677356488
1.5033081563146228e-06
-0.03833493850257405
0.03939852974650013
1.6106971630659717e-06
-0.03939538755971283
0.04056590232233735
1.6002200249540244e-06
-0.04056277550435355
0.04234861920267888
1.392087371872991e-06
-0.04234575042675194
0.04317755748875361
1.351233760285564e-06
-0.043174539855833985
SCALARS strain12 float
LOOKUP_TABLE default
0.004495898085679073
0.12233840175872501
0.12233302439767613
0.004503596004724386
0.005813846210003248
0.00630481859889187
0.006622910374517232
0.006436079725517629
0.006485582704044646
0.006474530014202173
0.006482373257767904
0.006486404979568761
0.006492487197647279
0.006488003057711467
0.006490159467830381
0.006487466675707765
0.0064735303831184865
0.006469623754583154
0.006470805591334283
0.00647570309592993
0.006477027373421151
0.006476348074556881
0.0064787371049988
0.006484827686108474
0.006487186161848513
0.006489110387974506
0.006493228331919454
0.006497849156858138
0.0065024956973047665
0.0065082339315267745
0.006518369796367551
0.006531527190873021
0.006547617876549339
0.0065645555500850605
0.006588308486016103
0.006618878623612545
0.006667388717460199
0.006716920336202747
0.006884627928229747
0.006870194403518326
0.007736429701026282
0.006500547376163013
0.03369044190731074
0.07398785819145814
0.05771600316484182
0.07398529680313004
0.03368910504309497
0.006499965801822327
0.00773626579075426
0.006869462016311445
0.006883025990873648
0.006715618883163188
0.0066682722695077246
0.006619587312115982
0.006588431142972695
0.006563613187609008
0.006545704754898907
0.006531333490329416
0.006518221543501568
0.006509870075205981
0.00650239363608307
0.00649647668592479
0.0064908510585155454
0.006486361042789213
0.006485973662620381
0.006483699635055018
0.006476670720076072
0.0064748457314181
0.0064787186997818935
0.006474905075720017
0.006474243350339748
0.006473936257407331
0.006478082021430964
0.006478236389284575
0.006489888821306522
0.006489222046639043
0.006489853758466779
0.0064838710291041934
0.006482957087428076
0.006476107282196608
0.006491653918146767
0.0064449613914803194
0.006622593572956248
0.00630881877759748
0.00582042564292351
0.007786595004290575
0.019212961672565143
0.007793624698479107
0.008971938331342244
0.015408004991513735
0.008973773270099628
0.009904833625569154
0.01243149946367339
0.009905467048156424
0.009814201960125502
0.013193601689636125
0.009816602194860025
0.009880715345843782
0.01318783488113695
0.009887097499813535
0.009861137150892318
0.013194444348300749
0.009864830005881231
0.009863914272955299
0.013186842731101933
0.00986904976889491
0.009866627367500769
0.013189396483085147
0.00986970087114969
0.00987986916288719
0.013204113365191006
0.009877617415895656
0.009883711853944988
0.01320628908206345
0.009881220306397154
0.009882486461265216
0.013208937066337967
0.00988556544371022
0.009881753938316251
0.013205512123022345
0.009881934316581464
0.009875494462676215
0.01319050693700774
0.009866949762681543
0.009861762582431766
0.013179223560200626
0.009861352120424272
0.009854956376102564
0.013173039213597804
0.00985582019825415
0.009854062135445929
0.013168308214289937
0.009853767576714745
0.009851691922904138
0.013167255315693183
0.009851894035136866
0.00985109242242288
0.013162097340682521
0.009849795721493138
0.00984875106837535
0.013163929641223149
0.009848245800640143
0.0098541159945853
0.013168629807523757
0.009853161169530722
0.009856432614242294
0.013173387665119662
0.009854589201722774
0.00985707778613687
0.013172185648954837
0.009854765135742127
0.009851644206037236
0.01316751207946254
0.00985225287627145
0.009851732110064404
0.013165937921485238
0.009851163257053486
0.009852506075276324
0.01316720554495987
0.00985156431215728
0.009850817838696457
0.01316422462537048
0.00985023912539873
0.009849949834915606
0.01316267357151446
0.00984918781318811
0.009850118537542585
0.013164631994186493
0.009851670571379145
0.00985366810573396
0.013166597095050747
0.00985387234254631
0.009855958854586788
0.013167601507120708
0.009855484724766939
0.009856809634356978
0.013168070904384876
0.009856050792450333
0.009858145697762666
0.01316932613622157
0.009858438500259581
0.009860769831902871
0.013169583682611119
0.009861332683385626
0.009860473955541238
0.013171516542570316
0.009860905999403258
0.009872861790654497
0.013164859658672867
0.009872263772194856
0.009856175494178387
0.013190441950200693
0.009855734590701104
0.009966964292061675
0.013090764710568692
0.009966874581095908
0.009862843206974503
0.013905518631190716
0.009862871358564007
0.011943303618636492
0.014923275226692567
0.011943004082922926
0.012845710240526387
0.010338167694499134
0.012845448551388472
SCALARS disp_x float
LOOKUP_TABLE default
0.021686261519789696
0.0
0.0
-0.02168554626405239
0.02167866751551628
0.021647730842232704
0.021578675135970116
0.02148331142961979
0.021360628306865692
0.021210823208093643
0.021033845841884613
0.020829662680625916
0.020598219707608223
0.020339541137218475
0.020053626969456673
0.019740445539355278
0.019400030374526978
0.01903245784342289
0.01863769069314003
0.018215738236904144
0.01776662841439247
0.01729036122560501
0.016786959022283554
0.016256380826234818
0.015698615461587906
0.015113667584955692
0.014501584693789482
0.013862339779734612
0.013195928186178207
0.01250237226486206
0.011781652458012104
0.011033782735466957
0.010258765891194344
0.009456578642129898
0.00862723495811224
0.007770732045173645
0.006887057796120644
0.0059762634336948395
0.005038208328187466
0.0040733348578214645
0.0030793333426117897
0.002064347732812166
0.0010378112783655524
0.0
0.0
0.0
-0.0010377709986642003
-0.0020642743911594152
-0.003079224145039916
-0.004073189105838537
-0.005038024391978979
-0.005976044572889805
-0.006886806804686785
-0.007770447060465813
-0.008626912720501423
-0.009456218220293522
-0.010258369147777557
-0.011033358983695507
-0.011781190522015095
-0.012501869350671768
-0.013195395469665527
-0.013861781917512417
-0.01450100727379322
-0.015113075263798237
-0.015697989612817764
-0.016255728900432587
-0.016786279156804085
-0.017289655283093452
-0.01776592992246151
-0.01821502484381199
-0.018636951223015785
-0.01903172768652439
-0.019399328157305717
-0.019739734008908272
-0.020052926614880562
-0.02033887803554535
-0.020597532391548157
-0.020828943699598312
-0.021033121272921562
-0.02121012471616268
-0.021359924226999283
-0.021482573822140694
-0.021577948704361916
-0.021646976470947266
-0.021677929908037186
-0.010837982408702374
3.7670670849365706e-07
0.0108387041836977
0.010836980305612087
3.5160914535481425e-07
-0.010836264118552208
0.010806991718709469
3.521398923567176e-07
-0.010806279256939888
0.010772833600640297
3.4727148090496485e-07
-0.010772117413580418
0.01072526816278696
3.5500582384884183e-07
-0.010724566876888275
0.010663993656635284
3.509535133616737e-07
-0.01066326629370451
0.010589081794023514
3.398401418053254e-07
-0.010588370263576508
0.01050055492669344
3.234767405047023e-07
-0.010499893687665462
0.010398449376225471
3.090467544097919e-07
-0.010397778823971748
0.0102827288210392
3.332606297590246e-07
-0.010282068513333797
0.01015340443700552
3.424925694162084e-07
-0.010152718052268028
0.010010463185608387
3.4602845744302613e-07
-0.010009773075580597
0.009853876195847988
3.6221942423253495e-07
-0.009853188879787922
0.009683704935014248
3.6758567034667067e-07
-0.009682978503406048
0.009499923326075077
3.701446189552371e-07
-0.00949918758124113
0.009302545338869095
3.740449869837903e-07
-0.009301811456680298
0.009091573767364025
3.748840526895947e-07
-0.009090842679142952
0.008867014199495316
3.652309317203617e-07
-0.008866284973919392
0.00862886942923069
3.5284011801195447e-07
-0.008628172799944878
0.008377156220376492
3.405260997624282e-07
-0.008376479148864746
0.008111849427223206
3.271737796239904e-07
-0.008111195638775826
0.007832968607544899
3.191731821061694e-07
-0.00783233530819416
0.007540508639067411
3.1100455544219585e-07
-0.007539887446910143
0.0072344527579844
2.9927224431958166e-07
-0.007233864162117243
0.006914820522069931
2.819701307998912e-07
-0.006914268247783184
0.006581615190953016
2.623517616484605e-07
-0.006581082474440336
0.006234823260456324
2.479156080426037e-07
-0.0062343222089111805
0.00587445916607976
2.3406123261793255e-07
-0.005873992573469877
0.005500513594597578
2.129913383441817e-07
-0.005500080995261669
0.005112989339977503
1.9471964662898245e-07
-0.005112597718834877
0.004711889196187258
1.7805299989959167e-07
-0.004711531102657318
0.0042972080409526825
1.6326153229329066e-07
-0.004296885337680578
0.0038689507637172937
1.4846089868569834e-07
-0.00386865739710629
0.003427110845223069
1.2917504932374868e-07
-0.0034268524032086134
0.002971682231873274
1.1032911828579017e-07
-0.0029714605771005154
0.00250269309617579
9.118575405864249e-08
-0.0025025103241205215
0.0020201110746711493
7.2121991934182e-08
-0.0020199655555188656
0.0015248998533934355
5.34061399548591e-08
-0.0015247917035594583
0.001011423533782363
3.3823500444896126e-08
-0.0010113540338352323
0.00045691063860431314
1.602768406883115e-08
-0.0004568789736367762
SCALARS disp_y float
LOOKUP_TABLE default
-0.2909136414527893
0.0
0.0
-0.2909136116504669
-0.2800529897212982
-0.26917847990989685
-0.25832459330558777
-0.24751533567905426
-0.23675987124443054
-0.22607272863388062
-0.2154671996831894
-0.20495691895484924
-0.19455547630786896
-0.18427658081054688
-0.17413391172885895
-0.16414090991020203
-0.15431146323680878
-0.14465908706188202
-0.135197252035141
-0.12593963742256165
-0.1168997660279274
-0.10809124261140823
-0.09952765703201294
-0.09122249484062195
-0.08318942785263062
-0.07544203847646713
-0.06799394637346268
-0.06085863336920738
-0.05404975637793541
-0.04758087918162346
-0.04146553575992584
-0.03571736067533493
-0.030349863693118095
-0.025376643985509872
-0.020811324939131737
-0.016667440533638
-0.012958628125488758
-0.0096983527764678
-0.006900540553033352
-0.004577405285090208
-0.0027472167275846004
-0.0014136296231299639
-0.0006311657489277422
0.0
0.0
0.0
-0.0006311390898190439
-0.0014135969104245305
-0.002747184596955776
-0.004577373154461384
-0.006900505628436804
-0.009698308072984219
-0.012958592735230923
-0.016667429357767105
-0.020811310037970543
-0.02537662908434868
-0.03034982644021511
-0.03571731597185135
-0.04146551713347435
-0.04758084565401077
-0.05404973030090332
-0.0608585961163044
-0.06799390912055969
-0.07544202357530594
-0.08318942040205002
-0.09122246503829956
-0.09952764213085175
-0.10809118300676346
-0.1168997585773468
-0.12593965232372284
-0.13519728183746338
-0.1446591019630432
-0.15431156754493713
-0.1641409993171692
-0.17413389682769775
-0.18427662551403046
-0.19455550611019135
-0.20495684444904327
-0.21546711027622223
-0.22607259452342987
-0.23675981163978577
-0.24751530587673187
-0.2583245635032654
-0.2691784203052521
-0.28005295991897583
-0.29092341661453247
-0.2909909784793854
-0.29092347621917725
-0.28004854917526245
-0.2800293564796448
-0.2800484895706177
-0.26915740966796875
-0.2691527009010315
-0.26915737986564636
-0.2582991421222687
-0.2582899034023285
-0.2582991123199463
-0.24748004972934723
-0.24746857583522797
-0.24748006463050842
-0.2367161512374878
-0.23670147359371185
-0.23671607673168182
-0.22602014243602753
-0.22600260376930237
-0.22602008283138275
-0.21540594100952148
-0.21538546681404114
-0.21540583670139313
-0.20488688349723816
-0.2048635631799698
-0.20488688349723816
-0.19447670876979828
-0.1944504678249359
-0.19447673857212067
-0.1841890811920166
-0.18415996432304382
-0.18418912589550018
-0.1740376204252243
-0.17400550842285156
-0.17403757572174072
-0.16403591632843018
-0.16400092840194702
-0.16403596103191376
-0.15419772267341614
-0.154159814119339
-0.15419773757457733
-0.1445365697145462
-0.14449572563171387
-0.1445365846157074
-0.1350659877061844
-0.13502225279808044
-0.13506600260734558
-0.12579964101314545
-0.12575297057628632
-0.12579965591430664
-0.1167510449886322
-0.11670144647359848
-0.11675100773572922
-0.10793380439281464
-0.1078813225030899
-0.10793378204107285
-0.09936147183179855
-0.09930606931447983
-0.09936146438121796
-0.09104757755994797
-0.09098926931619644
-0.09104756265878677
-0.08300577849149704
-0.08294457197189331
-0.08300578594207764
-0.07524965703487396
-0.07518553733825684
-0.07524965703487396
-0.06779284030199051
-0.0677257850766182
-0.06779281049966812
-0.06064878776669502
-0.0605788491666317
-0.06064877286553383
-0.05383118987083435
-0.05375831201672554
-0.05383116379380226
-0.04735357314348221
-0.04727781563997269
-0.04735357686877251
-0.04122951999306679
-0.04115084558725357
-0.041229505091905594
-0.035472601652145386
-0.03539099916815758
-0.035472575575113297
-0.030096381902694702
-0.03001188300549984
-0.03009636327624321
-0.025114435702562332
-0.02502702921628952
-0.025114430114626884
-0.020540384575724602
-0.02045007422566414
-0.020540378987789154
-0.016387781128287315
-0.01629454828798771
-0.01638777367770672
-0.012670198455452919
-0.01257407944649458
-0.012670178897678852
-0.009401306509971619
-0.009302172809839249
-0.009401285089552402
-0.00659437058493495
-0.006492679938673973
-0.006594352424144745
-0.0042639742605388165
-0.004158304072916508
-0.004263957496732473
-0.0024203916545957327
-0.0023162264842540026
-0.0024203751236200333
-0.0010892325080931187
-0.000961644749622792
-0.0010892165591940284
-0.00023832365695852786
-0.0001369081437587738
-0.00023831221915315837
SCALARS von_mises_stress float
LOOKUP_TABLE default
6962801473.6717205
243559074227.64035
243549104948.08716
6964564055.491851
6770947163.66172
12365696400.15983
18917142909.291355
24590840487.198803
30401410712.189213
36219134892.76873
42067323783.95361
47936297665.54019
53817796104.47755
59703688308.09517
65596747887.28684
71494197785.17738
77382488667.06187
83268979969.9315
89159468289.86
95047897590.57796
100933751649.96306
106818002165.5982
112703262853.87091
118593962972.28825
124484470833.43472
130369047056.6187
136250701571.81377
142133034185.38913
148012145694.02048
153888181922.74466
159761938530.9961
165630424870.55692
171495794140.50974
177356294178.50574
183208311754.49857
189051408502.2921
194878077099.33746
200693842683.50507
206454466316.3236
212316452943.93332
217451253718.42102
220879439637.69235
223283041375.32803
120628972294.93358
38448868925.19713
120621105865.82697
223274903160.07294
220871699109.6004
217443245383.46347
212308255016.49225
206446395894.00876
200686279918.3184
194870663101.02167
189043701674.27823
183200112953.9062
177348284663.96225
171488911643.20898
165623100350.64044
159753596997.10544
153881146983.25778
148006407799.53647
142128385072.73364
136246498439.44116
130363677046.26234
124478443694.41751
118588377753.76752
112697698087.89584
106815848596.91267
100931928782.5136
95043245470.51509
89157530884.15044
83272352465.49811
77384214966.89536
71493727967.09497
65601167577.445
59704825726.518524
53812593928.216934
47933197638.16418
42069310060.27528
36222316771.80445
30398749057.844524
24590808602.774883
18915080926.991383
12366120477.595186
6777072483.597142
9779962783.398085
12799167483.552406
9779381601.915022
6937995553.630971
10264404235.765244
6938254868.396688
9459501812.09568
8281537042.295566
9459198414.351309
11151103955.743301
8789228176.442287
11151104005.924875
13654234452.099224
8785386331.770374
13656359835.202068
16326558680.916227
8789792182.396896
16327171142.344128
19094780560.363037
8784727313.663725
19089736006.754044
21914857588.77419
8786428848.539213
21911101136.275906
24774006688.51489
8796230100.61387
24773025524.41771
27659619071.082504
8797679577.524385
27660506698.145176
30562955496.949825
8799444347.772017
30566568569.300144
33484368091.670532
8797161877.79488
33485346582.842743
36411779380.37304
8787166900.24887
36414903692.56611
39343902189.013405
8779648879.339811
39348479587.2662
42283598648.6397
8775528391.954453
42284908065.18388
45227652762.2699
8772377437.892815
45227310754.94649
48174657126.486176
8771676142.404604
48173821282.54213
51124346400.62277
8768240435.8326
51120609865.463005
54074711338.842125
8769460991.222397
54069275886.138855
57029114696.360695
8772591640.393066
57024184758.88806
59985728413.25585
8775761401.655851
59980685557.852646
62943051696.69147
8774960478.94073
62938918096.17909
65902752383.00364
8771847244.492025
65897829281.965706
68863783579.0262
8770798974.943388
68856791327.4482
71824303162.96745
8771643343.496634
71817898277.50966
74786290932.89648
8769657832.194311
74780223530.14954
77748646086.42528
8768624125.09019
77741355603.80626
80711548213.57312
8769928829.44638
80703915295.53944
83675614022.1216
8771238549.967587
83667525414.8323
86639406764.67784
8771907239.94962
86631328259.46704
89603626866.59592
8772219517.773863
89596127086.40358
92568171604.77
8773056447.753986
92560971653.05707
95532746497.6204
8773227490.291157
95525505562.85927
98497683024.5088
8774515563.038435
98490002359.41388
101461044609.27983
8770080879.150862
101452844619.19983
104420057523.76164
8787123197.82983
104411750196.51332
107339342425.31693
8720720545.548962
107331156696.11917
110643127304.51427
9263488109.868519
110634853479.0208
115668966353.00974
9941490679.031277
115660709828.4327
111340569346.05687
6887013003.429358
111332909663.34592
