# vtk DataFile Version 2.0
Generated Volume Mesh
ASCII
DATASET UNSTRUCTURED_GRID
POINTS 205 float
0.0 -0.01 0.0
0.2 -0.01 0.0
0.2 0.01 0.0
0.0 0.01 0.0
0.004999999999990963 -0.01 0.0
0.009999999999980603 -0.01 0.0
0.01499999999997201 -0.01 0.0
0.01999999999996497 -0.01 0.0
0.02499999999995712 -0.01 0.0
0.02999999999994344 -0.01 0.0
0.03499999999992909 -0.01 0.0
0.03999999999991203 -0.01 0.0
0.04499999999989768 -0.01 0.0
0.04999999999988333 -0.01 0.0
0.05499999999986898 -0.01 0.0
0.05999999999985461 -0.01 0.0
0.06499999999984028 -0.01 0.0
0.06999999999982592 -0.01 0.0
0.07499999999980886 -0.01 0.0
0.0799999999997918 -0.01 0.0
0.08499999999977745 -0.01 0.0
0.0899999999997631 -0.01 0.0
0.09499999999974874 -0.01 0.0
0.0999999999997371 -0.01 0.0
0.1049999999997488 -0.01 0.0
0.1099999999997604 -0.01 0.0
0.1149999999997748 -0.01 0.0
0.1199999999997886 -0.01 0.0
0.1249999999998008 -0.01 0.0
0.1299999999998173 -0.01 0.0
0.1349999999998279 -0.01 0.0
0.1399999999998396 -0.01 0.0
0.1449999999998577 -0.01 0.0
0.1499999999998672 -0.01 0.0
0.1549999999998767 -0.01 0.0
0.1599999999998948 -0.01 0.0
0.1649999999999065 -0.01 0.0
0.1699999999999171 -0.01 0.0
0.1749999999999363 -0.01 0.0
0.1799999999999458 -0.01 0.0
0.1849999999999585 -0.01 0.0
0.1899999999999756 -0.01 0.0
0.1949999999999851 -0.01 0.0
0.2 -0.005000000000010828 0.0
0.2 -2.538941279439655e-14 0.0
0.2 0.004999999999987136 0.0
0.1950000000000139 0.01 0.0
0.1900000000000277 0.01 0.0
0.1850000000000415 0.01 0.0
0.1800000000000553 0.01 0.0
0.1750000000000692 0.01 0.0
0.170000000000083 0.01 0.0
0.1650000000000968 0.01 0.0
0.1600000000001107 0.01 0.0
0.1550000000001245 0.01 0.0
0.1500000000001384 0.01 0.0
0.1450000000001522 0.01 0.0
0.140000000000166 0.01 0.0
0.1350000000001799 0.01 0.0
0.1300000000001937 0.01 0.0
0.1250000000002075 0.01 0.0
0.1200000000002214 0.01 0.0
0.1150000000002352 0.01 0.0
0.110000000000249 0.01 0.0
0.1050000000002629 0.01 0.0
0.100000000000274 0.01 0.0
0.09500000000026176 0.01 0.0
0.09000000000024955 0.01 0.0
0.08500000000023465 0.01 0.0
0.08000000000022028 0.01 0.0
0.07500000000020751 0.01 0.0
0.07000000000019044 0.01 0.0
0.0650000000001793 0.01 0.0
0.06000000000016711 0.01 0.0
0.0550000000001484 0.01 0.0
0.05000000000013835 0.01 0.0
0.0450000000001283 0.01 0.0
0.04000000000010959 0.01 0.0
0.0350000000000974 0.01 0.0
0.03000000000008626 0.01 0.0
0.02500000000006647 0.01 0.0
0.02000000000005642 0.01 0.0
0.01500000000004315 0.01 0.0
0.01000000000002552 0.01 0.0
0.005000000000015492 0.01 0.0
0.0 0.005000000000010828 0.0
0.0 2.538941279439655e-14 0.0
0.0 -0.004999999999987136 0.0
0.004999999999997094 -0.004999999999987727 0.0
0.005000000000003228 2.411959520998152e-14 0.0
0.005000000000009359 0.005000000000010233 0.0
0.009999999999991828 -0.00499999999998832 0.0
0.01000000000000306 2.285064498730449e-14 0.0
0.01000000000001429 0.005000000000009642 0.0
0.01499999999998979 -0.00499999999998891 0.0
0.01500000000000757 2.158082740288947e-14 0.0
0.01500000000002536 0.005000000000009051 0.0
0.01999999999998783 -0.004999999999989502 0.0
0.02000000000001069 2.031187718021243e-14 0.0
0.02000000000003356 0.005000000000008457 0.0
0.02499999999998446 -0.004999999999990098 0.0
0.02500000000001179 1.904205959579741e-14 0.0
0.02500000000003914 0.005000000000007864 0.0
0.02999999999997915 -0.004999999999990686 0.0
0.03000000000001485 1.777224201138239e-14 0.0
0.03000000000005056 0.005000000000007274 0.0
0.03499999999997118 -0.00499999999999128 0.0
0.03500000000001325 1.650329178870535e-14 0.0
0.03500000000005533 0.005000000000006681 0.0
0.03999999999996142 -0.004999999999991873 0.0
0.04000000000001081 1.523347420429033e-14 0.0
0.04000000000006019 0.005000000000006089 0.0
0.04499999999995533 -0.004999999999992464 0.0
0.04500000000001299 1.396495766248229e-14 0.0
0.04500000000007065 0.005000000000005497 0.0
0.04999999999994709 -0.004999999999993056 0.0
0.05000000000001084 1.269514007806727e-14 0.0
0.05000000000007461 0.005000000000004904 0.0
0.05499999999993883 -0.004999999999993651 0.0
0.05500000000000869 1.142488881278325e-14 0.0
0.05500000000007854 0.005000000000004311 0.0
0.05999999999993273 -0.004999999999994243 0.0
0.06000000000001086 1.015593859010622e-14 0.0
0.06000000000008898 0.005000000000003719 0.0
0.06499999999992503 -0.004999999999994832 0.0
0.06500000000000979 8.886121005691193e-15 0.0
0.06500000000009454 0.005000000000003126 0.0
0.06999999999991705 -0.004999999999995426 0.0
0.07000000000000817 7.617604463883153e-15 0.0
0.07000000000009932 0.005000000000002535 0.0
0.07499999999990853 -0.00499999999999602 0.0
0.07500000000000817 6.347786879468131e-15 0.0
0.07500000000010784 0.005000000000001941 0.0
0.0799999999998989 -0.004999999999996613 0.0
0.08000000000000605 5.077535614184114e-15 0.0
0.08000000000011315 0.00500000000000135 0.0
0.08499999999989175 -0.004999999999997203 0.0
0.08500000000000604 3.809019072376073e-15 0.0
0.08500000000012034 0.005000000000000759 0.0
0.08999999999988471 -0.004999999999997795 0.0
0.09000000000000632 2.538767807092057e-15 0.0
0.09000000000012796 0.005000000000000165 0.0
0.09499999999987702 -0.004999999999998389 0.0
0.09500000000000525 1.269817584415023e-15 0.0
0.0950000000001335 0.004999999999999572 0.0
0.0999999999998713 -0.004999999999998979 0.0
0.1000000000000055 0.0 0.0
0.1000000000001398 0.00499999999999898 0.0
0.1049999999998773 -0.004999999999999573 0.0
0.1050000000000058 -1.269817584415023e-15 0.0
0.1050000000001343 0.004999999999998389 0.0
0.1099999999998826 -0.005000000000000167 0.0
0.1100000000000047 -2.538767807092057e-15 0.0
0.1100000000001269 0.004999999999997796 0.0
0.1149999999998898 -0.005000000000000759 0.0
0.115000000000005 -3.808585391507079e-15 0.0
0.1150000000001201 0.004999999999997204 0.0
0.1199999999998968 -0.005000000000001348 0.0
0.120000000000005 -5.077535614184114e-15 0.0
0.1200000000001132 0.004999999999996612 0.0
0.1249999999999025 -0.005000000000001942 0.0
0.1250000000000041 -6.347570039033633e-15 0.0
0.1250000000001058 0.004999999999996019 0.0
0.1299999999999114 -0.005000000000002535 0.0
0.1300000000000055 -7.617387623448655e-15 0.0
0.1300000000000996 0.004999999999995426 0.0
0.1349999999999159 -0.005000000000003124 0.0
0.1350000000000039 -8.886121005691193e-15 0.0
0.1350000000000919 0.004999999999994834 0.0
0.1399999999999212 -0.005000000000003718 0.0
0.1400000000000028 -1.015593859010622e-14 0.0
0.1400000000000844 0.004999999999994243 0.0
0.1449999999999313 -0.005000000000004313 0.0
0.145000000000005 -1.142488881278325e-14 0.0
0.1450000000000786 0.004999999999993649 0.0
0.149999999999935 -0.005000000000004905 0.0
0.1500000000000028 -1.269492323763277e-14 0.0
0.1500000000000706 0.004999999999993059 0.0
0.1549999999999386 -0.005000000000005495 0.0
0.1550000000000006 -1.39645239816133e-14 0.0
0.1550000000000625 0.004999999999992468 0.0
0.1599999999999488 -0.005000000000006088 0.0
0.1600000000000028 -1.523369104472483e-14 0.0
0.1600000000000567 0.004999999999991874 0.0
0.164999999999954 -0.005000000000006681 0.0
0.1650000000000017 -1.650350862913985e-14 0.0
0.1650000000000492 0.00499999999999128 0.0
0.1699999999999586 -0.005000000000007271 0.0
0.17 -1.777224201138239e-14 0.0
0.1700000000000416 0.00499999999999069 0.0
0.1749999999999695 -0.005000000000007865 0.0
0.1750000000000027 -1.904162591492841e-14 0.0
0.175000000000036 0.004999999999990097 0.0
0.1799999999999731 -0.005000000000008458 0.0
0.1800000000000005 -2.031176875999518e-14 0.0
0.180000000000028 0.004999999999989503 0.0
0.1849999999999793 -0.005000000000009051 0.0
0.1850000000000001 -2.158109845343259e-14 0.0
0.1850000000000208 0.004999999999988913 0.0
0.1899999999999887 -0.00500000000000964 0.0
0.1900000000000016 -2.285031972665274e-14 0.0
0.1900000000000147 0.00499999999998832 0.0
0.1949999999999923 -0.005000000000010234 0.0
0.1949999999999995 -2.411956810492721e-14 0.0
0.1950000000000067 0.004999999999987727 0.0
CELLS 160 800
4 0 4 88 87
4 87 88 89 86
4 86 89 90 85
4 85 90 84 3
4 4 5 91 88
4 88 91 92 89
4 89 92 93 90
4 90 93 83 84
4 5 6 94 91
4 91 94 95 92
4 92 95 96 93
4 93 96 82 83
4 6 7 97 94
4 94 97 98 95
4 95 98 99 96
4 96 99 81 82
4 7 8 100 97
4 97 100 101 98
4 98 101 102 99
4 99 102 80 81
4 8 9 103 100
4 100 103 104 101
4 101 104 105 102
4 102 105 79 80
4 9 10 106 103
4 103 106 107 104
4 104 107 108 105
4 105 108 78 79
4 10 11 109 106
4 106 109 110 107
4 107 110 111 108
4 108 111 77 78
4 11 12 112 109
4 109 112 113 110
4 110 113 114 111
4 111 114 76 77
4 12 13 115 112
4 112 115 116 113
4 113 116 117 114
4 114 117 75 76
4 13 14 118 115
4 115 118 119 116
4 116 119 120 117
4 117 120 74 75
4 14 15 121 118
4 118 121 122 119
4 119 122 123 120
4 120 123 73 74
4 15 16 124 121
4 121 124 125 122
4 122 125 126 123
4 123 126 72 73
4 16 17 127 124
4 124 127 128 125
4 125 128 129 126
4 126 129 71 72
4 17 18 130 127
4 127 130 131 128
4 128 131 132 129
4 129 132 70 71
4 18 19 133 130
4 130 133 134 131
4 131 134 135 132
4 132 135 69 70
4 19 20 136 133
4 133 136 137 134
4 134 137 138 135
4 135 138 68 69
4 20 21 139 136
4 136 139 140 137
4 137 140 141 138
4 138 141 67 68
4 21 22 142 139
4 139 142 143 140
4 140 143 144 141
4 141 144 66 67
4 22 23 145 142
4 142 145 146 143
4 143 146 147 144
4 144 147 65 66
4 23 24 148 145
4 145 148 149 146
4 146 149 150 147
4 147 150 64 65
4 24 25 151 148
4 148 151 152 149
4 149 152 153 150
4 150 153 63 64
4 25 26 154 151
4 151 154 155 152
4 152 155 156 153
4 153 156 62 63
4 26 27 157 154
4 154 157 158 155
4 155 158 159 156
4 156 159 61 62
4 27 28 160 157
4 157 160 161 158
4 158 161 162 159
4 159 162 60 61
4 28 29 163 160
4 160 163 164 161
4 161 164 165 162
4 162 165 59 60
4 29 30 166 163
4 163 166 167 164
4 164 167 168 165
4 165 168 58 59
4 30 31 169 166
4 166 169 170 167
4 167 170 171 168
4 168 171 57 58
4 31 32 172 169
4 169 172 173 170
4 170 173 174 171
4 171 174 56 57
4 32 33 175 172
4 172 175 176 173
4 173 176 177 174
4 174 177 55 56
4 33 34 178 175
4 175 178 179 176
4 176 179 180 177
4 177 180 54 55
4 34 35 181 178
4 178 181 182 179
4 179 182 183 180
4 180 183 53 54
4 35 36 184 181
4 181 184 185 182
4 182 185 186 183
4 183 186 52 53
4 36 37 187 184
4 184 187 188 185
4 185 188 189 186
4 186 189 51 52
4 37 38 190 187
4 187 190 191 188
4 188 191 192 189
4 189 192 50 51
4 38 39 193 190
4 190 193 194 191
4 191 194 195 192
4 192 195 49 50
4 39 40 196 193
4 193 196 197 194
4 194 197 198 195
4 195 198 48 49
4 40 41 199 196
4 196 199 200 197
4 197 200 201 198
4 198 201 47 48
4 41 42 202 199
4 199 202 203 200
4 200 203 204 201
4 201 204 46 47
4 42 1 43 202
4 202 43 44 203
4 203 44 45 204
4 204 45 2 46
CELL_TYPES 160
9
9
9
9
9
9
9
9
9
9
9
9
9
9
9
9
9
9
9
9
9
9
9
9
9
9
9
9
9
9
9
9
9
9
9
9
9
9
9
9
9
9
9
9
9
9
9
9
9
9
9
9
9
9
9
9
9
9
9
9
9
9
9
9
9
9
9
9
9
9
9
9
9
9
9
9
9
9
9
9
9
9
9
9
9
9
9
9
9
9
9
9
9
9
9
9
9
9
9
9
9
9
9
9
9
9
9
9
9
9
9
9
9
9
9
9
9
9
9
9
9
9
9
9
9
9
9
9
9
9
9
9
9
9
9
9
9
9
9
9
9
9
9
9
9
9
9
9
9
9
9
9
9
9
9
9
9
9
9
9
POINT_DATA 205
SCALARS stress11 float
LOOKUP_TABLE default
-6739386942.5625
-260068560136.59375
260068560134.6875
6739386938.3125
-6488411270.5
-12323215974.6875
-19244880125.8125
-25503520710.0625
-31723312598.125
-37949391669.5
-44195472676.5625
-50457584865.5
-56733998345.3125
-63023111213.125
-69323679963.75
-75634605483.625
-81954946547.5625
-88283797639.0
-94620378435.09375
-100963903837.0
-107313638105.5625
-113668843124.5
-120028858249.3125
-126392957034.5625
-132760448846.0
-139130621118.5625
-145502746173.875
-151876054290.53125
-158249705789.625
-164622850158.09375
-170994442110.5625
-177363330503.34375
-183728165412.28125
-190087167965.71875
-196438121014.9375
-202777972377.375
-209101974539.9375
-215405016410.625
-221664077632.65625
-227842300343.8125
-233192748205.5625
-237181426593.1875
-238224587818.90625
-125756508083.40625
-0.8125
125756508082.40625
238224587818.46875
237181426592.8125
233192748205.25
227842300343.71875
221664077632.625
215405016410.75
209101974540.0625
202777972377.46875
196438121015.25
190087167965.9375
183728165412.5
177363330503.59375
170994442110.6875
164622850158.15625
158249705789.6875
151876054290.34375
145502746173.4375
139130621117.75
132760448844.625
126392957032.3125
120028858245.53125
113668843118.34375
107313638094.03125
100963903807.59375
94620378305.75
88283796746.8125
81954936555.375
75634604828.5625
69323679841.1875
63023111175.8125
56733998328.1875
50457584855.625
44195472670.0
37949391664.875
31723312595.0
25503520707.375
19244880123.8125
12323215973.0
6488411268.5
5013838331.25
-0.125
-5013838332.125
-3239055600.625
0.0
3239055600.5625
-6519780238.375
0.0
6519780238.25
-8997307203.625
0.125
8997307203.625
-11835157048.375
0.0
11835157047.9375
-14776067810.625
0.0
14776067810.8125
-17737479617.0
0.0
17737479617.0625
-20705576413.875
0.0625
20705576413.5625
-23679093741.75
-0.3125
23679093741.0625
-26657706985.5
-2.0
26657706983.375
-29641119573.25
-14.625
29641119564.125
-32629047238.5625
-117.875
32629047197.0625
-35621205414.5
-983.5
35621205309.5625
-38617345661.1875
-2360.71875
38617339648.8125
-41617194125.9375
-417.65625
41617193346.46875
-44620513439.0
-56.0625
44620513320.1875
-47627056525.21875
-7.84375
47627056507.25
-50636588282.125
-1.125
50636588279.3125
-53648871479.09375
-0.1875
53648871478.75
-56663692034.90625
-0.0625
56663692035.03125
-59680824825.21875
-0.0625
59680824825.53125
-62700047510.8125
0.0
62700047511.1875
-65721167987.75
0.03125
65721167988.15625
-68743968148.96875
-0.09375
68743968149.25
-71768249512.71875
-0.0625
71768249513.0625
-74793815248.3125
-0.0625
74793815248.59375
-77820477130.71875
-0.0625
77820477130.90625
-80848023724.9375
-0.15625
80848023725.1875
-83876267652.4375
-0.0625
83876267652.625
-86905019174.5625
-0.125
86905019174.71875
-89934043185.6875
-0.0625
89934043185.78125
-92963108364.875
-0.1875
92963108365.03125
-95991931659.5
-0.1875
95991931659.59375
-99020079710.6875
-0.21875
99020079710.71875
-102046936588.34375
-0.25
102046936588.15625
-105077729316.3125
-0.1875
105077729316.15625
-108167842271.90625
-0.28125
108167842271.84375
-111656696234.03125
-0.3125
111656696233.75
-115755389862.3125
-0.34375
115755389862.0625
-110915950065.78125
-0.3125
110915950065.1875
SCALARS stress22 float
LOOKUP_TABLE default
-5339488740.25
-107129921324.875
107129921324.0
5339488743.5
-1902286951.75
-1929511317.375
-3525935248.25
-4640042693.125
-5727097819.0
-6808085206.75
-7896052598.375
-8988457888.375
-10084672979.125
-11184029301.875
-12286079191.25
-13390452092.0
-14496848627.5
-15604998968.0
-16714673922.0
-17825657316.375
-18937746827.625
-20050748308.4375
-21164478627.5
-22278746508.8125
-23393359270.5625
-24508124674.25
-25622832458.0
-26737254771.875
-27851140413.8125
-28964212655.25
-30076132883.6875
-31186513475.4375
-32294865358.625
-33400548503.8125
-34502715880.125
-35600235744.875
-36691105293.25
-37774368602.1875
-38835010085.5625
-39865234422.875
-40312738803.25
-40554575497.0625
-41480880263.125
-51607073473.5
-0.25
51607073472.75
41480880263.25
40554575497.0
40312738803.1875
39865234422.9375
38835010085.1875
37774368602.25
36691105293.125
35600235744.4375
34502715879.3125
33400548502.625
32294865356.5
31186513473.125
30076132902.625
28964211998.0
27851140396.8125
26737254794.6875
25622832540.0
24508125091.5625
23393359270.0
22278746317.25
21164478987.875
20050748478.75
18937746889.625
17825657287.75
16714673888.25
15604998234.75
14496845432.0
13390451353.0
12286078882.375
11184029295.0
10084672850.75
8988457936.25
7896052604.625
6808085241.25
5727097670.375
4640042711.375
3525935252.5
1929511284.625
1902286954.75
8097544008.25
0.0
-8097544012.5
-172435296.375
-1.75
172435276.0
-250310584.0
-0.625
250310592.875
-309823458.625
0.25
309823353.5
-379790371.5
-45.5
379790343.625
-464677580.75
6.75
464677608.5
-553229665.5
4.125
553229500.75
-642639343.625
-83.25
642639377.25
-732392152.25
18.75
732392063.375
-822410741.25
-174.75
822410687.25
-912655482.0
-14.125
912655316.125
-1003096975.75
-259.75
1003096946.625
-1093710604.75
-2281.75
1093710602.875
-1184479147.5
-4153.75
1184478095.875
-1275381670.75
-842.75
1275381468.625
-1366405563.75
-48.1875
1366405179.625
-1457534265.8125
-152.25
1457534231.75
-1548754861.875
-2.625
1548754560.125
-1640051969.4375
-151.8125
1640051855.375
-1731415415.125
-171.9375
1731414962.8125
-1822832008.0
-17.375
1822831940.0625
-1914287182.0625
54.75
1914286921.75
-2005768817.9375
-72.1875
2005768137.5
-2097263722.25
-330.5625
2097263798.75
-2188756293.6875
121.0
2188756297.125
-2280228180.6875
-329.75
2280228217.5
-2371667398.5
-19.0625
2371667436.0
-2463046324.875
-2.5
2463046319.1875
-2554340921.6875
-0.25
2554340922.25
-2645526741.125
0.0625
2645526741.625
-2736560081.25
0.25
2736560081.5625
-2827386956.375
0.4375
2827386956.5625
-2917940877.125
0.25
2917940877.3125
-3008107397.8125
0.3125
3008107398.125
-3097919483.75
0.375
3097919484.25
-3188882491.25
0.5
3188882491.875
-3292446858.375
0.25
3292446858.75
-3428311328.6875
0.4375
3428311329.1875
-3471122650.6875
0.6875
3471122651.25
-2873044369.1875
0.3125
2873044369.5
SCALARS stress12 float
LOOKUP_TABLE default
1842981377.125
45729955978.0
45729955978.9375
1842981369.0
2282268305.75
2552804674.75
2605422316.875
2574288017.875
2580171544.75
2584608043.0625
2589376097.8125
2593674340.8125
2597762537.4375
2601668560.625
2605424493.625
2609050869.5625
2612539054.375
2615923876.125
2619193067.0625
2622365230.8125
2625459572.25
2628501266.875
2631488108.46875
2634458514.9375
2637455047.3125
2640489451.5
2643623745.75
2646919793.6875
2650475076.53125
2654346776.25
2658744795.78125
2663829927.5625
2669851567.90625
2677293835.21875
2686758527.65625
2699201509.5
2716631589.21875
2741376128.90625
2783078879.34375
2819547900.96875
2969706810.75
3069688315.6875
13529705945.875
28469052631.5625
22398885434.0625
28469052631.5625
13529705946.6875
3069688316.25
2969706811.75
2819547902.875
2783078886.0625
2741376169.46875
2716632251.6875
2699201492.78125
2686758530.125
2677293836.875
2669851567.59375
2663829926.4375
2658744793.9375
2654346773.8125
2650475073.6875
2646919790.875
2643623742.5625
2640489448.15625
2637455044.375
2634458511.71875
2631488105.78125
2628501264.53125
2625459576.9375
2622365269.5
2619193202.75
2615925026.1875
2612549930.0
2609052295.5
2605424653.75
2601668580.9375
2597762537.25
2593674333.1875
2589376084.9375
2584608040.3125
2580171543.125
2574288015.9375
2605422312.75
2552804659.5
2282268259.125
3195291471.125
6888398997.125
3195291513.375
3513448617.125
5818421208.375
3513448440.875
3828430069.375
4860716877.625
3828430097.125
3825722353.0
5045001110.625
3825722356.0
3848363409.8125
5088526224.5
3848363410.0625
3855446197.375
5106423503.8125
3855446197.4375
3863027915.5625
5116017682.375
3863027915.0625
3869821193.125
5125122940.3125
3869821193.0625
3876343813.5625
5133729137.8125
3876343813.9375
3882523343.0
5141921648.25
3882523346.6875
3888385844.1875
5149686937.4375
3888385879.1875
3893936629.0625
5157036412.3125
3893936963.3125
3899189267.0625
5163985328.75
3899191566.0
3904126387.6875
5170519865.75
3904140496.0
3908782670.5
5176660299.4375
3908784718.1875
3913138285.3125
5182405091.375
3913138582.1875
3917206214.25
5187764493.8125
3917206213.5625
3921001325.75
5192755265.25
3921001338.0625
3924540880.21875
5197395140.84375
3924540878.71875
3927804961.6875
5201666494.6875
3927804960.84375
3930819659.0625
5205595806.46875
3930819656.96875
3933607325.40625
5209209580.46875
3933607323.21875
3936146399.15625
5212484925.03125
3936146396.90625
3938464281.4375
5215451475.8125
3938464279.53125
3940574987.09375
5218124382.28125
3940574985.28125
3942514363.28125
5220538570.8125
3942514361.21875
3944237710.0625
5222648631.28125
3944237708.4375
3945850450.84375
5224557602.34375
3945850449.125
3947328086.5
5226236111.28125
3947328084.78125
3948657617.34375
5227662712.28125
3948657615.4375
3949970122.09375
5228955450.78125
3949970120.5
3951264444.96875
5230093527.4375
3951264443.21875
3952589535.75
5231048389.4375
3952589540.40625
3954105979.28125
5232058336.8125
3954105941.1875
3956520437.0625
5232786265.4375
3956520438.28125
3959012921.25
5239200319.15625
3959012921.40625
3981996609.9375
5266966446.59375
3981996609.5625
4011330686.28125
5538936757.5
4011330685.90625
4604083346.5625
5790774660.5
4604083346.25
5115387566.5625
3918331839.875
5115387566.25
SCALARS strain11 float
LOOKUP_TABLE default
-0.004050441414335637
-0.19488172559708872
0.19488172559649897
0.004050441413067318
-0.00516256231836465
-0.010461617179114313
-0.016137726547263753
-0.021398587594624985
-0.026634646930226324
-0.0318787939882732
-0.03713841932359685
-0.04241090328544672
-0.04769491527934022
-0.05298926080012478
-0.058292977317465855
-0.06360521511771644
-0.06892522918523092
-0.07425230770102864
-0.07958582233600531
-0.08492514724172295
-0.09026968617757802
-0.09561885573751283
-0.10097210978602433
-0.10632888098665738
-0.111688595398034
-0.11705069890284747
-0.12241459821761502
-0.12777967707442883
-0.1331452898076968
-0.13851075239006683
-0.14387524496405746
-0.1492378860896313
-0.1545976240600826
-0.15995310672355245
-0.16530262429933096
-0.17064386570393353
-0.175973261003314
-0.18128656185167102
-0.18656865572811654
-0.19178904563561971
-0.19648342526823726
-0.2000188100688689
-0.2006068405032302
-0.09431166802873747
-5.258016244624741e-13
0.09431166802809088
0.2006068405030348
0.20001881006876943
0.1964834252682479
0.19178904563576182
0.18656865572828707
0.18128656185187353
0.17597326100358401
0.17064386570425327
0.16530262429970755
0.15995310672399654
0.1545976240605249
0.1492378860901411
0.14387524496454773
0.138510752390534
0.13314528980821017
0.12777967707488536
0.1224145982180147
0.11705069890310327
0.11168859539808373
0.10632888098639981
0.1009721097851326
0.09561885573551976
0.09026968617298792
0.08492514722654576
0.07958582225190547
0.07425230705357322
0.06892522134861956
0.06360521481121317
0.058292977268239454
0.052989260785111014
0.047694915272488814
0.04241090328158137
0.03713841932115258
0.03187879398656435
0.026634646929018402
0.02139858759371549
0.016137726546496367
0.010461617178485483
0.005162562317849506
0.0014045505715607476
-3.296918293926865e-12
-0.0014045505714541662
-0.002880290721552825
-2.042810365310288e-12
0.0028802907217944096
-0.005835378938154889
-9.237055564881302e-14
0.005835378938151337
-0.00806671807006154
7.105427357601002e-15
0.008066718070104173
-0.010621874571445034
1.7763568394002505e-14
0.010621874571462797
-0.013264997222144359
2.842170943040401e-14
0.013264997222165675
-0.015925346304005217
2.842170943040401e-14
0.015925346304044297
-0.018591445432576847
4.263256414560601e-14
0.018591445432583953
-0.02126234228525803
-2.1316282072803006e-14
0.021262342285133684
-0.02393777218541082
-2.0605739337042905e-13
0.023937772184824624
-0.026617483772826134
-1.4672707493446069e-12
0.026617483769769024
-0.02930122495537546
-1.0608403044898296e-11
0.029301224936942205
-0.031988749935646155
-7.412914726501185e-11
0.031988749848279596
-0.034679837709370887
-5.701892291654076e-10
0.03467983265322516
-0.03737424783678023
-1.0184741938701336e-10
0.0373742472115115
-0.04007176873948026
-1.673150507031096e-11
0.04007176864936213
-0.04277218299541907
-2.716049607442983e-12
0.04277218298257601
-0.045475280932192774
-4.4231285301066237e-13
0.04547528093050168
-0.04818085181228504
-7.460698725481052e-14
0.04818085181225662
-0.050888707110619436
-2.842170943040401e-14
0.05088870711084503
-0.05359864554344007
-7.105427357601002e-15
0.05359864554376337
-0.056310471574340326
-2.842170943040401e-14
0.05631047157465119
-0.059024010674020744
-4.440892098500626e-14
0.05902401067431562
-0.06173907757795938
-5.5067062021407764e-14
0.061739077578224055
-0.06445549386059035
-8.348877145181177e-14
0.06445549386083194
-0.0671730811089315
-9.769962616701378e-14
0.06717308110915532
-0.0698916840747561
-1.1368683772161603e-13
0.06989168407493196
-0.0726111137852321
-1.4921397450962104e-13
0.07261111378538665
-0.07533121003707954
-1.3677947663381929e-13
0.0753312100371879
-0.0780518123153584
-1.687538997430238e-13
0.07805181231538327
-0.08077271965776767
-2.0961010704922955e-13
0.08077271965780852
-0.08349374463413994
-2.3092638912203256e-13
0.08349374463409731
-0.08621466040764858
-2.5224267119483557e-13
0.08621466040753134
-0.088935110703801
-3.019806626980426e-13
0.08893511070369442
-0.09165452419286879
-3.232969447708456e-13
0.0916545241926805
-0.09437706846727778
-3.588240815588506e-13
0.09437706846703975
-0.09714868472032734
-4.050093593832571e-13
0.09714868472005733
-0.10027055354057524
-4.440892098500626e-13
0.1002705535402626
-0.1039836690844993
-4.476419235288631e-13
0.10398366908414758
-0.09981302480295184
-5.044853423896711e-13
0.09981302480238341
SCALARS strain22 float
LOOKUP_TABLE default
-0.002230573933161395
0.0039385163282759095
-0.003938516329469621
0.0022305739294097293
0.0007993992742285627
0.00305019893789904
0.004296902103760658
0.005723934047182411
0.007160432924365523
0.008604905238144056
0.01005082672725166
0.011498961243546546
0.012949206607572705
0.014401547063130238
0.01585590313288776
0.01731218404535184
0.018770297004607528
0.02023013381773353
0.021691594615049326
0.02315457454164971
0.02461896824689802
0.02608466941575216
0.027551578529482867
0.029019595206136728
0.03048861534352909
0.031958547727924724
0.03342929401259198
0.034900759019478755
0.03637285037984839
0.03784548025333834
0.03931854949865965
0.04079197133830803
0.04226565693352313
0.04373949803687083
0.045213392399318764
0.04668719310575398
0.04816086184149526
0.04963328046210336
0.0511091313726979
0.05258113445546542
0.05426058004559309
0.05559609312979319
0.0551599941038603
0.002082603118537918
0.0
-0.0020826031189926653
-0.055159994104144516
-0.05559609313024794
-0.054260580045877305
-0.05258113445563595
-0.05110913137286843
-0.04963328046233073
-0.048160861842063696
-0.04668719310609504
-0.045213392399830354
-0.043739498037325575
-0.04226565693397788
-0.040791971339046995
-0.03931854949917124
-0.0378454802540773
-0.03637285038053051
-0.03490075902050194
-0.03342929401321726
-0.03195854772519624
-0.030488615313061018
-0.029019594957674144
-0.027551580192948677
-0.0260846695311443
-0.024618968271227004
-0.023154574575471543
-0.021691594703042938
-0.020230133841266706
-0.01877029591628343
-0.01731218532705725
-0.015855903294550444
-0.014401547103148005
-0.012949206632015375
-0.011498961306415367
-0.010050826681890612
-0.008604905674701513
-0.007160432959835816
-0.005723934053207813
-0.004296902106489142
-0.003050198939490656
-0.0007993992762749258
0.005413368054178136
2.2737367544323206e-13
-0.00541336805474657
0.0011063155959618598
-2.2737367544323206e-13
-0.0011063155964166071
0.002314931738624182
-2.2737367544323206e-13
-0.0023149317390789292
0.0032270104601366256
1.1368683772161603e-13
-0.00322701046070506
0.004270102041687096
2.0463630789890885e-12
-0.004270102043392399
0.005339809955103192
1.4551915228366852e-11
-0.005339809965107634
0.006414177615852168
-7.79891706770286e-11
-0.006414177946680866
0.007490373087307489
8.412825991399586e-12
-0.007490373024893415
0.008568369509930562
-2.532942744437605e-10
-0.008568369774138773
0.009648111684327887
1.3415046851150692e-11
-0.009648111671140214
0.01072952041613462
-1.5802470443304628e-11
-0.010729520425684314
0.011812510107745311
-1.5006662579253316e-10
-0.011812510156687495
0.012896993489562192
-1.692114892648533e-09
-0.012896994133257067
0.013982889390263153
-2.7794158086180687e-09
-0.013982887921883957
0.015070108252302816
-5.128413249622099e-10
-0.015070108154986883
0.01615857088904704
-3.1013769330456853e-10
-0.016158571153255252
0.01724819621813367
4.860112312599085e-11
-0.017248196166974594
0.01833890312877884
7.048583938740194e-12
-0.018338903135486362
0.01943061281616565
3.126388037344441e-12
-0.01943061290978676
0.020523251700467426
-6.821210263296962e-11
-0.020523252760824562
0.02161674455658158
-4.888534022029489e-12
-0.0216167443417703
0.02271101703331624
-1.0231815394945443e-12
-0.022711017002848166
0.023806005199730862
0.0
-0.023806005195638136
0.024901637600748927
1.1368683772161603e-13
-0.024901637600009963
0.025997849773261805
0.0
-0.025997849773091275
0.02709457994217246
0.0
-0.027094579942286146
0.028191769492451613
1.1368683772161603e-13
-0.028191769492451613
0.029289356157647717
1.7053025658242404e-13
-0.02928935615750561
0.030387292510170028
2.2737367544323206e-13
-0.030387292509999497
0.03148552860378118
2.8421709430404007e-13
-0.03148552860363907
0.03258400777639281
2.2737367544323206e-13
-0.03258400777608017
0.03368268950754327
2.8421709430404007e-13
-0.033682689507429586
0.03478152714706084
3.979039320256561e-13
-0.03478152714683347
0.03588045399482098
1.7053025658242404e-13
-0.03588045399447992
0.036979199436586896
2.8421709430404007e-13
-0.03697919943630268
0.03807843083370699
5.115907697472721e-13
-0.038078430833138555
0.03918933338871966
4.547473508864641e-13
-0.039189333388605974
0.04042634846518922
5.684341886080801e-13
-0.04042634846501869
0.04198588036416595
7.389644451905042e-13
-0.04198588036365436
0.040642750349036305
6.821210263296962e-13
-0.0406427503482405
SCALARS strain12 float
LOOKUP_TABLE default
0.00479175150599076
0.11889788570465498
0.1188978857079519
0.004791751182665394
0.005933897404929667
0.00663729227130716
0.0067740976353434235
0.006693148493241097
0.00670844573710383
0.0067199807037923165
0.006732377694106617
0.006743552918123896
0.006754182075837889
0.006764338131688419
0.006774103650741381
0.006783532175404616
0.006792601928395925
0.006801400913332145
0.006809902326494921
0.006818150144795254
0.006826194429891075
0.0068341026487814815
0.006841868702508691
0.006849592529306392
0.006857383555939123
0.006865272545041989
0.006873421230579879
0.006881990900978963
0.006891235539001173
0.006901301406514904
0.0069127354739748625
0.006925958809233634
0.006941612731793612
0.006960963046367397
0.0069855717273412665
0.007017924560045685
0.00706324295288141
0.007127576724997198
0.007236005761114939
0.007330823695269828
0.007721239380657607
0.007981192088550415
0.03517723562242736
0.07401953700889408
0.05823710148911232
0.07401953700912145
0.03517723562526953
0.007981192092188394
0.007721239388047252
0.00733082371675664
0.007236006091602576
0.007127576827087978
0.007063242969024941
0.007017924562546796
0.006985571725181217
0.006960963042388357
0.006941612726905078
0.0069259588028671715
0.0069127354670399654
0.006901301399238946
0.006891235530929407
0.006881990892566137
0.006873421222053366
0.006865272534923861
0.006857383546162055
0.006849592518733516
0.006841868692049502
0.006834102638208606
0.006826194422728804
0.006818150172193782
0.006809902657209932
0.006801403832810138
0.006792630198901861
0.006783535879776537
0.006774104064106723
0.0067643381837569905
0.006754182000122455
0.0067435528899295605
0.006732377691605507
0.006719980719026353
0.0067084458514727885
0.006693148520525938
0.006774097637844534
0.006637292266759687
0.005933897396062093
0.00830775794861438
0.017909837124534533
0.00830775795543559
0.009134966197962058
0.0151278961927801
0.009134966194778826
0.009953918262453954
0.012637863934287452
0.0099539182629087
0.009946877970605783
0.013117002415356183
0.00994687797287952
0.010005744663885707
0.013230168785867136
0.010005744665704697
0.010024160470265997
0.01327670057639807
0.010024160554849004
0.010043872381857
0.013301646238232934
0.01004387239117932
0.01006153494222417
0.013325320399644625
0.010061534941996797
0.010078493874516425
0.013347696047503632
0.010078493875880667
0.010094560253264717
0.013368996092367524
0.010094560267361885
0.010109803053865107
0.013389185701953465
0.010109803152317909
0.010124234649538266
0.013408295204044407
0.010124235516059343
0.010137892309785457
0.013426361092570005
0.010137898287894131
0.010150728680059729
0.013443351060459463
0.010150765369303372
0.01016283493413539
0.013459316573403157
0.010162840363250325
0.01017415990520476
0.01347425318635942
0.010174160663723342
0.010184735541770351
0.013488188657902356
0.010184735642951637
0.010194603085665221
0.013501163318437648
0.010194603094532795
0.010203806209801769
0.013513227175280917
0.0102038062043448
0.010212293498057079
0.013524333144232514
0.010212293493054858
0.010220130871289257
0.013534549643395621
0.010220130865377541
0.010227378723016045
0.013543945526748757
0.010227378717331703
0.010233980732550663
0.013552460831192548
0.010233980727434755
0.010240006751587316
0.013560173744167514
0.010240006746357722
0.01024549419730647
0.013567124476026038
0.010245494192190563
0.010250537731849363
0.013573399601114033
0.010250537726619768
0.010255019297460422
0.013578887179619414
0.010255019292799261
0.0102592108730164
0.013583848719292746
0.01025921086818471
0.010263053512517217
0.013588213592015563
0.010263053507628683
0.010266509355460585
0.013591924385877974
0.010266509350685737
0.010269923432929318
0.013595282607184345
0.010269923429291339
0.01027328783129633
0.013598243306091717
0.010273287827544664
0.010276733208229416
0.013600726817003306
0.010276733201521893
0.010280674762952913
0.013603350705011508
0.010280674733849082
0.0102869534622414
0.013605244988070808
0.010286953252375497
0.010293433017636744
0.0136219198186609
0.01029343428433549
0.0103531906754597
0.013694111309746404
0.010353190763794373
0.010429459828060317
0.014401235583704874
0.01042945983908794
0.011970615650625405
0.01505601324743111
0.01197061565187596
0.013300008602186608
0.010187664609475178
0.013300008602186608
SCALARS disp_x float
LOOKUP_TABLE default
0.02143700390162237
0.0
0.0
-0.021437003901623647
0.02142878373055453
0.021395703754724566
0.021330051177535184
0.021237510749570473
0.021118303990188384
0.02097247571533911
0.020799958479455215
0.02060070592094192
0.020374672525421793
0.020121815692988706
0.019842094939924948
0.019535471986890866
0.019201910708395192
0.018841377104389333
0.018453839263502966
0.018039267324297645
0.017597633433423143
0.017128911700889878
0.01663307815241282
0.01611011067883137
0.015559988982601485
0.01498269452135799
0.014378210448544516
0.013746521551109716
0.013087614184266334
0.01240147620331964
0.011688096892520025
0.010947466891163719
0.010179578115741276
0.00938442368467517
0.008561997813830128
0.007712295863124443
0.006835313549132963
0.005931049490617132
0.004999481498983762
0.0040406597562108
0.003054471935047196
0.002046031548571663
0.001021350099787083
0.0
0.0
0.0
-0.001021350099787108
-0.0020460315485717104
-0.003054471935047267
-0.004040659756210898
-0.004999481498983886
-0.005931049490617283
-0.006835313549133142
-0.007712295863124658
-0.008561997813830375
-0.009384423684675451
-0.010179578115741592
-0.010947466891164074
-0.011688096892520414
-0.012401476203320065
-0.013087614184266797
-0.013746521551110226
-0.014378210448545068
-0.014982694521358591
-0.015559988982602127
-0.016110110678832026
-0.016633078152413525
-0.017128911700890627
-0.017597633433423934
-0.01803926732429847
-0.0184538392635038
-0.01884137710439017
-0.01920191070839609
-0.019535471986891827
-0.019842094939925916
-0.020121815692989698
-0.020374672525422792
-0.020600705920942923
-0.0207999584794563
-0.020972475715340236
-0.021118303990189494
-0.021237510749571586
-0.02133005117753637
-0.02139570375472578
-0.021428783730555737
-0.010710887989000068
-6.128288416633912e-16
0.010710887988998812
0.010709009821309717
-6.162274534772267e-16
-0.010709009821310974
0.010683052261117354
-5.847054385219829e-16
-0.01068305226111856
0.010649003355728718
-5.836713427224043e-16
-0.010649003355729896
0.010602595221544161
-5.807379980480608e-16
-0.010602595221545276
0.010542978486606689
-5.381601594200291e-16
-0.010542978486607764
0.010470036423022657
-5.020870868142067e-16
-0.010470036423023684
0.010383749677502559
-5.073235425011475e-16
-0.010383749677503612
0.010284096048841456
-5.301194278173906e-16
-0.010284096048842522
0.010171053404741792
-5.309599498174646e-16
-0.010171053404742857
0.010044600379662608
-5.09463295008049e-16
-0.010044600379663654
0.009904716721739402
-4.897524234721262e-16
-0.009904716721740382
0.009751383269983666
-4.495961184853893e-16
-0.009751383269984575
0.009584581941896868
-4.4118990855898107e-16
-0.009584581941897749
0.00940429571553128
-4.3602092539590983e-16
-0.009404295715532125
0.009210508611597373
-4.091193182977165e-16
-0.009210508611598197
0.009003205673982509
-3.8643824828906783e-16
-0.009003205673983307
0.008782372948848986
-3.8195692996530995e-16
-0.008782372948849754
0.008547997462264867
-3.7041500960645374e-16
-0.008547997462265622
0.0083000671963749
-3.666489292692618e-16
-0.008300067196375622
0.008038571064108853
-3.573069364145541e-16
-0.008038571064109544
0.007763498882426135
-3.2601786168956765e-16
-0.00776349888242678
0.007474841344095547
-3.019071009715599e-16
-0.007474841344096146
0.007172589988009165
-2.7902355807549276e-16
-0.007172589988009724
0.0068567371680292215
-2.5648521227605464e-16
-0.006856737168029732
0.006527276020367353
-2.36379046888167e-16
-0.006527276020367821
0.006184200429494
-2.1481994442954674e-16
-0.006184200429494434
0.0058275049925865284
-1.9599214693320927e-16
-0.0058275049925869205
0.005457184982472311
-1.7647155395353188e-16
-0.005457184982472662
0.0050732363092871055
-1.5608199111991168e-16
-0.005073236309287419
0.004675655479269526
-1.375345655440807e-16
-0.0046756554792698034
0.0042644395554987434
-1.2145934109440895e-16
-0.004264439555498986
0.0038395860859502294
-1.0713215863160515e-16
-0.003839586085950441
0.003401093293451649
-9.241397204884778e-17
-0.003401093293451831
0.002948960538336788
-7.668638085841988e-17
-0.0029489605383369406
0.002483197218793964
-6.175699984663978e-17
-0.002483197218794087
0.002003785291193924
-4.812829116684976e-17
-0.002003785291194019
0.0015103115394462143
-3.477300548852835e-17
-0.0015103115394462835
0.0009981047728782957
-2.1880762100974022e-17
-0.0009981047728783408
0.0004565394878446395
-1.0098206925263298e-17
-0.00045653948784466023
SCALARS disp_y float
LOOKUP_TABLE default
-0.2881337467994969
0.0
0.0
-0.2881337467994969
-0.2773929806176798
-0.266643338904895
-0.2559153148290052
-0.24522812245154296
-0.23459376652923045
-0.22402561187575873
-0.2135369556485866
-0.20314116382878364
-0.19285161853984337
-0.1826817248562506
-0.17264490832771417
-0.16275461418781317
-0.15302430620971091
-0.1434674656406646
-0.1340975901416401
-0.12492819274802928
-0.1159728008501053
-0.10724495519519227
-0.09875820891291152
-0.09052612656498463
-0.08256228322105455
-0.07488026356198851
-0.06749366101212975
-0.0604160769019641
-0.05366111966267247
-0.047242404054018514
-0.04117355042714485
-0.03546818402319748
-0.030139934312201164
-0.025202434358495618
-0.020669320295237884
-0.016554230469376992
-0.012870806398678995
-0.009632683303296117
-0.006853536038595788
-0.004546899173563282
-0.0027277832379145476
-0.0014067238658004215
-0.0006073131606916078
0.0
0.0
0.0
-0.0006073131606916248
-0.0014067238658004417
-0.0027277832379145705
-0.004546899173563305
-0.006853536038595818
-0.00963268330329615
-0.012870806398679022
-0.01655423046937702
-0.020669320295237912
-0.02520243435849566
-0.0301399343122012
-0.03546818402319753
-0.0411735504271449
-0.04724240405401855
-0.05366111966267249
-0.06041607690196414
-0.06749366101212981
-0.07488026356198858
-0.08256228322105462
-0.09052612656498467
-0.09875820891291148
-0.1072449551951923
-0.1159728008501053
-0.12492819274802931
-0.13409759014164013
-0.14346746564066473
-0.15302430620971091
-0.16275461418781326
-0.1726449083277143
-0.18268172485625067
-0.19285161853984334
-0.20314116382878347
-0.21353695564858646
-0.22402561187575876
-0.23459376652923056
-0.24522812245154296
-0.2559153148290051
-0.266643338904895
-0.2773929806176799
-0.28814298765660634
-0.2881985281106488
-0.28814298765660634
-0.27738745023996525
-0.2773763360031216
-0.2773874502399652
-0.2666246041679716
-0.2666184642360987
-0.2666246041679718
-0.2558898562093423
-0.25588105684186296
-0.2558898562093421
-0.24519403999711462
-0.2451827112345321
-0.24519403999711467
-0.23455117249229193
-0.23453696113996003
-0.23455117249229196
-0.2239744394553929
-0.22395737620266976
-0.22397443945539292
-0.21347719864107462
-0.21345727225202638
-0.21347719864107442
-0.20307280607670475
-0.2030500134200763
-0.20307280607670464
-0.19277464628813512
-0.19274898241723473
-0.19277464628813515
-0.18259612467775413
-0.182567585183118
-0.18259612467775413
-0.17255066757067758
-0.17251924821642767
-0.17255066757067766
-0.16265172088580698
-0.16261741768074475
-0.16265172088580707
-0.1529127490865872
-0.15287555826616112
-0.15291274908658714
-0.14334723409645508
-0.14330715212164055
-0.14334723409645514
-0.13396867424107187
-0.13392569779384728
-0.13396867424107192
-0.12479058320744779
-0.12474470918656685
-0.12479058320744782
-0.11582648902358447
-0.11577771453992115
-0.11582648902358444
-0.10708993305968213
-0.10703825543128416
-0.10708993305968213
-0.09859446905245067
-0.09853988579927554
-0.09859446905245062
-0.09035366215397114
-0.09029617099230987
-0.09035366215397117
-0.08238108800657577
-0.0823206868431621
-0.08238108800657581
-0.07469033184520874
-0.07462701877101482
-0.07469033184520874
-0.06729498762873495
-0.06722876091245289
-0.06729498762873497
-0.06020865720166425
-0.06013951528287226
-0.060208657201664253
-0.05344494948775527
-0.053372890969773594
-0.053444949487755286
-0.04701747971698376
-0.046942503359393296
-0.04701747971698378
-0.04093986868726274
-0.04086197339822955
-0.040939868687262765
-0.03522574206281676
-0.03514492689046945
-0.035225742062816784
-0.02988872970840956
-0.02980499383520133
-0.02988872970840958
-0.024942465072867556
-0.024855807791581076
-0.024942465072867574
-0.02040058455978615
-0.020311005340312428
-0.020400584559786165
-0.01627672721829977
-0.016184225292400743
-0.01627672721829978
-0.01258453299792743
-0.012489109698487265
-0.012584532997927445
-0.009337648960479956
-0.00923929761137918
-0.009337648960479974
-0.006549695654665339
-0.0064484642859326865
-0.006549695654665354
-0.0042344546599735935
-0.004130074426408996
-0.004234454659973606
-0.0024048874145681833
-0.002297818398993943
-0.0024048874145681954
-0.0010776802851570758
-0.0009574095939819921
-0.0010776802851570864
-0.00024289533367512835
-0.0001436276761344762
-0.00024289533367513507
SCALARS von_mises_stress float
LOOKUP_TABLE default
6937891375.78031
239843778842.26562
239843778841.24417
6937891367.735096
7000114443.548967
12302736131.256811
18311365475.99898
23947923005.55199
29621910013.292305
35329651235.83857
41069846366.947525
46833810529.53239
52616998088.39213
58416168770.317665
64229034198.89279
70053819538.87909
75889126429.94061
81733747745.25214
87586688969.0891
93447024478.34998
99313925421.66934
105186596568.76334
111064341496.72745
116946426190.25696
122832168695.16374
128720875747.24019
134611858465.16277
140504400128.48758
146397731139.71182
152291082599.88867
158183526987.8559
164074049449.78326
169961481082.92493
175844295042.03958
181720610079.69806
187587836259.26947
193442060216.60422
199278651537.8423
205080548114.04425
210813219647.14462
215939329099.36646
219793493084.57364
221673207435.6048
120081326102.83722
38796007604.71072
120081326102.07523
221673207435.28055
219793493084.24936
215939329099.12146
210813219647.1067
205080548114.41864
199278651539.6176
193442060244.68176
187587836258.79364
181720610080.40057
175844295042.7472
169961481083.87067
164074049450.7853
158183526981.25122
152291082830.05597
146397731145.573
140504400120.1555
134611858435.83496
128720875600.15837
122832168693.81618
116946426254.84674
111064341366.75221
105186596502.96355
99313925389.0059
93447024462.6434
87586688865.6623
81733747233.17119
75889118831.70361
70053819311.23802
64229034205.42124
58416168738.74068
52616998116.14575
46833810501.97271
41069846355.91999
35329651218.831795
29621910060.672222
23947922996.14376
18311365470.91383
12302736131.471638
7000114395.787953
8985470493.87188
11931057045.827002
8985470541.683264
6855337421.195252
10077801152.741802
6855337154.476289
9214599835.827505
8419008593.254053
9214599867.430338
11052981734.469189
8738198247.843914
11052981777.42432
13421997138.86769
8813585956.480635
13421997150.204103
16008603746.034843
8844584953.567137
16008603734.249102
18705087552.326485
8861202558.294275
18705087625.316097
21465186002.480385
8876973327.658045
21465185986.938965
24268737510.4113
8891879698.988016
24268737550.60629
27103654349.864857
8906069543.307306
27103654374.30896
29962233106.582996
8919519418.71552
29962233188.317318
32839291345.063457
8932249082.607975
32839291436.944225
35731193917.559715
8944284958.935492
35731194568.04776
38635314734.73636
8955603109.023937
38635313587.62203
41549673700.78121
8966238652.150497
41549673604.93958
44472750304.24957
8976188923.66513
44472750446.13183
47403337077.699295
8985471680.98509
47403337075.81585
50340458940.84118
8994115950.683802
50340459083.411446
53283302332.690605
9002152450.952976
53283302385.93005
56231186720.097496
9009550652.827457
56231186934.013306
59183523722.13742
9016356420.47136
59183523754.192276
62139796875.91814
9022615660.646431
62139796999.18583
65099564562.47289
9028288723.840975
65099564884.97115
68062412124.1176
9033426940.51734
68062412087.79066
71027976728.27124
9038056550.325089
71027976726.68088
73995929166.39676
9042238047.52027
73995929148.8767
76965954888.48056
9045892779.45918
76965954870.61479
79937765274.36012
9049199214.329609
79937765277.05548
82911088203.5203
9052106477.090319
82911088203.1944
85885664160.21837
9054577422.504446
85885664159.87358
88861227563.95125
9056816511.267347
88861227563.68364
91837510996.25833
9058787717.85888
91837510996.09909
94814215355.7969
9060441587.357098
94814215356.38354
97790933751.57097
9062190867.523567
97790933746.83264
100767074687.05191
9063451676.88635
100767074686.77066
103746995081.83366
9074561143.809702
103746995081.3984
106782743580.66725
9122653487.260885
106782743580.38458
110201858139.80766
9593719883.900814
110201858139.24837
114337878978.61375
10029915927.168417
114337878978.05904
109865542764.87717
6786749827.578339
109865542764.09227
