# vtk DataFile Version 2.0
Generated Volume Mesh
ASCII
DATASET UNSTRUCTURED_GRID
POINTS 1331 float
0.0 0.0 0.0
20.0 0.0 0.0
20.0 20.0 0.0
0.0 20.0 0.0
0.0 0.0 20.0
20.0 0.0 20.0
20.0 20.0 20.0
0.0 20.0 20.0
1.999999999998378 0.0 0.0
3.999999999993648 0.0 0.0
5.999999999987806 0.0 0.0
7.999999999982034 0.0 0.0
9.999999999984798 0.0 0.0
11.99999999998784 0.0 0.0
13.99999999999088 0.0 0.0
15.99999999999392 0.0 0.0
17.99999999999696 0.0 0.0
20.0 1.999999999998378 0.0
20.0 3.999999999993648 0.0
20.0 5.999999999987806 0.0
20.0 7.999999999982034 0.0
20.0 9.999999999984798 0.0
20.0 11.99999999998784 0.0
20.0 13.99999999999088 0.0
20.0 15.99999999999392 0.0
20.0 17.99999999999696 0.0
18.0 20.0 0.0
15.99999999999999 20.0 0.0
13.99999999999999 20.0 0.0
11.99999999999999 20.0 0.0
9.999999999999993 20.0 0.0
7.999999999999993 20.0 0.0
5.999999999999996 20.0 0.0
3.999999999999996 20.0 0.0
1.999999999999996 20.0 0.0
0.0 18.0 0.0
0.0 15.99999999999999 0.0
0.0 13.99999999999999 0.0
0.0 11.99999999999999 0.0
0.0 9.999999999999993 0.0
0.0 7.999999999999993 0.0
0.0 5.999999999999996 0.0
0.0 3.999999999999996 0.0
0.0 1.999999999999996 0.0
1.999999999998378 0.0 20.0
3.999999999993648 0.0 20.0
5.999999999987806 0.0 20.0
7.999999999982034 0.0 20.0
9.999999999984798 0.0 20.0
11.99999999998784 0.0 20.0
13.99999999999088 0.0 20.0
15.99999999999392 0.0 20.0
17.99999999999696 0.0 20.0
20.0 1.999999999998378 20.0
20.0 3.999999999993648 20.0
20.0 5.999999999987806 20.0
20.0 7.999999999982034 20.0
20.0 9.999999999984798 20.0
20.0 11.99999999998784 20.0
20.0 13.99999999999088 20.0
20.0 15.99999999999392 20.0
20.0 17.99999999999696 20.0
18.0 20.0 20.0
15.99999999999999 20.0 20.0
13.99999999999999 20.0 20.0
11.99999999999999 20.0 20.0
9.999999999999993 20.0 20.0
7.999999999999993 20.0 20.0
5.999999999999996 20.0 20.0
3.999999999999996 20.0 20.0
1.999999999999996 20.0 20.0
0.0 18.0 20.0
0.0 15.99999999999999 20.0
0.0 13.99999999999999 20.0
0.0 11.99999999999999 20.0
0.0 9.999999999999993 20.0
0.0 7.999999999999993 20.0
0.0 5.999999999999996 20.0
0.0 3.999999999999996 20.0
0.0 1.999999999999996 20.0
0.0 0.0 1.999999999998378
0.0 0.0 3.999999999993648
0.0 0.0 5.999999999987806
0.0 0.0 7.999999999982034
0.0 0.0 9.999999999984798
0.0 0.0 11.99999999998784
0.0 0.0 13.99999999999088
0.0 0.0 15.99999999999392
0.0 0.0 17.99999999999696
20.0 0.0 1.999999999998378
20.0 0.0 3.999999999993648
20.0 0.0 5.999999999987806
20.0 0.0 7.999999999982034
20.0 0.0 9.999999999984798
20.0 0.0 11.99999999998784
20.0 0.0 13.99999999999088
20.0 0.0 15.99999999999392
20.0 0.0 17.99999999999696
20.0 20.0 1.999999999998378
20.0 20.0 3.999999999993648
20.0 20.0 5.999999999987806
20.0 20.0 7.999999999982034
20.0 20.0 9.999999999984798
20.0 20.0 11.99999999998784
20.0 20.0 13.99999999999088
20.0 20.0 15.99999999999392
20.0 20.0 17.99999999999696
0.0 20.0 1.999999999998378
0.0 20.0 3.999999999993648
0.0 20.0 5.999999999987806
0.0 20.0 7.999999999982034
0.0 20.0 9.999999999984798
0.0 20.0 11.99999999998784
0.0 20.0 13.99999999999088
0.0 20.0 15.99999999999392
0.0 20.0 17.99999999999696
1.999999999998539 1.999999999999834 0.0
1.999999999998701 3.999999999999362 0.0
1.999999999998863 5.999999999998778 0.0
1.999999999999025 7.999999999998198 0.0
1.999999999999187 9.999999999998474 0.0
1.999999999999349 11.99999999999878 0.0
1.999999999999511 13.99999999999907 0.0
1.999999999999673 15.99999999999939 0.0
1.999999999999835 17.99999999999969 0.0
3.999999999994283 1.999999999999673 0.0
3.999999999994919 3.999999999998727 0.0
3.999999999995552 5.999999999997559 0.0
3.999999999996187 7.999999999996403 0.0
3.999999999996822 9.999999999996954 0.0
3.999999999997456 11.99999999999756 0.0
3.999999999998092 13.99999999999817 0.0
3.999999999998727 15.99999999999878 0.0
3.999999999999362 17.99999999999939 0.0
5.999999999989026 1.999999999999511 0.0
5.999999999990244 3.999999999998092 0.0
5.999999999991463 5.999999999996339 0.0
5.999999999992681 7.999999999994605 0.0
5.999999999993902 9.999999999995433 0.0
5.99999999999512 11.99999999999635 0.0
5.99999999999634 13.99999999999726 0.0
5.999999999997558 15.99999999999817 0.0
5.999999999998778 17.99999999999909 0.0
7.999999999983831 1.999999999999349 0.0
7.999999999985626 3.999999999997457 0.0
7.999999999987422 5.99999999999512 0.0
7.999999999989218 7.999999999992809 0.0
7.999999999991013 9.999999999993914 0.0
7.999999999992808 11.99999999999513 0.0
7.999999999994605 13.99999999999634 0.0
7.999999999996401 15.99999999999756 0.0
7.999999999998197 17.99999999999878 0.0
9.999999999986317 1.999999999999187 0.0
9.999999999987837 3.999999999996822 0.0
9.999999999989354 5.999999999993902 0.0
9.999999999990877 7.999999999991013 0.0
9.999999999992395 9.999999999992395 0.0
9.999999999993916 11.99999999999391 0.0
9.999999999995438 13.99999999999543 0.0
9.999999999996954 15.99999999999696 0.0
9.999999999998474 17.99999999999848 0.0
11.99999999998906 1.999999999999025 0.0
11.99999999999027 3.999999999996188 0.0
11.99999999999149 5.999999999992683 0.0
11.9999999999927 7.999999999989218 0.0
11.99999999999391 9.999999999990878 0.0
11.99999999999513 11.9999999999927 0.0
11.99999999999634 13.99999999999452 0.0
11.99999999999756 15.99999999999635 0.0
11.99999999999877 17.99999999999817 0.0
13.99999999999178 1.999999999998863 0.0
13.9999999999927 3.999999999995553 0.0
13.99999999999361 5.999999999991464 0.0
13.99999999999452 7.999999999987422 0.0
13.99999999999543 9.99999999998936 0.0
13.99999999999635 11.99999999999148 0.0
13.99999999999726 13.99999999999361 0.0
13.99999999999817 15.99999999999574 0.0
13.99999999999907 17.99999999999787 0.0
15.99999999999453 1.999999999998701 0.0
15.99999999999513 3.999999999994917 0.0
15.99999999999574 5.999999999990245 0.0
15.99999999999635 7.999999999985626 0.0
15.99999999999696 9.999999999987837 0.0
15.99999999999757 11.99999999999027 0.0
15.99999999999817 13.9999999999927 0.0
15.99999999999878 15.99999999999514 0.0
15.99999999999939 17.99999999999757 0.0
17.99999999999726 1.999999999998539 0.0
17.99999999999757 3.999999999994283 0.0
17.99999999999787 5.999999999989024 0.0
17.99999999999817 7.99999999998383 0.0
17.99999999999848 9.999999999986317 0.0
17.99999999999878 11.99999999998905 0.0
17.99999999999909 13.99999999999178 0.0
17.9999999999994 15.99999999999453 0.0
17.99999999999969 17.99999999999726 0.0
1.999999999998539 1.999999999999834 20.0
1.999999999998701 3.999999999999362 20.0
1.999999999998863 5.999999999998778 20.0
1.999999999999025 7.999999999998198 20.0
1.999999999999187 9.999999999998474 20.0
1.999999999999349 11.99999999999878 20.0
1.999999999999511 13.99999999999907 20.0
1.999999999999673 15.99999999999939 20.0
1.999999999999835 17.99999999999969 20.0
3.999999999994283 1.999999999999673 20.0
3.999999999994919 3.999999999998727 20.0
3.999999999995552 5.999999999997559 20.0
3.999999999996187 7.999999999996403 20.0
3.999999999996822 9.999999999996954 20.0
3.999999999997456 11.99999999999756 20.0
3.999999999998092 13.99999999999817 20.0
3.999999999998727 15.99999999999878 20.0
3.999999999999362 17.99999999999939 20.0
5.999999999989026 1.999999999999511 20.0
5.999999999990244 3.999999999998092 20.0
5.999999999991463 5.999999999996339 20.0
5.999999999992681 7.999999999994605 20.0
5.999999999993902 9.999999999995433 20.0
5.99999999999512 11.99999999999635 20.0
5.99999999999634 13.99999999999726 20.0
5.999999999997558 15.99999999999817 20.0
5.999999999998778 17.99999999999909 20.0
7.999999999983831 1.999999999999349 20.0
7.999999999985626 3.999999999997457 20.0
7.999999999987422 5.99999999999512 20.0
7.999999999989218 7.999999999992809 20.0
7.999999999991013 9.999999999993914 20.0
7.999999999992808 11.99999999999513 20.0
7.999999999994605 13.99999999999634 20.0
7.999999999996401 15.99999999999756 20.0
7.999999999998197 17.99999999999878 20.0
9.999999999986317 1.999999999999187 20.0
9.999999999987837 3.999999999996822 20.0
9.999999999989354 5.999999999993902 20.0
9.999999999990877 7.999999999991013 20.0
9.999999999992395 9.999999999992395 20.0
9.999999999993916 11.99999999999391 20.0
9.999999999995438 13.99999999999543 20.0
9.999999999996954 15.99999999999696 20.0
9.999999999998474 17.99999999999848 20.0
11.99999999998906 1.999999999999025 20.0
11.99999999999027 3.999999999996188 20.0
11.99999999999149 5.999999999992683 20.0
11.9999999999927 7.999999999989218 20.0
11.99999999999391 9.999999999990878 20.0
11.99999999999513 11.9999999999927 20.0
11.99999999999634 13.99999999999452 20.0
11.99999999999756 15.99999999999635 20.0
11.99999999999877 17.99999999999817 20.0
13.99999999999178 1.999999999998863 20.0
13.9999999999927 3.999999999995553 20.0
13.99999999999361 5.999999999991464 20.0
13.99999999999452 7.999999999987422 20.0
13.99999999999543 9.99999999998936 20.0
13.99999999999635 11.99999999999148 20.0
13.99999999999726 13.99999999999361 20.0
13.99999999999817 15.99999999999574 20.0
13.99999999999907 17.99999999999787 20.0
15.99999999999453 1.999999999998701 20.0
15.99999999999513 3.999999999994917 20.0
15.99999999999574 5.999999999990245 20.0
15.99999999999635 7.999999999985626 20.0
15.99999999999696 9.999999999987837 20.0
15.99999999999757 11.99999999999027 20.0
15.99999999999817 13.9999999999927 20.0
15.99999999999878 15.99999999999514 20.0
15.99999999999939 17.99999999999757 20.0
17.99999999999726 1.999999999998539 20.0
17.99999999999757 3.999999999994283 20.0
17.99999999999787 5.999999999989024 20.0
17.99999999999817 7.99999999998383 20.0
17.99999999999848 9.999999999986317 20.0
17.99999999999878 11.99999999998905 20.0
17.99999999999909 13.99999999999178 20.0
17.9999999999994 15.99999999999453 20.0
17.99999999999969 17.99999999999726 20.0
1.999999999998377 0.0 1.999999999998378
1.999999999998377 0.0 3.999999999993648
1.999999999998378 0.0 5.999999999987807
1.999999999998378 0.0 7.999999999982033
1.999999999998377 0.0 9.999999999984798
1.999999999998378 0.0 11.99999999998784
1.999999999998378 0.0 13.99999999999087
1.999999999998377 0.0 15.99999999999392
1.999999999998378 0.0 17.99999999999696
3.999999999993648 0.0 1.999999999998377
3.999999999993649 0.0 3.999999999993649
3.999999999993649 0.0 5.999999999987804
3.999999999993648 0.0 7.999999999982035
3.999999999993649 0.0 9.999999999984798
3.999999999993649 0.0 11.99999999998784
3.999999999993648 0.0 13.99999999999088
3.99999999999365 0.0 15.99999999999392
3.999999999993648 0.0 17.99999999999696
5.999999999987805 0.0 1.999999999998378
5.999999999987805 0.0 3.999999999993648
5.999999999987806 0.0 5.999999999987806
5.999999999987807 0.0 7.999999999982034
5.999999999987805 0.0 9.999999999984798
5.999999999987804 0.0 11.99999999998784
5.999999999987806 0.0 13.99999999999088
5.999999999987806 0.0 15.99999999999392
5.999999999987806 0.0 17.99999999999696
7.999999999982035 0.0 1.999999999998377
7.999999999982035 0.0 3.999999999993648
7.999999999982034 0.0 5.999999999987805
7.999999999982032 0.0 7.999999999982034
7.999999999982034 0.0 9.999999999984798
7.999999999982034 0.0 11.99999999998784
7.999999999982034 0.0 13.99999999999088
7.999999999982035 0.0 15.99999999999392
7.999999999982034 0.0 17.99999999999696
9.999999999984798 0.0 1.999999999998377
9.999999999984798 0.0 3.999999999993648
9.999999999984798 0.0 5.999999999987805
9.999999999984798 0.0 7.999999999982034
9.999999999984798 0.0 9.999999999984798
9.999999999984798 0.0 11.99999999998784
9.999999999984798 0.0 13.99999999999088
9.999999999984798 0.0 15.99999999999392
9.9999999999848 0.0 17.99999999999696
11.99999999998784 0.0 1.999999999998378
11.99999999998784 0.0 3.999999999993649
11.99999999998784 0.0 5.999999999987806
11.99999999998784 0.0 7.999999999982034
11.99999999998784 0.0 9.999999999984798
11.99999999998784 0.0 11.99999999998784
11.99999999998784 0.0 13.99999999999088
11.99999999998784 0.0 15.99999999999392
11.99999999998784 0.0 17.99999999999696
13.99999999999087 0.0 1.999999999998378
13.99999999999088 0.0 3.999999999993648
13.99999999999088 0.0 5.999999999987806
13.99999999999088 0.0 7.999999999982034
13.99999999999088 0.0 9.999999999984798
13.99999999999088 0.0 11.99999999998784
13.99999999999088 0.0 13.99999999999088
13.99999999999087 0.0 15.99999999999392
13.99999999999087 0.0 17.99999999999696
15.99999999999392 0.0 1.999999999998377
15.99999999999392 0.0 3.99999999999365
15.99999999999392 0.0 5.999999999987806
15.99999999999392 0.0 7.999999999982035
15.99999999999392 0.0 9.999999999984798
15.99999999999392 0.0 11.99999999998784
15.99999999999392 0.0 13.99999999999087
15.99999999999392 0.0 15.99999999999392
15.99999999999392 0.0 17.99999999999696
17.99999999999696 0.0 1.999999999998378
17.99999999999696 0.0 3.999999999993648
17.99999999999696 0.0 5.999999999987806
17.99999999999696 0.0 7.999999999982034
17.99999999999696 0.0 9.9999999999848
17.99999999999696 0.0 11.99999999998784
17.99999999999696 0.0 13.99999999999087
17.99999999999696 0.0 15.99999999999392
17.99999999999696 0.0 17.99999999999696
20.0 1.999999999998377 1.999999999998378
20.0 1.999999999998377 3.999999999993648
20.0 1.999999999998378 5.999999999987807
20.0 1.999999999998378 7.999999999982033
20.0 1.999999999998377 9.999999999984798
20.0 1.999999999998378 11.99999999998784
20.0 1.999999999998378 13.99999999999087
20.0 1.999999999998377 15.99999999999392
20.0 1.999999999998378 17.99999999999696
20.0 3.999999999993648 1.999999999998377
20.0 3.999999999993649 3.999999999993649
20.0 3.999999999993649 5.999999999987804
20.0 3.999999999993648 7.999999999982035
20.0 3.999999999993649 9.999999999984798
20.0 3.999999999993649 11.99999999998784
20.0 3.999999999993648 13.99999999999088
20.0 3.99999999999365 15.99999999999392
20.0 3.999999999993648 17.99999999999696
20.0 5.999999999987805 1.999999999998378
20.0 5.999999999987805 3.999999999993648
20.0 5.999999999987806 5.999999999987806
20.0 5.999999999987807 7.999999999982034
20.0 5.999999999987805 9.999999999984798
20.0 5.999999999987804 11.99999999998784
20.0 5.999999999987806 13.99999999999088
20.0 5.999999999987806 15.99999999999392
20.0 5.999999999987806 17.99999999999696
20.0 7.999999999982035 1.999999999998377
20.0 7.999999999982035 3.999999999993648
20.0 7.999999999982034 5.999999999987805
20.0 7.999999999982032 7.999999999982034
20.0 7.999999999982034 9.999999999984798
20.0 7.999999999982034 11.99999999998784
20.0 7.999999999982034 13.99999999999088
20.0 7.999999999982035 15.99999999999392
20.0 7.999999999982034 17.99999999999696
20.0 9.999999999984798 1.999999999998377
20.0 9.999999999984798 3.999999999993648
20.0 9.999999999984798 5.999999999987805
20.0 9.999999999984798 7.999999999982034
20.0 9.999999999984798 9.999999999984798
20.0 9.999999999984798 11.99999999998784
20.0 9.999999999984798 13.99999999999088
20.0 9.999999999984798 15.99999999999392
20.0 9.9999999999848 17.99999999999696
20.0 11.99999999998784 1.999999999998378
20.0 11.99999999998784 3.999999999993649
20.0 11.99999999998784 5.999999999987806
20.0 11.99999999998784 7.999999999982034
20.0 11.99999999998784 9.999999999984798
20.0 11.99999999998784 11.99999999998784
20.0 11.99999999998784 13.99999999999088
20.0 11.99999999998784 15.99999999999392
20.0 11.99999999998784 17.99999999999696
20.0 13.99999999999087 1.999999999998378
20.0 13.99999999999088 3.999999999993648
20.0 13.99999999999088 5.999999999987806
20.0 13.99999999999088 7.999999999982034
20.0 13.99999999999088 9.999999999984798
20.0 13.99999999999088 11.99999999998784
20.0 13.99999999999088 13.99999999999088
20.0 13.99999999999087 15.99999999999392
20.0 13.99999999999087 17.99999999999696
20.0 15.99999999999392 1.999999999998377
20.0 15.99999999999392 3.99999999999365
20.0 15.99999999999392 5.999999999987806
20.0 15.99999999999392 7.999999999982035
20.0 15.99999999999392 9.999999999984798
20.0 15.99999999999392 11.99999999998784
20.0 15.99999999999392 13.99999999999087
20.0 15.99999999999392 15.99999999999392
20.0 15.99999999999392 17.99999999999696
20.0 17.99999999999696 1.999999999998378
20.0 17.99999999999696 3.999999999993648
20.0 17.99999999999696 5.999999999987806
20.0 17.99999999999696 7.999999999982034
20.0 17.99999999999696 9.9999999999848
20.0 17.99999999999696 11.99999999998784
20.0 17.99999999999696 13.99999999999087
20.0 17.99999999999696 15.99999999999392
20.0 17.99999999999696 17.99999999999696
17.99999999999999 20.0 1.999999999998378
18.0 20.0 3.999999999993648
18.0 20.0 5.999999999987806
18.0 20.0 7.999999999982035
18.0 20.0 9.9999999999848
18.0 20.0 11.99999999998784
18.0 20.0 13.99999999999088
18.0 20.0 15.99999999999392
18.0 20.0 17.99999999999696
15.99999999999999 20.0 1.999999999998377
15.99999999999999 20.0 3.999999999993648
16.0 20.0 5.999999999987805
15.99999999999999 20.0 7.999999999982034
15.99999999999999 20.0 9.999999999984798
15.99999999999999 20.0 11.99999999998784
16.0 20.0 13.99999999999088
15.99999999999999 20.0 15.99999999999392
15.99999999999999 20.0 17.99999999999696
13.99999999999999 20.0 1.999999999998378
13.99999999999999 20.0 3.999999999993649
13.99999999999999 20.0 5.999999999987805
13.99999999999999 20.0 7.999999999982034
13.99999999999999 20.0 9.999999999984798
13.99999999999999 20.0 11.99999999998784
13.99999999999999 20.0 13.99999999999087
13.99999999999999 20.0 15.99999999999392
13.99999999999999 20.0 17.99999999999696
11.99999999999999 20.0 1.999999999998378
11.99999999999999 20.0 3.999999999993648
11.99999999999999 20.0 5.999999999987807
11.99999999999999 20.0 7.999999999982034
11.99999999999999 20.0 9.999999999984798
11.99999999999999 20.0 11.99999999998784
11.99999999999999 20.0 13.99999999999087
11.99999999999999 20.0 15.99999999999392
11.99999999999999 20.0 17.99999999999696
9.999999999999988 20.0 1.999999999998378
9.999999999999993 20.0 3.999999999993649
9.999999999999993 20.0 5.999999999987806
9.999999999999993 20.0 7.999999999982034
9.999999999999993 20.0 9.999999999984798
9.999999999999993 20.0 11.99999999998784
9.999999999999993 20.0 13.99999999999087
9.999999999999993 20.0 15.99999999999392
9.999999999999991 20.0 17.99999999999696
7.999999999999993 20.0 1.999999999998378
7.999999999999992 20.0 3.999999999993649
7.999999999999992 20.0 5.999999999987806
7.999999999999993 20.0 7.999999999982034
7.999999999999994 20.0 9.999999999984798
7.999999999999992 20.0 11.99999999998784
7.999999999999992 20.0 13.99999999999088
7.999999999999991 20.0 15.99999999999392
7.999999999999995 20.0 17.99999999999696
5.999999999999996 20.0 1.999999999998378
5.999999999999995 20.0 3.999999999993648
5.999999999999996 20.0 5.999999999987805
5.999999999999996 20.0 7.999999999982034
5.999999999999996 20.0 9.999999999984798
5.999999999999996 20.0 11.99999999998784
5.999999999999996 20.0 13.99999999999088
5.999999999999996 20.0 15.99999999999392
5.999999999999996 20.0 17.99999999999696
3.999999999999996 20.0 1.999999999998377
3.999999999999996 20.0 3.99999999999365
3.999999999999996 20.0 5.999999999987806
3.999999999999996 20.0 7.999999999982035
3.999999999999997 20.0 9.999999999984798
3.999999999999996 20.0 11.99999999998784
3.999999999999996 20.0 13.99999999999087
3.999999999999996 20.0 15.99999999999392
3.999999999999997 20.0 17.99999999999696
1.999999999999996 20.0 1.999999999998378
1.999999999999996 20.0 3.999999999993648
1.999999999999996 20.0 5.999999999987805
1.999999999999996 20.0 7.999999999982034
1.999999999999996 20.0 9.999999999984798
1.999999999999996 20.0 11.99999999998784
1.999999999999996 20.0 13.99999999999088
1.999999999999996 20.0 15.99999999999392
1.999999999999996 20.0 17.99999999999696
0.0 17.99999999999999 1.999999999998378
0.0 18.0 3.999999999993648
0.0 18.0 5.999999999987806
0.0 18.0 7.999999999982035
0.0 18.0 9.9999999999848
0.0 18.0 11.99999999998784
0.0 18.0 13.99999999999088
0.0 18.0 15.99999999999392
0.0 18.0 17.99999999999696
0.0 15.99999999999999 1.999999999998377
0.0 15.99999999999999 3.999999999993648
0.0 16.0 5.999999999987805
0.0 15.99999999999999 7.999999999982034
0.0 15.99999999999999 9.999999999984798
0.0 15.99999999999999 11.99999999998784
0.0 16.0 13.99999999999088
0.0 15.99999999999999 15.99999999999392
0.0 15.99999999999999 17.99999999999696
0.0 13.99999999999999 1.999999999998378
0.0 13.99999999999999 3.999999999993649
0.0 13.99999999999999 5.999999999987805
0.0 13.99999999999999 7.999999999982034
0.0 13.99999999999999 9.999999999984798
0.0 13.99999999999999 11.99999999998784
0.0 13.99999999999999 13.99999999999087
0.0 13.99999999999999 15.99999999999392
0.0 13.99999999999999 17.99999999999696
0.0 11.99999999999999 1.999999999998378
0.0 11.99999999999999 3.999999999993648
0.0 11.99999999999999 5.999999999987807
0.0 11.99999999999999 7.999999999982034
0.0 11.99999999999999 9.999999999984798
0.0 11.99999999999999 11.99999999998784
0.0 11.99999999999999 13.99999999999087
0.0 11.99999999999999 15.99999999999392
0.0 11.99999999999999 17.99999999999696
0.0 9.999999999999988 1.999999999998378
0.0 9.999999999999993 3.999999999993649
0.0 9.999999999999993 5.999999999987806
0.0 9.999999999999993 7.999999999982034
0.0 9.999999999999993 9.999999999984798
0.0 9.999999999999993 11.99999999998784
0.0 9.999999999999993 13.99999999999087
0.0 9.999999999999993 15.99999999999392
0.0 9.999999999999991 17.99999999999696
0.0 7.999999999999993 1.999999999998378
0.0 7.999999999999992 3.999999999993649
0.0 7.999999999999992 5.999999999987806
0.0 7.999999999999993 7.999999999982034
0.0 7.999999999999994 9.999999999984798
0.0 7.999999999999992 11.99999999998784
0.0 7.999999999999992 13.99999999999088
0.0 7.999999999999991 15.99999999999392
0.0 7.999999999999995 17.99999999999696
0.0 5.999999999999996 1.999999999998378
0.0 5.999999999999995 3.999999999993648
0.0 5.999999999999996 5.999999999987805
0.0 5.999999999999996 7.999999999982034
0.0 5.999999999999996 9.999999999984798
0.0 5.999999999999996 11.99999999998784
0.0 5.999999999999996 13.99999999999088
0.0 5.999999999999996 15.99999999999392
0.0 5.999999999999996 17.99999999999696
0.0 3.999999999999996 1.999999999998377
0.0 3.999999999999996 3.99999999999365
0.0 3.999999999999996 5.999999999987806
0.0 3.999999999999996 7.999999999982035
0.0 3.999999999999997 9.999999999984798
0.0 3.999999999999996 11.99999999998784
0.0 3.999999999999996 13.99999999999087
0.0 3.999999999999996 15.99999999999392
0.0 3.999999999999997 17.99999999999696
0.0 1.999999999999996 1.999999999998378
0.0 1.999999999999996 3.999999999993648
0.0 1.999999999999996 5.999999999987805
0.0 1.999999999999996 7.999999999982034
0.0 1.999999999999996 9.999999999984798
0.0 1.999999999999996 11.99999999998784
0.0 1.999999999999996 13.99999999999088
0.0 1.999999999999996 15.99999999999392
0.0 1.999999999999996 17.99999999999696
1.999999999998539 1.999999999999833 1.999999999998378
1.999999999998539 1.999999999999834 3.999999999993648
1.999999999998539 1.999999999999833 5.999999999987807
1.999999999998539 1.999999999999834 7.999999999982036
1.999999999998539 1.999999999999833 9.999999999984798
1.999999999998539 1.999999999999834 11.99999999998784
1.999999999998539 1.999999999999833 13.99999999999088
1.999999999998538 1.999999999999834 15.99999999999392
1.999999999998539 1.999999999999835 17.99999999999696
1.999999999998701 3.999999999999362 1.999999999998376
1.9999999999987 3.999999999999363 3.99999999999365
1.999999999998701 3.999999999999364 5.999999999987804
1.999999999998701 3.999999999999363 7.999999999982035
1.999999999998701 3.999999999999364 9.999999999984798
1.999999999998701 3.999999999999363 11.99999999998784
1.999999999998702 3.999999999999363 13.99999999999087
1.9999999999987 3.999999999999363 15.99999999999393
1.999999999998701 3.999999999999365 17.99999999999696
1.999999999998863 5.999999999998774 1.999999999998377
1.999999999998862 5.999999999998774 3.999999999993649
1.999999999998864 5.999999999998779 5.999999999987804
1.999999999998862 5.99999999999878 7.999999999982037
1.999999999998863 5.999999999998777 9.999999999984798
1.999999999998864 5.999999999998776 11.99999999998784
1.999999999998862 5.99999999999878 13.99999999999088
1.999999999998863 5.99999999999878 15.99999999999392
1.999999999998864 5.99999999999878 17.99999999999696
1.999999999999024 7.999999999998199 1.999999999998378
1.999999999999024 7.999999999998195 3.999999999993649
1.999999999999025 7.999999999998196 5.999999999987804
1.999999999999026 7.999999999998197 7.999999999982032
1.999999999999025 7.999999999998201 9.999999999984798
1.999999999999026 7.999999999998197 11.99999999998784
1.999999999999025 7.999999999998195 13.99999999999088
1.999999999999025 7.999999999998197 15.99999999999393
1.999999999999026 7.9999999999982 17.99999999999696
1.999999999999186 9.99999999999847 1.999999999998377
1.999999999999186 9.999999999998472 3.99999999999365
1.999999999999187 9.99999999999847 5.999999999987804
1.999999999999187 9.999999999998474 7.999999999982032
1.999999999999187 9.999999999998476 9.999999999984798
1.999999999999187 9.999999999998476 11.99999999998785
1.999999999999188 9.999999999998474 13.99999999999087
1.999999999999187 9.999999999998476 15.99999999999392
1.999999999999188 9.999999999998476 17.99999999999696
1.999999999999349 11.99999999999877 1.999999999998378
1.999999999999349 11.99999999999878 3.99999999999365
1.999999999999348 11.99999999999878 5.999999999987804
1.999999999999349 11.99999999999877 7.999999999982034
1.999999999999349 11.99999999999878 9.999999999984798
1.999999999999348 11.99999999999878 11.99999999998784
1.999999999999349 11.99999999999878 13.99999999999088
1.999999999999349 11.99999999999877 15.99999999999392
1.999999999999349 11.99999999999878 17.99999999999696
1.99999999999951 13.99999999999907 1.999999999998377
1.999999999999511 13.99999999999908 3.999999999993649
1.999999999999512 13.99999999999907 5.999999999987804
1.999999999999512 13.99999999999908 7.999999999982033
1.99999999999951 13.99999999999907 9.999999999984798
1.999999999999511 13.99999999999908 11.99999999998784
1.999999999999512 13.99999999999908 13.99999999999088
1.99999999999951 13.99999999999907 15.99999999999392
1.999999999999511 13.99999999999907 17.99999999999696
1.999999999999671 15.99999999999939 1.999999999998376
1.999999999999672 15.99999999999939 3.99999999999365
1.999999999999672 15.99999999999939 5.999999999987804
1.999999999999673 15.99999999999939 7.999999999982034
1.999999999999672 15.99999999999939 9.999999999984798
1.999999999999672 15.99999999999939 11.99999999998784
1.999999999999672 15.99999999999939 13.99999999999087
1.999999999999672 15.99999999999939 15.99999999999393
1.999999999999673 15.99999999999939 17.99999999999696
1.999999999999836 17.99999999999969 1.999999999998378
1.999999999999835 17.99999999999969 3.999999999993647
1.999999999999835 17.99999999999969 5.999999999987804
1.999999999999835 17.99999999999969 7.999999999982037
1.999999999999835 17.9999999999997 9.9999999999848
1.999999999999835 17.99999999999969 11.99999999998784
1.999999999999835 17.99999999999969 13.99999999999087
1.999999999999835 17.99999999999969 15.99999999999391
1.999999999999835 17.99999999999969 17.99999999999696
3.999999999994282 1.999999999999671 1.999999999998376
3.999999999994285 1.999999999999673 3.999999999993648
3.999999999994285 1.999999999999673 5.999999999987799
3.999999999994283 1.999999999999674 7.999999999982038
3.999999999994284 1.999999999999673 9.999999999984798
3.999999999994285 1.999999999999673 11.99999999998784
3.999999999994285 1.999999999999673 13.99999999999087
3.999999999994286 1.999999999999672 15.99999999999393
3.999999999994282 1.999999999999673 17.99999999999696
3.999999999994917 3.999999999998727 1.999999999998376
3.999999999994918 3.999999999998726 3.999999999993652
3.999999999994919 3.999999999998726 5.999999999987799
3.999999999994918 3.999999999998728 7.999999999982036
3.999999999994917 3.999999999998727 9.999999999984796
3.999999999994918 3.999999999998726 11.99999999998785
3.999999999994917 3.999999999998728 13.99999999999088
3.99999999999492 3.999999999998726 15.99999999999393
3.999999999994918 3.99999999999873 17.99999999999696
3.999999999995555 5.999999999997557 1.999999999998377
3.999999999995554 5.999999999997555 3.999999999993649
3.999999999995552 5.999999999997558 5.999999999987802
3.999999999995554 5.999999999997561 7.999999999982037
3.999999999995552 5.999999999997557 9.999999999984798
3.999999999995554 5.999999999997557 11.99999999998784
3.999999999995553 5.999999999997557 13.99999999999088
3.999999999995552 5.999999999997557 15.99999999999392
3.999999999995553 5.999999999997557 17.99999999999696
3.999999999996187 7.999999999996405 1.999999999998377
3.999999999996187 7.999999999996403 3.99999999999365
3.999999999996188 7.999999999996404 5.999999999987805
3.999999999996187 7.999999999996401 7.999999999982034
3.999999999996186 7.9999999999964 9.999999999984798
3.999999999996189 7.999999999996404 11.99999999998785
3.999999999996187 7.999999999996403 13.99999999999088
3.999999999996189 7.9999999999964 15.99999999999392
3.999999999996188 7.999999999996405 17.99999999999696
3.999999999996823 9.999999999996945 1.999999999998377
3.999999999996822 9.999999999996955 3.99999999999365
3.999999999996822 9.999999999996957 5.999999999987801
3.999999999996825 9.999999999996955 7.999999999982035
3.999999999996823 9.999999999996954 9.999999999984798
3.999999999996822 9.999999999996954 11.99999999998785
3.999999999996822 9.999999999996955 13.99999999999087
3.999999999996822 9.999999999996954 15.99999999999392
3.999999999996824 9.999999999996955 17.99999999999696
3.999999999997457 11.99999999999756 1.999999999998377
3.999999999997457 11.99999999999756 3.99999999999365
3.999999999997458 11.99999999999757 5.999999999987804
3.999999999997457 11.99999999999756 7.999999999982038
3.999999999997455 11.99999999999757 9.999999999984798
3.999999999997458 11.99999999999756 11.99999999998784
3.999999999997457 11.99999999999756 13.99999999999088
3.999999999997457 11.99999999999757 15.99999999999392
3.999999999997457 11.99999999999756 17.99999999999696
3.999999999998094 13.99999999999816 1.999999999998377
3.999999999998092 13.99999999999817 3.999999999993649
3.999999999998092 13.99999999999817 5.999999999987805
3.999999999998093 13.99999999999817 7.999999999982034
3.999999999998091 13.99999999999816 9.999999999984798
3.999999999998093 13.99999999999817 11.99999999998784
3.999999999998092 13.99999999999817 13.99999999999088
3.999999999998093 13.99999999999817 15.99999999999392
3.999999999998092 13.99999999999817 17.99999999999696
3.999999999998729 15.99999999999878 1.999999999998375
3.999999999998728 15.99999999999878 3.99999999999365
3.999999999998725 15.99999999999879 5.999999999987805
3.99999999999873 15.99999999999879 7.999999999982036
3.999999999998727 15.99999999999878 9.999999999984796
3.999999999998726 15.99999999999878 11.99999999998784
3.999999999998727 15.99999999999878 13.99999999999087
3.999999999998726 15.99999999999879 15.99999999999392
3.999999999998729 15.99999999999878 17.99999999999696
3.999999999999362 17.99999999999939 1.999999999998377
3.999999999999363 17.99999999999939 3.999999999993649
3.999999999999362 17.9999999999994 5.999999999987804
3.999999999999363 17.9999999999994 7.999999999982035
3.999999999999363 17.9999999999994 9.9999999999848
3.999999999999364 17.9999999999994 11.99999999998785
3.999999999999363 17.99999999999939 13.99999999999087
3.999999999999363 17.99999999999939 15.99999999999392
3.999999999999364 17.99999999999939 17.99999999999696
5.999999999989026 1.99999999999951 1.999999999998377
5.999999999989022 1.999999999999511 3.999999999993649
5.999999999989023 1.999999999999512 5.999999999987804
5.999999999989028 1.999999999999512 7.999999999982037
5.999999999989023 1.999999999999511 9.999999999984798
5.999999999989023 1.999999999999512 11.99999999998784
5.999999999989027 1.999999999999512 13.99999999999088
5.999999999989026 1.99999999999951 15.99999999999392
5.999999999989027 1.999999999999511 17.99999999999696
5.999999999990243 3.999999999998095 1.999999999998377
5.999999999990243 3.999999999998092 3.999999999993651
5.999999999990241 3.999999999998093 5.999999999987805
5.999999999990242 3.999999999998093 7.999999999982034
5.999999999990241 3.999999999998091 9.999999999984798
5.999999999990244 3.999999999998093 11.99999999998784
5.999999999990244 3.999999999998092 13.99999999999087
5.999999999990245 3.999999999998093 15.99999999999393
5.999999999990243 3.999999999998093 17.99999999999696
5.999999999991462 5.999999999996338 1.999999999998378
5.999999999991457 5.999999999996337 3.999999999993649
5.999999999991463 5.999999999996339 5.999999999987805
5.999999999991464 5.99999999999634 7.999999999982034
5.999999999991465 5.999999999996336 9.999999999984798
5.999999999991462 5.999999999996334 11.99999999998784
5.999999999991463 5.999999999996338 13.99999999999088
5.999999999991461 5.999999999996339 15.99999999999392
5.999999999991462 5.999999999996339 17.99999999999696
5.999999999992684 7.999999999994603 1.999999999998377
5.999999999992678 7.999999999994604 3.99999999999365
5.999999999992682 7.999999999994605 5.999999999987805
5.999999999992683 7.999999999994602 7.99999999998203
5.999999999992682 7.999999999994605 9.999999999984798
5.999999999992683 7.999999999994605 11.99999999998784
5.999999999992682 7.999999999994605 13.99999999999087
5.999999999992683 7.999999999994605 15.99999999999392
5.999999999992681 7.999999999994604 17.99999999999696
5.999999999993899 9.999999999995428 1.999999999998377
5.9999999999939 9.999999999995435 3.999999999993649
5.9999999999939 9.999999999995433 5.999999999987809
5.999999999993904 9.999999999995433 7.999999999982032
5.999999999993901 9.999999999995431 9.999999999984798
5.999999999993904 9.999999999995435 11.99999999998784
5.9999999999939 9.999999999995431 13.99999999999088
5.999999999993899 9.999999999995435 15.99999999999392
5.999999999993904 9.999999999995438 17.99999999999696
5.999999999995115 11.99999999999635 1.999999999998378
5.999999999995116 11.99999999999635 3.99999999999365
5.99999999999512 11.99999999999634 5.999999999987804
5.99999999999512 11.99999999999635 7.999999999982034
5.999999999995118 11.99999999999635 9.999999999984798
5.999999999995117 11.99999999999635 11.99999999998784
5.999999999995117 11.99999999999634 13.99999999999088
5.999999999995117 11.99999999999635 15.99999999999392
5.999999999995117 11.99999999999634 17.99999999999696
5.999999999996338 13.99999999999726 1.999999999998378
5.999999999996337 13.99999999999725 3.999999999993649
5.999999999996339 13.99999999999726 5.999999999987804
5.99999999999634 13.99999999999726 7.999999999982034
5.99999999999634 13.99999999999725 9.999999999984798
5.999999999996335 13.99999999999726 11.99999999998784
5.999999999996338 13.99999999999726 13.99999999999088
5.999999999996338 13.99999999999726 15.99999999999392
5.999999999996339 13.99999999999726 17.99999999999696
5.999999999997556 15.99999999999817 1.999999999998377
5.999999999997551 15.99999999999817 3.999999999993649
5.999999999997556 15.99999999999817 5.999999999987804
5.999999999997558 15.99999999999817 7.999999999982035
5.999999999997556 15.99999999999818 9.999999999984798
5.999999999997556 15.99999999999817 11.99999999998784
5.999999999997556 15.99999999999817 13.99999999999088
5.99999999999756 15.99999999999818 15.99999999999392
5.999999999997556 15.99999999999817 17.99999999999696
5.999999999998776 17.99999999999908 1.999999999998378
5.999999999998773 17.99999999999909 3.999999999993647
5.999999999998778 17.99999999999908 5.999999999987805
5.999999999998778 17.99999999999909 7.999999999982034
5.99999999999878 17.99999999999909 9.999999999984801
5.999999999998779 17.99999999999909 11.99999999998785
5.999999999998778 17.99999999999908 13.99999999999088
5.999999999998778 17.99999999999908 15.99999999999391
5.999999999998778 17.99999999999908 17.99999999999696
7.999999999983832 1.999999999999349 1.999999999998378
7.99999999998383 1.999999999999348 3.999999999993647
7.99999999998383 1.999999999999349 5.999999999987804
7.999999999983831 1.999999999999349 7.999999999982032
7.999999999983833 1.999999999999349 9.999999999984798
7.999999999983833 1.999999999999349 11.99999999998784
7.999999999983832 1.999999999999349 13.99999999999087
7.999999999983836 1.999999999999349 15.99999999999393
7.999999999983832 1.999999999999348 17.99999999999696
7.999999999985627 3.999999999997459 1.999999999998377
7.999999999985626 3.999999999997458 3.999999999993649
7.999999999985625 3.999999999997459 5.999999999987805
7.999999999985623 3.999999999997458 7.999999999982034
7.999999999985625 3.999999999997459 9.999999999984796
7.999999999985626 3.999999999997459 11.99999999998785
7.999999999985625 3.999999999997459 13.99999999999087
7.999999999985627 3.999999999997459 15.99999999999392
7.999999999985626 3.999999999997459 17.99999999999696
7.999999999987421 5.999999999995118 1.999999999998377
7.999999999987422 5.999999999995118 3.999999999993647
7.999999999987421 5.999999999995123 5.999999999987805
7.999999999987418 5.999999999995119 7.999999999982034
7.999999999987421 5.999999999995119 9.999999999984796
7.999999999987423 5.999999999995118 11.99999999998783
7.999999999987421 5.999999999995119 13.99999999999088
7.999999999987423 5.999999999995119 15.99999999999392
7.999999999987422 5.999999999995119 17.99999999999696
7.999999999989215 7.999999999992811 1.999999999998377
7.999999999989218 7.999999999992809 3.999999999993648
7.999999999989218 7.99999999999281 5.999999999987806
7.999999999989216 7.99999999999281 7.999999999982029
7.999999999989216 7.999999999992804 9.999999999984796
7.999999999989214 7.999999999992808 11.99999999998784
7.999999999989214 7.999999999992811 13.99999999999088
7.999999999989218 7.999999999992806 15.99999999999392
7.999999999989217 7.999999999992808 17.99999999999696
7.999999999991012 9.999999999993909 1.999999999998377
7.999999999991013 9.999999999993912 3.99999999999365
7.999999999991014 9.999999999993914 5.999999999987805
7.999999999991014 9.999999999993912 7.999999999982032
7.999999999991013 9.999999999993914 9.999999999984798
7.999999999991013 9.99999999999391 11.99999999998784
7.999999999991015 9.999999999993912 13.99999999999087
7.999999999991012 9.999999999993914 15.99999999999392
7.999999999991013 9.999999999993914 17.99999999999696
7.999999999992808 11.99999999999513 1.999999999998378
7.999999999992809 11.99999999999513 3.999999999993648
7.999999999992808 11.99999999999513 5.999999999987807
7.999999999992809 11.99999999999513 7.999999999982033
7.999999999992808 11.99999999999513 9.999999999984798
7.999999999992809 11.99999999999513 11.99999999998785
7.999999999992806 11.99999999999513 13.99999999999088
7.999999999992807 11.99999999999513 15.99999999999392
7.999999999992808 11.99999999999513 17.99999999999696
7.999999999994603 13.99999999999634 1.999999999998377
7.999999999994605 13.99999999999635 3.99999999999365
7.999999999994605 13.99999999999634 5.999999999987805
7.999999999994602 13.99999999999635 7.999999999982034
7.999999999994607 13.99999999999634 9.999999999984796
7.999999999994605 13.99999999999634 11.99999999998784
7.999999999994605 13.99999999999634 13.99999999999088
7.999999999994605 13.99999999999634 15.99999999999392
7.999999999994605 13.99999999999633 17.99999999999696
7.999999999996401 15.99999999999756 1.999999999998377
7.999999999996402 15.99999999999756 3.99999999999365
7.999999999996405 15.99999999999757 5.999999999987807
7.9999999999964 15.99999999999757 7.999999999982034
7.9999999999964 15.99999999999756 9.999999999984798
7.999999999996401 15.99999999999756 11.99999999998784
7.999999999996405 15.99999999999758 13.99999999999087
7.999999999996403 15.99999999999758 15.99999999999392
7.999999999996401 15.99999999999756 17.99999999999696
7.999999999998196 17.99999999999878 1.999999999998378
7.999999999998194 17.99999999999878 3.999999999993648
7.999999999998193 17.99999999999877 5.999999999987805
7.999999999998193 17.99999999999878 7.999999999982033
7.9999999999982 17.99999999999879 9.9999999999848
7.999999999998193 17.99999999999878 11.99999999998784
7.999999999998193 17.99999999999877 13.99999999999088
7.999999999998197 17.99999999999878 15.99999999999391
7.999999999998196 17.99999999999877 17.99999999999696
9.999999999986315 1.999999999999187 1.999999999998377
9.999999999986315 1.999999999999186 3.999999999993648
9.999999999986311 1.999999999999188 5.999999999987804
9.999999999986313 1.999999999999187 7.999999999982032
9.999999999986311 1.999999999999187 9.999999999984798
9.999999999986315 1.999999999999187 11.99999999998784
9.999999999986311 1.999999999999188 13.99999999999087
9.999999999986311 1.999999999999186 15.99999999999392
9.999999999986317 1.999999999999188 17.99999999999696
9.999999999987834 3.999999999996822 1.999999999998376
9.999999999987837 3.999999999996823 3.99999999999365
9.99999999998784 3.999999999996822 5.999999999987801
9.999999999987836 3.999999999996822 7.999999999982034
9.999999999987839 3.999999999996822 9.999999999984798
9.999999999987839 3.999999999996823 11.99999999998785
9.999999999987843 3.999999999996822 13.99999999999088
9.999999999987837 3.999999999996822 15.99999999999392
9.999999999987844 3.999999999996824 17.99999999999696
9.999999999989353 5.999999999993903 1.999999999998377
9.999999999989356 5.999999999993898 3.999999999993647
9.999999999989354 5.999999999993901 5.999999999987806
9.999999999989354 5.999999999993904 7.999999999982034
9.99999999998935 5.9999999999939 9.999999999984796
9.99999999998935 5.999999999993903 11.99999999998785
9.999999999989353 5.9999999999939 13.99999999999088
9.999999999989356 5.9999999999939 15.99999999999392
9.999999999989356 5.999999999993904 17.99999999999696
9.999999999990878 7.999999999991012 1.999999999998377
9.999999999990873 7.999999999991013 3.999999999993648
9.999999999990878 7.999999999991014 5.999999999987805
9.999999999990873 7.999999999991013 7.999999999982029
9.999999999990873 7.999999999991013 9.999999999984798
9.99999999999088 7.999999999991013 11.99999999998784
9.999999999990871 7.999999999991015 13.99999999999087
9.999999999990878 7.999999999991011 15.99999999999391
9.999999999990873 7.999999999991013 17.99999999999696
9.999999999992394 9.999999999992397 1.999999999998377
9.999999999992394 9.999999999992395 3.999999999993648
9.999999999992395 9.999999999992395 5.999999999987805
9.999999999992392 9.999999999992392 7.999999999982032
9.99999999999239 9.999999999992392 9.999999999984796
9.999999999992394 9.999999999992397 11.99999999998785
9.999999999992397 9.999999999992395 13.99999999999087
9.999999999992394 9.999999999992394 15.99999999999391
9.999999999992397 9.999999999992397 17.99999999999696
9.999999999993909 11.99999999999392 1.999999999998377
9.999999999993918 11.99999999999392 3.99999999999365
9.999999999993912 11.99999999999391 5.999999999987807
9.999999999993918 11.99999999999391 7.999999999982034
9.999999999993914 11.99999999999392 9.999999999984798
9.999999999993914 11.99999999999392 11.99999999998784
9.999999999993918 11.99999999999391 13.99999999999088
9.999999999993914 11.99999999999392 15.99999999999391
9.99999999999392 11.99999999999392 17.99999999999696
9.999999999995437 13.99999999999543 1.999999999998377
9.99999999999544 13.99999999999543 3.999999999993649
9.999999999995438 13.99999999999542 5.999999999987807
9.99999999999544 13.99999999999543 7.999999999982035
9.999999999995438 13.99999999999543 9.999999999984796
9.999999999995438 13.99999999999543 11.99999999998784
9.999999999995438 13.99999999999543 13.99999999999088
9.999999999995438 13.99999999999543 15.99999999999392
9.999999999995442 13.99999999999543 17.99999999999696
9.999999999996946 15.99999999999696 1.999999999998377
9.999999999996955 15.99999999999696 3.999999999993649
9.999999999996955 15.99999999999696 5.999999999987805
9.999999999996954 15.99999999999696 7.999999999982035
9.999999999996954 15.99999999999696 9.999999999984798
9.999999999996955 15.99999999999696 11.99999999998784
9.999999999996955 15.99999999999696 13.99999999999088
9.999999999996954 15.99999999999696 15.99999999999392
9.999999999996952 15.99999999999696 17.99999999999696
9.999999999998472 17.99999999999849 1.999999999998377
9.999999999998481 17.99999999999849 3.999999999993647
9.999999999998472 17.99999999999849 5.999999999987807
9.999999999998476 17.99999999999848 7.999999999982033
9.99999999999848 17.99999999999849 9.999999999984798
9.99999999999848 17.99999999999849 11.99999999998784
9.99999999999848 17.99999999999849 13.99999999999088
9.999999999998478 17.99999999999848 15.99999999999391
9.999999999998472 17.99999999999848 17.99999999999696
11.99999999998906 1.999999999999025 1.999999999998378
11.99999999998907 1.999999999999024 3.99999999999365
11.99999999998905 1.999999999999026 5.999999999987804
11.99999999998905 1.999999999999026 7.999999999982037
11.99999999998906 1.999999999999025 9.999999999984798
11.99999999998906 1.999999999999026 11.99999999998784
11.99999999998906 1.999999999999025 13.99999999999088
11.99999999998906 1.999999999999025 15.99999999999392
11.99999999998906 1.999999999999027 17.99999999999696
11.99999999999027 3.999999999996188 1.999999999998377
11.99999999999027 3.999999999996188 3.999999999993651
11.99999999999027 3.999999999996189 5.999999999987804
11.99999999999027 3.999999999996189 7.999999999982034
11.99999999999028 3.999999999996187 9.999999999984798
11.99999999999027 3.999999999996188 11.99999999998784
11.99999999999027 3.999999999996189 13.99999999999088
11.99999999999027 3.999999999996188 15.99999999999393
11.99999999999028 3.999999999996189 17.99999999999696
11.99999999999149 5.999999999992683 1.999999999998378
11.99999999999149 5.999999999992683 3.999999999993649
11.99999999999149 5.999999999992681 5.999999999987804
11.99999999999149 5.999999999992681 7.999999999982034
11.99999999999149 5.999999999992682 9.999999999984798
11.99999999999148 5.999999999992681 11.99999999998784
11.99999999999148 5.999999999992681 13.99999999999088
11.99999999999149 5.999999999992683 15.99999999999392
11.99999999999149 5.999999999992681 17.99999999999696
11.9999999999927 7.999999999989217 1.999999999998377
11.9999999999927 7.999999999989218 3.99999999999365
11.9999999999927 7.999999999989218 5.999999999987807
11.99999999999269 7.999999999989214 7.99999999998203
11.9999999999927 7.999999999989218 9.999999999984798
11.9999999999927 7.999999999989214 11.99999999998784
11.9999999999927 7.999999999989218 13.99999999999088
11.9999999999927 7.999999999989218 15.99999999999392
11.9999999999927 7.999999999989217 17.99999999999696
11.99999999999392 9.999999999990878 1.999999999998377
11.99999999999392 9.999999999990882 3.99999999999365
11.99999999999392 9.99999999999088 5.999999999987807
11.99999999999391 9.999999999990878 7.999999999982033
11.99999999999392 9.999999999990877 9.999999999984798
11.99999999999392 9.99999999999088 11.99999999998784
11.99999999999391 9.99999999999088 13.99999999999088
11.99999999999392 9.999999999990877 15.99999999999391
11.99999999999392 9.99999999999088 17.99999999999696
11.99999999999513 11.9999999999927 1.999999999998378
11.99999999999513 11.9999999999927 3.999999999993649
11.99999999999513 11.9999999999927 5.999999999987808
11.99999999999513 11.99999999999269 7.999999999982035
11.99999999999513 11.9999999999927 9.999999999984798
11.99999999999513 11.9999999999927 11.99999999998784
11.99999999999513 11.9999999999927 13.99999999999088
11.99999999999513 11.9999999999927 15.99999999999392
11.99999999999513 11.9999999999927 17.99999999999696
11.99999999999634 13.99999999999452 1.999999999998378
11.99999999999635 13.99999999999452 3.99999999999365
11.99999999999634 13.99999999999452 5.999999999987804
11.99999999999635 13.99999999999452 7.999999999982034
11.99999999999635 13.99999999999452 9.999999999984798
11.99999999999634 13.99999999999452 11.99999999998784
11.99999999999634 13.99999999999452 13.99999999999088
11.99999999999635 13.99999999999452 15.99999999999392
11.99999999999635 13.99999999999452 17.99999999999696
11.99999999999756 15.99999999999635 1.999999999998376
11.99999999999756 15.99999999999636 3.99999999999365
11.99999999999756 15.99999999999635 5.999999999987804
11.99999999999756 15.99999999999635 7.999999999982035
11.99999999999756 15.99999999999634 9.999999999984798
11.99999999999756 15.99999999999635 11.99999999998784
11.99999999999756 15.99999999999635 13.99999999999088
11.99999999999756 15.99999999999635 15.99999999999393
11.99999999999756 15.99999999999635 17.99999999999696
11.99999999999877 17.99999999999817 1.999999999998378
11.99999999999878 17.99999999999817 3.999999999993648
11.99999999999878 17.99999999999817 5.999999999987808
11.99999999999877 17.99999999999816 7.999999999982033
11.99999999999878 17.99999999999817 9.999999999984798
11.99999999999878 17.99999999999817 11.99999999998784
11.99999999999878 17.99999999999817 13.99999999999088
11.99999999999877 17.99999999999817 15.99999999999392
11.99999999999878 17.99999999999817 17.99999999999696
13.99999999999178 1.999999999998863 1.999999999998377
13.99999999999177 1.999999999998862 3.999999999993648
13.99999999999179 1.999999999998864 5.999999999987807
13.99999999999178 1.999999999998863 7.999999999982037
13.99999999999178 1.999999999998862 9.999999999984798
13.99999999999178 1.999999999998864 11.99999999998784
13.99999999999178 1.999999999998864 13.99999999999088
13.99999999999178 1.999999999998863 15.99999999999392
13.99999999999178 1.999999999998864 17.99999999999696
13.99999999999269 3.999999999995555 1.999999999998377
13.9999999999927 3.999999999995556 3.999999999993651
13.9999999999927 3.999999999995554 5.999999999987804
13.9999999999927 3.999999999995554 7.999999999982034
13.99999999999269 3.999999999995556 9.999999999984798
13.9999999999927 3.999999999995556 11.99999999998784
13.99999999999269 3.999999999995555 13.99999999999087
13.9999999999927 3.999999999995556 15.99999999999393
13.9999999999927 3.999999999995555 17.99999999999696
13.99999999999361 5.999999999991462 1.999999999998378
13.99999999999361 5.999999999991461 3.999999999993649
13.99999999999362 5.999999999991463 5.999999999987805
13.99999999999361 5.999999999991464 7.999999999982034
13.99999999999361 5.999999999991463 9.999999999984798
13.99999999999362 5.999999999991462 11.99999999998783
13.99999999999361 5.999999999991463 13.99999999999088
13.99999999999361 5.999999999991461 15.99999999999392
13.99999999999361 5.999999999991462 17.99999999999696
13.99999999999451 7.999999999987421 1.999999999998377
13.99999999999452 7.999999999987423 3.999999999993647
13.99999999999452 7.999999999987421 5.999999999987807
13.99999999999453 7.99999999998742 7.999999999982032
13.99999999999452 7.999999999987423 9.999999999984796
13.99999999999452 7.999999999987422 11.99999999998784
13.99999999999452 7.999999999987421 13.99999999999087
13.99999999999452 7.999999999987422 15.99999999999392
13.99999999999451 7.999999999987422 17.99999999999696
13.99999999999543 9.999999999989358 1.999999999998377
13.99999999999543 9.999999999989358 3.999999999993648
13.99999999999543 9.999999999989356 5.999999999987807
13.99999999999543 9.999999999989358 7.999999999982035
13.99999999999543 9.999999999989358 9.999999999984796
13.99999999999543 9.99999999998936 11.99999999998784
13.99999999999543 9.99999999998936 13.99999999999088
13.99999999999542 9.99999999998936 15.99999999999391
13.99999999999543 9.99999999998937 17.99999999999696
13.99999999999634 11.99999999999149 1.999999999998378
13.99999999999635 11.99999999999148 3.99999999999365
13.99999999999635 11.99999999999149 5.999999999987804
13.99999999999635 11.99999999999148 7.999999999982034
13.99999999999634 11.99999999999149 9.999999999984798
13.99999999999635 11.99999999999149 11.99999999998784
13.99999999999635 11.99999999999149 13.99999999999088
13.99999999999634 11.99999999999149 15.99999999999392
13.99999999999634 11.99999999999149 17.99999999999696
13.99999999999726 13.99999999999361 1.999999999998378
13.99999999999725 13.99999999999361 3.999999999993649
13.99999999999726 13.99999999999362 5.999999999987805
13.99999999999726 13.99999999999361 7.999999999982034
13.99999999999725 13.99999999999362 9.999999999984798
13.99999999999726 13.99999999999362 11.99999999998784
13.99999999999726 13.99999999999362 13.99999999999088
13.99999999999726 13.99999999999361 15.99999999999392
13.99999999999726 13.99999999999361 17.99999999999696
13.99999999999817 15.99999999999575 1.999999999998377
13.99999999999817 15.99999999999575 3.99999999999365
13.99999999999817 15.99999999999575 5.999999999987804
13.99999999999817 15.99999999999575 7.999999999982034
13.99999999999816 15.99999999999575 9.999999999984798
13.99999999999817 15.99999999999575 11.99999999998784
13.99999999999817 15.99999999999575 13.99999999999088
13.99999999999817 15.99999999999575 15.99999999999392
13.99999999999817 15.99999999999574 17.99999999999696
13.99999999999907 17.99999999999787 1.999999999998378
13.99999999999907 17.99999999999786 3.99999999999365
13.99999999999907 17.99999999999788 5.999999999987804
13.99999999999908 17.99999999999786 7.999999999982034
13.99999999999907 17.99999999999788 9.999999999984801
13.99999999999908 17.99999999999787 11.99999999998784
13.99999999999908 17.99999999999788 13.99999999999088
13.99999999999907 17.99999999999787 15.99999999999392
13.99999999999907 17.99999999999787 17.99999999999696
15.99999999999453 1.999999999998701 1.999999999998377
15.99999999999452 1.9999999999987 3.999999999993651
15.99999999999453 1.999999999998701 5.999999999987807
15.99999999999453 1.999999999998701 7.999999999982037
15.99999999999452 1.9999999999987 9.999999999984796
15.99999999999452 1.9999999999987 11.99999999998784
15.99999999999452 1.999999999998701 13.99999999999087
15.99999999999453 1.9999999999987 15.99999999999393
15.99999999999452 1.999999999998702 17.99999999999696
15.99999999999513 3.999999999994918 1.999999999998375
15.99999999999513 3.999999999994919 3.999999999993651
15.99999999999514 3.999999999994918 5.999999999987803
15.99999999999513 3.999999999994918 7.999999999982035
15.99999999999513 3.999999999994918 9.999999999984796
15.99999999999513 3.999999999994918 11.99999999998784
15.99999999999514 3.999999999994918 13.99999999999088
15.99999999999515 3.99999999999492 15.99999999999393
15.99999999999513 3.99999999999492 17.99999999999696
15.99999999999575 5.999999999990243 1.999999999998376
15.99999999999575 5.999999999990243 3.99999999999365
15.99999999999575 5.999999999990243 5.999999999987804
15.99999999999575 5.999999999990245 7.999999999982038
15.99999999999575 5.999999999990241 9.9999999999848
15.99999999999575 5.999999999990241 11.99999999998784
15.99999999999575 5.999999999990244 13.99999999999088
15.99999999999575 5.999999999990244 15.99999999999393
15.99999999999574 5.999999999990245 17.99999999999696
15.99999999999635 7.999999999985629 1.999999999998377
15.99999999999635 7.999999999985627 3.99999999999365
15.99999999999635 7.999999999985625 5.999999999987806
15.99999999999635 7.999999999985622 7.999999999982034
15.99999999999634 7.999999999985625 9.999999999984798
15.99999999999635 7.999999999985625 11.99999999998784
15.99999999999635 7.999999999985626 13.99999999999087
15.99999999999635 7.999999999985627 15.99999999999393
15.99999999999635 7.999999999985626 17.99999999999696
15.99999999999696 9.999999999987836 1.999999999998377
15.99999999999696 9.999999999987839 3.999999999993649
15.99999999999696 9.99999999998784 5.999999999987805
15.99999999999696 9.999999999987839 7.999999999982034
15.99999999999696 9.999999999987843 9.999999999984798
15.99999999999696 9.999999999987839 11.99999999998784
15.99999999999696 9.99999999998784 13.99999999999087
15.99999999999696 9.999999999987837 15.99999999999392
15.99999999999696 9.999999999987843 17.99999999999696
15.99999999999757 11.99999999999028 1.999999999998376
15.99999999999757 11.99999999999027 3.999999999993649
15.99999999999758 11.99999999999027 5.999999999987804
15.99999999999757 11.99999999999027 7.999999999982034
15.99999999999757 11.99999999999027 9.999999999984798
15.99999999999757 11.99999999999027 11.99999999998784
15.99999999999757 11.99999999999027 13.99999999999087
15.99999999999758 11.99999999999027 15.99999999999392
15.99999999999756 11.99999999999027 17.99999999999696
15.99999999999818 13.9999999999927 1.999999999998377
15.99999999999818 13.9999999999927 3.99999999999365
15.99999999999818 13.9999999999927 5.999999999987805
15.99999999999818 13.9999999999927 7.999999999982034
15.99999999999818 13.9999999999927 9.999999999984798
15.99999999999818 13.99999999999269 11.99999999998784
15.99999999999818 13.99999999999269 13.99999999999087
15.99999999999818 13.9999999999927 15.99999999999392
15.99999999999818 13.9999999999927 17.99999999999696
15.99999999999879 15.99999999999515 1.999999999998375
15.99999999999879 15.99999999999515 3.99999999999365
15.99999999999879 15.99999999999514 5.999999999987804
15.99999999999879 15.99999999999514 7.999999999982037
15.99999999999878 15.99999999999513 9.999999999984796
15.99999999999878 15.99999999999514 11.99999999998784
15.99999999999879 15.99999999999514 13.99999999999087
15.99999999999879 15.99999999999514 15.99999999999393
15.99999999999879 15.99999999999514 17.99999999999696
15.99999999999939 17.99999999999758 1.999999999998376
15.99999999999939 17.99999999999757 3.999999999993649
15.99999999999939 17.99999999999757 5.999999999987805
15.9999999999994 17.99999999999757 7.999999999982035
15.99999999999939 17.99999999999757 9.9999999999848
15.99999999999939 17.99999999999757 11.99999999998784
15.99999999999939 17.99999999999757 13.99999999999087
15.99999999999939 17.99999999999757 15.99999999999392
15.99999999999939 17.99999999999757 17.99999999999696
17.99999999999726 1.999999999998539 1.999999999998379
17.99999999999726 1.999999999998539 3.999999999993649
17.99999999999726 1.999999999998539 5.999999999987807
17.99999999999726 1.99999999999854 7.999999999982034
17.99999999999726 1.999999999998538 9.999999999984805
17.99999999999726 1.99999999999854 11.99999999998784
17.99999999999726 1.999999999998539 13.99999999999087
17.99999999999726 1.999999999998538 15.99999999999392
17.99999999999727 1.99999999999854 17.99999999999696
17.99999999999757 3.999999999994282 1.999999999998378
17.99999999999756 3.999999999994284 3.999999999993649
17.99999999999756 3.999999999994285 5.9999999999878
17.99999999999756 3.999999999994283 7.999999999982035
17.99999999999756 3.999999999994283 9.9999999999848
17.99999999999756 3.999999999994285 11.99999999998784
17.99999999999756 3.999999999994284 13.99999999999088
17.99999999999757 3.999999999994284 15.99999999999392
17.99999999999756 3.999999999994282 17.99999999999696
17.99999999999787 5.999999999989022 1.999999999998378
17.99999999999787 5.999999999989021 3.999999999993648
17.99999999999788 5.999999999989022 5.999999999987805
17.99999999999787 5.999999999989027 7.999999999982034
17.99999999999788 5.999999999989021 9.9999999999848
17.99999999999787 5.999999999989019 11.99999999998784
17.99999999999787 5.999999999989022 13.99999999999088
17.99999999999787 5.999999999989023 15.99999999999392
17.99999999999787 5.999999999989022 17.99999999999696
17.99999999999817 7.999999999983833 1.999999999998377
17.99999999999817 7.99999999998383 3.999999999993647
17.99999999999817 7.99999999998383 5.999999999987805
17.99999999999817 7.999999999983829 7.999999999982029
17.99999999999818 7.99999999998383 9.9999999999848
17.99999999999817 7.999999999983829 11.99999999998784
17.99999999999817 7.99999999998383 13.99999999999087
17.99999999999817 7.99999999998383 15.99999999999391
17.99999999999817 7.999999999983829 17.99999999999696
17.99999999999849 9.99999999998632 1.999999999998377
17.99999999999848 9.999999999986318 3.999999999993647
17.99999999999849 9.999999999986318 5.999999999987808
17.99999999999848 9.999999999986317 7.999999999982033
17.99999999999849 9.999999999986317 9.999999999984798
17.99999999999849 9.99999999998632 11.99999999998784
17.99999999999849 9.999999999986318 13.99999999999088
17.99999999999848 9.999999999986318 15.99999999999391
17.99999999999848 9.999999999986322 17.99999999999696
17.99999999999878 11.99999999998907 1.999999999998378
17.99999999999878 11.99999999998906 3.99999999999365
17.99999999999878 11.99999999998905 5.999999999987806
17.99999999999878 11.99999999998905 7.999999999982037
17.99999999999878 11.99999999998906 9.9999999999848
17.99999999999877 11.99999999998905 11.99999999998784
17.99999999999878 11.99999999998906 13.99999999999088
17.99999999999879 11.99999999998906 15.99999999999392
17.99999999999879 11.99999999998906 17.99999999999696
17.99999999999908 13.99999999999178 1.999999999998378
17.99999999999909 13.99999999999178 3.999999999993647
17.99999999999908 13.99999999999178 5.999999999987804
17.99999999999908 13.99999999999178 7.999999999982034
17.99999999999908 13.99999999999178 9.999999999984805
17.99999999999909 13.99999999999178 11.99999999998785
17.99999999999908 13.99999999999178 13.99999999999088
17.99999999999908 13.99999999999178 15.99999999999391
17.99999999999908 13.99999999999178 17.99999999999696
17.99999999999939 15.99999999999453 1.999999999998377
17.9999999999994 15.99999999999453 3.999999999993649
17.9999999999994 15.99999999999453 5.999999999987805
17.9999999999994 15.99999999999454 7.999999999982035
17.9999999999994 15.99999999999453 9.9999999999848
17.9999999999994 15.99999999999453 11.99999999998784
17.9999999999994 15.99999999999453 13.99999999999087
17.9999999999994 15.99999999999454 15.99999999999392
17.9999999999994 15.99999999999453 17.99999999999696
17.99999999999969 17.99999999999725 1.999999999998378
17.99999999999969 17.99999999999726 3.999999999993646
17.99999999999969 17.99999999999726 5.999999999987804
17.9999999999997 17.99999999999725 7.999999999982032
17.99999999999971 17.99999999999726 9.999999999984805
17.9999999999997 17.99999999999725 11.99999999998785
17.99999999999969 17.99999999999726 13.99999999999087
17.99999999999969 17.99999999999726 15.99999999999392
17.99999999999969 17.99999999999726 17.99999999999696
CELLS 1000 9000
8 0 8 116 43 80 278 602 593
8 80 278 602 593 81 279 603 594
8 81 279 603 594 82 280 604 595
8 82 280 604 595 83 281 605 596
8 83 281 605 596 84 282 606 597
8 84 282 606 597 85 283 607 598
8 85 283 607 598 86 284 608 599
8 86 284 608 599 87 285 609 600
8 87 285 609 600 88 286 610 601
8 88 286 610 601 4 44 197 79
8 43 116 117 42 593 602 611 584
8 593 602 611 584 594 603 612 585
8 594 603 612 585 595 604 613 586
8 595 604 613 586 596 605 614 587
8 596 605 614 587 597 606 615 588
8 597 606 615 588 598 607 616 589
8 598 607 616 589 599 608 617 590
8 599 608 617 590 600 609 618 591
8 600 609 618 591 601 610 619 592
8 601 610 619 592 79 197 198 78
8 42 117 118 41 584 611 620 575
8 584 611 620 575 585 612 621 576
8 585 612 621 576 586 613 622 577
8 586 613 622 577 587 614 623 578
8 587 614 623 578 588 615 624 579
8 588 615 624 579 589 616 625 580
8 589 616 625 580 590 617 626 581
8 590 617 626 581 591 618 627 582
8 591 618 627 582 592 619 628 583
8 592 619 628 583 78 198 199 77
8 41 118 119 40 575 620 629 566
8 575 620 629 566 576 621 630 567
8 576 621 630 567 577 622 631 568
8 577 622 631 568 578 623 632 569
8 578 623 632 569 579 624 633 570
8 579 624 633 570 580 625 634 571
8 580 625 634 571 581 626 635 572
8 581 626 635 572 582 627 636 573
8 582 627 636 573 583 628 637 574
8 583 628 637 574 77 199 200 76
8 40 119 120 39 566 629 638 557
8 566 629 638 557 567 630 639 558
8 567 630 639 558 568 631 640 559
8 568 631 640 559 569 632 641 560
8 569 632 641 560 570 633 642 561
8 570 633 642 561 571 634 643 562
8 571 634 643 562 572 635 644 563
8 572 635 644 563 573 636 645 564
8 573 636 645 564 574 637 646 565
8 574 637 646 565 76 200 201 75
8 39 120 121 38 557 638 647 548
8 557 638 647 548 558 639 648 549
8 558 639 648 549 559 640 649 550
8 559 640 649 550 560 641 650 551
8 560 641 650 551 561 642 651 552
8 561 642 651 552 562 643 652 553
8 562 643 652 553 563 644 653 554
8 563 644 653 554 564 645 654 555
8 564 645 654 555 565 646 655 556
8 565 646 655 556 75 201 202 74
8 38 121 122 37 548 647 656 539
8 548 647 656 539 549 648 657 540
8 549 648 657 540 550 649 658 541
8 550 649 658 541 551 650 659 542
8 551 650 659 542 552 651 660 543
8 552 651 660 543 553 652 661 544
8 553 652 661 544 554 653 662 545
8 554 653 662 545 555 654 663 546
8 555 654 663 546 556 655 664 547
8 556 655 664 547 74 202 203 73
8 37 122 123 36 539 656 665 530
8 539 656 665 530 540 657 666 531
8 540 657 666 531 541 658 667 532
8 541 658 667 532 542 659 668 533
8 542 659 668 533 543 660 669 534
8 543 660 669 534 544 661 670 535
8 544 661 670 535 545 662 671 536
8 545 662 671 536 546 663 672 537
8 546 663 672 537 547 664 673 538
8 547 664 673 538 73 203 204 72
8 36 123 124 35 530 665 674 521
8 530 665 674 521 531 666 675 522
8 531 666 675 522 532 667 676 523
8 532 667 676 523 533 668 677 524
8 533 668 677 524 534 669 678 525
8 534 669 678 525 535 670 679 526
8 535 670 679 526 536 671 680 527
8 536 671 680 527 537 672 681 528
8 537 672 681 528 538 673 682 529
8 538 673 682 529 72 204 205 71
8 35 124 34 3 521 674 512 107
8 521 674 512 107 522 675 513 108
8 522 675 513 108 523 676 514 109
8 523 676 514 109 524 677 515 110
8 524 677 515 110 525 678 516 111
8 525 678 516 111 526 679 517 112
8 526 679 517 112 527 680 518 113
8 527 680 518 113 528 681 519 114
8 528 681 519 114 529 682 520 115
8 529 682 520 115 71 205 70 7
8 8 9 125 116 278 287 683 602
8 278 287 683 602 279 288 684 603
8 279 288 684 603 280 289 685 604
8 280 289 685 604 281 290 686 605
8 281 290 686 605 282 291 687 606
8 282 291 687 606 283 292 688 607
8 283 292 688 607 284 293 689 608
8 284 293 689 608 285 294 690 609
8 285 294 690 609 286 295 691 610
8 286 295 691 610 44 45 206 197
8 116 125 126 117 602 683 692 611
8 602 683 692 611 603 684 693 612
8 603 684 693 612 604 685 694 613
8 604 685 694 613 605 686 695 614
8 605 686 695 614 606 687 696 615
8 606 687 696 615 607 688 697 616
8 607 688 697 616 608 689 698 617
8 608 689 698 617 609 690 699 618
8 609 690 699 618 610 691 700 619
8 610 691 700 619 197 206 207 198
8 117 126 127 118 611 692 701 620
8 611 692 701 620 612 693 702 621
8 612 693 702 621 613 694 703 622
8 613 694 703 622 614 695 704 623
8 614 695 704 623 615 696 705 624
8 615 696 705 624 616 697 706 625
8 616 697 706 625 617 698 707 626
8 617 698 707 626 618 699 708 627
8 618 699 708 627 619 700 709 628
8 619 700 709 628 198 207 208 199
8 118 127 128 119 620 701 710 629
8 620 701 710 629 621 702 711 630
8 621 702 711 630 622 703 712 631
8 622 703 712 631 623 704 713 632
8 623 704 713 632 624 705 714 633
8 624 705 714 633 625 706 715 634
8 625 706 715 634 626 707 716 635
8 626 707 716 635 627 708 717 636
8 627 708 717 636 628 709 718 637
8 628 709 718 637 199 208 209 200
8 119 128 129 120 629 710 719 638
8 629 710 719 638 630 711 720 639
8 630 711 720 639 631 712 721 640
8 631 712 721 640 632 713 722 641
8 632 713 722 641 633 714 723 642
8 633 714 723 642 634 715 724 643
8 634 715 724 643 635 716 725 644
8 635 716 725 644 636 717 726 645
8 636 717 726 645 637 718 727 646
8 637 718 727 646 200 209 210 201
8 120 129 130 121 638 719 728 647
8 638 719 728 647 639 720 729 648
8 639 720 729 648 640 721 730 649
8 640 721 730 649 641 722 731 650
8 641 722 731 650 642 723 732 651
8 642 723 732 651 643 724 733 652
8 643 724 733 652 644 725 734 653
8 644 725 734 653 645 726 735 654
8 645 726 735 654 646 727 736 655
8 646 727 736 655 201 210 211 202
8 121 130 131 122 647 728 737 656
8 647 728 737 656 648 729 738 657
8 648 729 738 657 649 730 739 658
8 649 730 739 658 650 731 740 659
8 650 731 740 659 651 732 741 660
8 651 732 741 660 652 733 742 661
8 652 733 742 661 653 734 743 662
8 653 734 743 662 654 735 744 663
8 654 735 744 663 655 736 745 664
8 655 736 745 664 202 211 212 203
8 122 131 132 123 656 737 746 665
8 656 737 746 665 657 738 747 666
8 657 738 747 666 658 739 748 667
8 658 739 748 667 659 740 749 668
8 659 740 749 668 660 741 750 669
8 660 741 750 669 661 742 751 670
8 661 742 751 670 662 743 752 671
8 662 743 752 671 663 744 753 672
8 663 744 753 672 664 745 754 673
8 664 745 754 673 203 212 213 204
8 123 132 133 124 665 746 755 674
8 665 746 755 674 666 747 756 675
8 666 747 756 675 667 748 757 676
8 667 748 757 676 668 749 758 677
8 668 749 758 677 669 750 759 678
8 669 750 759 678 670 751 760 679
8 670 751 760 679 671 752 761 680
8 671 752 761 680 672 753 762 681
8 672 753 762 681 673 754 763 682
8 673 754 763 682 204 213 214 205
8 124 133 33 34 674 755 503 512
8 674 755 503 512 675 756 504 513
8 675 756 504 513 676 757 505 514
8 676 757 505 514 677 758 506 515
8 677 758 506 515 678 759 507 516
8 678 759 507 516 679 760 508 517
8 679 760 508 517 680 761 509 518
8 680 761 509 518 681 762 510 519
8 681 762 510 519 682 763 511 520
8 682 763 511 520 205 214 69 70
8 9 10 134 125 287 296 764 683
8 287 296 764 683 288 297 765 684
8 288 297 765 684 289 298 766 685
8 289 298 766 685 290 299 767 686
8 290 299 767 686 291 300 768 687
8 291 300 768 687 292 301 769 688
8 292 301 769 688 293 302 770 689
8 293 302 770 689 294 303 771 690
8 294 303 771 690 295 304 772 691
8 295 304 772 691 45 46 215 206
8 125 134 135 126 683 764 773 692
8 683 764 773 692 684 765 774 693
8 684 765 774 693 685 766 775 694
8 685 766 775 694 686 767 776 695
8 686 767 776 695 687 768 777 696
8 687 768 777 696 688 769 778 697
8 688 769 778 697 689 770 779 698
8 689 770 779 698 690 771 780 699
8 690 771 780 699 691 772 781 700
8 691 772 781 700 206 215 216 207
8 126 135 136 127 692 773 782 701
8 692 773 782 701 693 774 783 702
8 693 774 783 702 694 775 784 703
8 694 775 784 703 695 776 785 704
8 695 776 785 704 696 777 786 705
8 696 777 786 705 697 778 787 706
8 697 778 787 706 698 779 788 707
8 698 779 788 707 699 780 789 708
8 699 780 789 708 700 781 790 709
8 700 781 790 709 207 216 217 208
8 127 136 137 128 701 782 791 710
8 701 782 791 710 702 783 792 711
8 702 783 792 711 703 784 793 712
8 703 784 793 712 704 785 794 713
8 704 785 794 713 705 786 795 714
8 705 786 795 714 706 787 796 715
8 706 787 796 715 707 788 797 716
8 707 788 797 716 708 789 798 717
8 708 789 798 717 709 790 799 718
8 709 790 799 718 208 217 218 209
8 128 137 138 129 710 791 800 719
8 710 791 800 719 711 792 801 720
8 711 792 801 720 712 793 802 721
8 712 793 802 721 713 794 803 722
8 713 794 803 722 714 795 804 723
8 714 795 804 723 715 796 805 724
8 715 796 805 724 716 797 806 725
8 716 797 806 725 717 798 807 726
8 717 798 807 726 718 799 808 727
8 718 799 808 727 209 218 219 210
8 129 138 139 130 719 800 809 728
8 719 800 809 728 720 801 810 729
8 720 801 810 729 721 802 811 730
8 721 802 811 730 722 803 812 731
8 722 803 812 731 723 804 813 732
8 723 804 813 732 724 805 814 733
8 724 805 814 733 725 806 815 734
8 725 806 815 734 726 807 816 735
8 726 807 816 735 727 808 817 736
8 727 808 817 736 210 219 220 211
8 130 139 140 131 728 809 818 737
8 728 809 818 737 729 810 819 738
8 729 810 819 738 730 811 820 739
8 730 811 820 739 731 812 821 740
8 731 812 821 740 732 813 822 741
8 732 813 822 741 733 814 823 742
8 733 814 823 742 734 815 824 743
8 734 815 824 743 735 816 825 744
8 735 816 825 744 736 817 826 745
8 736 817 826 745 211 220 221 212
8 131 140 141 132 737 818 827 746
8 737 818 827 746 738 819 828 747
8 738 819 828 747 739 820 829 748
8 739 820 829 748 740 821 830 749
8 740 821 830 749 741 822 831 750
8 741 822 831 750 742 823 832 751
8 742 823 832 751 743 824 833 752
8 743 824 833 752 744 825 834 753
8 744 825 834 753 745 826 835 754
8 745 826 835 754 212 221 222 213
8 132 141 142 133 746 827 836 755
8 746 827 836 755 747 828 837 756
8 747 828 837 756 748 829 838 757
8 748 829 838 757 749 830 839 758
8 749 830 839 758 750 831 840 759
8 750 831 840 759 751 832 841 760
8 751 832 841 760 752 833 842 761
8 752 833 842 761 753 834 843 762
8 753 834 843 762 754 835 844 763
8 754 835 844 763 213 222 223 214
8 133 142 32 33 755 836 494 503
8 755 836 494 503 756 837 495 504
8 756 837 495 504 757 838 496 505
8 757 838 496 505 758 839 497 506
8 758 839 497 506 759 840 498 507
8 759 840 498 507 760 841 499 508
8 760 841 499 508 761 842 500 509
8 761 842 500 509 762 843 501 510
8 762 843 501 510 763 844 502 511
8 763 844 502 511 214 223 68 69
8 10 11 143 134 296 305 845 764
8 296 305 845 764 297 306 846 765
8 297 306 846 765 298 307 847 766
8 298 307 847 766 299 308 848 767
8 299 308 848 767 300 309 849 768
8 300 309 849 768 301 310 850 769
8 301 310 850 769 302 311 851 770
8 302 311 851 770 303 312 852 771
8 303 312 852 771 304 313 853 772
8 304 313 853 772 46 47 224 215
8 134 143 144 135 764 845 854 773
8 764 845 854 773 765 846 855 774
8 765 846 855 774 766 847 856 775
8 766 847 856 775 767 848 857 776
8 767 848 857 776 768 849 858 777
8 768 849 858 777 769 850 859 778
8 769 850 859 778 770 851 860 779
8 770 851 860 779 771 852 861 780
8 771 852 861 780 772 853 862 781
8 772 853 862 781 215 224 225 216
8 135 144 145 136 773 854 863 782
8 773 854 863 782 774 855 864 783
8 774 855 864 783 775 856 865 784
8 775 856 865 784 776 857 866 785
8 776 857 866 785 777 858 867 786
8 777 858 867 786 778 859 868 787
8 778 859 868 787 779 860 869 788
8 779 860 869 788 780 861 870 789
8 780 861 870 789 781 862 871 790
8 781 862 871 790 216 225 226 217
8 136 145 146 137 782 863 872 791
8 782 863 872 791 783 864 873 792
8 783 864 873 792 784 865 874 793
8 784 865 874 793 785 866 875 794
8 785 866 875 794 786 867 876 795
8 786 867 876 795 787 868 877 796
8 787 868 877 796 788 869 878 797
8 788 869 878 797 789 870 879 798
8 789 870 879 798 790 871 880 799
8 790 871 880 799 217 226 227 218
8 137 146 147 138 791 872 881 800
8 791 872 881 800 792 873 882 801
8 792 873 882 801 793 874 883 802
8 793 874 883 802 794 875 884 803
8 794 875 884 803 795 876 885 804
8 795 876 885 804 796 877 886 805
8 796 877 886 805 797 878 887 806
8 797 878 887 806 798 879 888 807
8 798 879 888 807 799 880 889 808
8 799 880 889 808 218 227 228 219
8 138 147 148 139 800 881 890 809
8 800 881 890 809 801 882 891 810
8 801 882 891 810 802 883 892 811
8 802 883 892 811 803 884 893 812
8 803 884 893 812 804 885 894 813
8 804 885 894 813 805 886 895 814
8 805 886 895 814 806 887 896 815
8 806 887 896 815 807 888 897 816
8 807 888 897 816 808 889 898 817
8 808 889 898 817 219 228 229 220
8 139 148 149 140 809 890 899 818
8 809 890 899 818 810 891 900 819
8 810 891 900 819 811 892 901 820
8 811 892 901 820 812 893 902 821
8 812 893 902 821 813 894 903 822
8 813 894 903 822 814 895 904 823
8 814 895 904 823 815 896 905 824
8 815 896 905 824 816 897 906 825
8 816 897 906 825 817 898 907 826
8 817 898 907 826 220 229 230 221
8 140 149 150 141 818 899 908 827
8 818 899 908 827 819 900 909 828
8 819 900 909 828 820 901 910 829
8 820 901 910 829 821 902 911 830
8 821 902 911 830 822 903 912 831
8 822 903 912 831 823 904 913 832
8 823 904 913 832 824 905 914 833
8 824 905 914 833 825 906 915 834
8 825 906 915 834 826 907 916 835
8 826 907 916 835 221 230 231 222
8 141 150 151 142 827 908 917 836
8 827 908 917 836 828 909 918 837
8 828 909 918 837 829 910 919 838
8 829 910 919 838 830 911 920 839
8 830 911 920 839 831 912 921 840
8 831 912 921 840 832 913 922 841
8 832 913 922 841 833 914 923 842
8 833 914 923 842 834 915 924 843
8 834 915 924 843 835 916 925 844
8 835 916 925 844 222 231 232 223
8 142 151 31 32 836 917 485 494
8 836 917 485 494 837 918 486 495
8 837 918 486 495 838 919 487 496
8 838 919 487 496 839 920 488 497
8 839 920 488 497 840 921 489 498
8 840 921 489 498 841 922 490 499
8 841 922 490 499 842 923 491 500
8 842 923 491 500 843 924 492 501
8 843 924 492 501 844 925 493 502
8 844 925 493 502 223 232 67 68
8 11 12 152 143 305 314 926 845
8 305 314 926 845 306 315 927 846
8 306 315 927 846 307 316 928 847
8 307 316 928 847 308 317 929 848
8 308 317 929 848 309 318 930 849
8 309 318 930 849 310 319 931 850
8 310 319 931 850 311 320 932 851
8 311 320 932 851 312 321 933 852
8 312 321 933 852 313 322 934 853
8 313 322 934 853 47 48 233 224
8 143 152 153 144 845 926 935 854
8 845 926 935 854 846 927 936 855
8 846 927 936 855 847 928 937 856
8 847 928 937 856 848 929 938 857
8 848 929 938 857 849 930 939 858
8 849 930 939 858 850 931 940 859
8 850 931 940 859 851 932 941 860
8 851 932 941 860 852 933 942 861
8 852 933 942 861 853 934 943 862
8 853 934 943 862 224 233 234 225
8 144 153 154 145 854 935 944 863
8 854 935 944 863 855 936 945 864
8 855 936 945 864 856 937 946 865
8 856 937 946 865 857 938 947 866
8 857 938 947 866 858 939 948 867
8 858 939 948 867 859 940 949 868
8 859 940 949 868 860 941 950 869
8 860 941 950 869 861 942 951 870
8 861 942 951 870 862 943 952 871
8 862 943 952 871 225 234 235 226
8 145 154 155 146 863 944 953 872
8 863 944 953 872 864 945 954 873
8 864 945 954 873 865 946 955 874
8 865 946 955 874 866 947 956 875
8 866 947 956 875 867 948 957 876
8 867 948 957 876 868 949 958 877
8 868 949 958 877 869 950 959 878
8 869 950 959 878 870 951 960 879
8 870 951 960 879 871 952 961 880
8 871 952 961 880 226 235 236 227
8 146 155 156 147 872 953 962 881
8 872 953 962 881 873 954 963 882
8 873 954 963 882 874 955 964 883
8 874 955 964 883 875 956 965 884
8 875 956 965 884 876 957 966 885
8 876 957 966 885 877 958 967 886
8 877 958 967 886 878 959 968 887
8 878 959 968 887 879 960 969 888
8 879 960 969 888 880 961 970 889
8 880 961 970 889 227 236 237 228
8 147 156 157 148 881 962 971 890
8 881 962 971 890 882 963 972 891
8 882 963 972 891 883 964 973 892
8 883 964 973 892 884 965 974 893
8 884 965 974 893 885 966 975 894
8 885 966 975 894 886 967 976 895
8 886 967 976 895 887 968 977 896
8 887 968 977 896 888 969 978 897
8 888 969 978 897 889 970 979 898
8 889 970 979 898 228 237 238 229
8 148 157 158 149 890 971 980 899
8 890 971 980 899 891 972 981 900
8 891 972 981 900 892 973 982 901
8 892 973 982 901 893 974 983 902
8 893 974 983 902 894 975 984 903
8 894 975 984 903 895 976 985 904
8 895 976 985 904 896 977 986 905
8 896 977 986 905 897 978 987 906
8 897 978 987 906 898 979 988 907
8 898 979 988 907 229 238 239 230
8 149 158 159 150 899 980 989 908
8 899 980 989 908 900 981 990 909
8 900 981 990 909 901 982 991 910
8 901 982 991 910 902 983 992 911
8 902 983 992 911 903 984 993 912
8 903 984 993 912 904 985 994 913
8 904 985 994 913 905 986 995 914
8 905 986 995 914 906 987 996 915
8 906 987 996 915 907 988 997 916
8 907 988 997 916 230 239 240 231
8 150 159 160 151 908 989 998 917
8 908 989 998 917 909 990 999 918
8 909 990 999 918 910 991 1000 919
8 910 991 1000 919 911 992 1001 920
8 911 992 1001 920 912 993 1002 921
8 912 993 1002 921 913 994 1003 922
8 913 994 1003 922 914 995 1004 923
8 914 995 1004 923 915 996 1005 924
8 915 996 1005 924 916 997 1006 925
8 916 997 1006 925 231 240 241 232
8 151 160 30 31 917 998 476 485
8 917 998 476 485 918 999 477 486
8 918 999 477 486 919 1000 478 487
8 919 1000 478 487 920 1001 479 488
8 920 1001 479 488 921 1002 480 489
8 921 1002 480 489 922 1003 481 490
8 922 1003 481 490 923 1004 482 491
8 923 1004 482 491 924 1005 483 492
8 924 1005 483 492 925 1006 484 493
8 925 1006 484 493 232 241 66 67
8 12 13 161 152 314 323 1007 926
8 314 323 1007 926 315 324 1008 927
8 315 324 1008 927 316 325 1009 928
8 316 325 1009 928 317 326 1010 929
8 317 326 1010 929 318 327 1011 930
8 318 327 1011 930 319 328 1012 931
8 319 328 1012 931 320 329 1013 932
8 320 329 1013 932 321 330 1014 933
8 321 330 1014 933 322 331 1015 934
8 322 331 1015 934 48 49 242 233
8 152 161 162 153 926 1007 1016 935
8 926 1007 1016 935 927 1008 1017 936
8 927 1008 1017 936 928 1009 1018 937
8 928 1009 1018 937 929 1010 1019 938
8 929 1010 1019 938 930 1011 1020 939
8 930 1011 1020 939 931 1012 1021 940
8 931 1012 1021 940 932 1013 1022 941
8 932 1013 1022 941 933 1014 1023 942
8 933 1014 1023 942 934 1015 1024 943
8 934 1015 1024 943 233 242 243 234
8 153 162 163 154 935 1016 1025 944
8 935 1016 1025 944 936 1017 1026 945
8 936 1017 1026 945 937 1018 1027 946
8 937 1018 1027 946 938 1019 1028 947
8 938 1019 1028 947 939 1020 1029 948
8 939 1020 1029 948 940 1021 1030 949
8 940 1021 1030 949 941 1022 1031 950
8 941 1022 1031 950 942 1023 1032 951
8 942 1023 1032 951 943 1024 1033 952
8 943 1024 1033 952 234 243 244 235
8 154 163 164 155 944 1025 1034 953
8 944 1025 1034 953 945 1026 1035 954
8 945 1026 1035 954 946 1027 1036 955
8 946 1027 1036 955 947 1028 1037 956
8 947 1028 1037 956 948 1029 1038 957
8 948 1029 1038 957 949 1030 1039 958
8 949 1030 1039 958 950 1031 1040 959
8 950 1031 1040 959 951 1032 1041 960
8 951 1032 1041 960 952 1033 1042 961
8 952 1033 1042 961 235 244 245 236
8 155 164 165 156 953 1034 1043 962
8 953 1034 1043 962 954 1035 1044 963
8 954 1035 1044 963 955 1036 1045 964
8 955 1036 1045 964 956 1037 1046 965
8 956 1037 1046 965 957 1038 1047 966
8 957 1038 1047 966 958 1039 1048 967
8 958 1039 1048 967 959 1040 1049 968
8 959 1040 1049 968 960 1041 1050 969
8 960 1041 1050 969 961 1042 1051 970
8 961 1042 1051 970 236 245 246 237
8 156 165 166 157 962 1043 1052 971
8 962 1043 1052 971 963 1044 1053 972
8 963 1044 1053 972 964 1045 1054 973
8 964 1045 1054 973 965 1046 1055 974
8 965 1046 1055 974 966 1047 1056 975
8 966 1047 1056 975 967 1048 1057 976
8 967 1048 1057 976 968 1049 1058 977
8 968 1049 1058 977 969 1050 1059 978
8 969 1050 1059 978 970 1051 1060 979
8 970 1051 1060 979 237 246 247 238
8 157 166 167 158 971 1052 1061 980
8 971 1052 1061 980 972 1053 1062 981
8 972 1053 1062 981 973 1054 1063 982
8 973 1054 1063 982 974 1055 1064 983
8 974 1055 1064 983 975 1056 1065 984
8 975 1056 1065 984 976 1057 1066 985
8 976 1057 1066 985 977 1058 1067 986
8 977 1058 1067 986 978 1059 1068 987
8 978 1059 1068 987 979 1060 1069 988
8 979 1060 1069 988 238 247 248 239
8 158 167 168 159 980 1061 1070 989
8 980 1061 1070 989 981 1062 1071 990
8 981 1062 1071 990 982 1063 1072 991
8 982 1063 1072 991 983 1064 1073 992
8 983 1064 1073 992 984 1065 1074 993
8 984 1065 1074 993 985 1066 1075 994
8 985 1066 1075 994 986 1067 1076 995
8 986 1067 1076 995 987 1068 1077 996
8 987 1068 1077 996 988 1069 1078 997
8 988 1069 1078 997 239 248 249 240
8 159 168 169 160 989 1070 1079 998
8 989 1070 1079 998 990 1071 1080 999
8 990 1071 1080 999 991 1072 1081 1000
8 991 1072 1081 1000 992 1073 1082 1001
8 992 1073 1082 1001 993 1074 1083 1002
8 993 1074 1083 1002 994 1075 1084 1003
8 994 1075 1084 1003 995 1076 1085 1004
8 995 1076 1085 1004 996 1077 1086 1005
8 996 1077 1086 1005 997 1078 1087 1006
8 997 1078 1087 1006 240 249 250 241
8 160 169 29 30 998 1079 467 476
8 998 1079 467 476 999 1080 468 477
8 999 1080 468 477 1000 1081 469 478
8 1000 1081 469 478 1001 1082 470 479
8 1001 1082 470 479 1002 1083 471 480
8 1002 1083 471 480 1003 1084 472 481
8 1003 1084 472 481 1004 1085 473 482
8 1004 1085 473 482 1005 1086 474 483
8 1005 1086 474 483 1006 1087 475 484
8 1006 1087 475 484 241 250 65 66
8 13 14 170 161 323 332 1088 1007
8 323 332 1088 1007 324 333 1089 1008
8 324 333 1089 1008 325 334 1090 1009
8 325 334 1090 1009 326 335 1091 1010
8 326 335 1091 1010 327 336 1092 1011
8 327 336 1092 1011 328 337 1093 1012
8 328 337 1093 1012 329 338 1094 1013
8 329 338 1094 1013 330 339 1095 1014
8 330 339 1095 1014 331 340 1096 1015
8 331 340 1096 1015 49 50 251 242
8 161 170 171 162 1007 1088 1097 1016
8 1007 1088 1097 1016 1008 1089 1098 1017
8 1008 1089 1098 1017 1009 1090 1099 1018
8 1009 1090 1099 1018 1010 1091 1100 1019
8 1010 1091 1100 1019 1011 1092 1101 1020
8 1011 1092 1101 1020 1012 1093 1102 1021
8 1012 1093 1102 1021 1013 1094 1103 1022
8 1013 1094 1103 1022 1014 1095 1104 1023
8 1014 1095 1104 1023 1015 1096 1105 1024
8 1015 1096 1105 1024 242 251 252 243
8 162 171 172 163 1016 1097 1106 1025
8 1016 1097 1106 1025 1017 1098 1107 1026
8 1017 1098 1107 1026 1018 1099 1108 1027
8 1018 1099 1108 1027 1019 1100 1109 1028
8 1019 1100 1109 1028 1020 1101 1110 1029
8 1020 1101 1110 1029 1021 1102 1111 1030
8 1021 1102 1111 1030 1022 1103 1112 1031
8 1022 1103 1112 1031 1023 1104 1113 1032
8 1023 1104 1113 1032 1024 1105 1114 1033
8 1024 1105 1114 1033 243 252 253 244
8 163 172 173 164 1025 1106 1115 1034
8 1025 1106 1115 1034 1026 1107 1116 1035
8 1026 1107 1116 1035 1027 1108 1117 1036
8 1027 1108 1117 1036 1028 1109 1118 1037
8 1028 1109 1118 1037 1029 1110 1119 1038
8 1029 1110 1119 1038 1030 1111 1120 1039
8 1030 1111 1120 1039 1031 1112 1121 1040
8 1031 1112 1121 1040 1032 1113 1122 1041
8 1032 1113 1122 1041 1033 1114 1123 1042
8 1033 1114 1123 1042 244 253 254 245
8 164 173 174 165 1034 1115 1124 1043
8 1034 1115 1124 1043 1035 1116 1125 1044
8 1035 1116 1125 1044 1036 1117 1126 1045
8 1036 1117 1126 1045 1037 1118 1127 1046
8 1037 1118 1127 1046 1038 1119 1128 1047
8 1038 1119 1128 1047 1039 1120 1129 1048
8 1039 1120 1129 1048 1040 1121 1130 1049
8 1040 1121 1130 1049 1041 1122 1131 1050
8 1041 1122 1131 1050 1042 1123 1132 1051
8 1042 1123 1132 1051 245 254 255 246
8 165 174 175 166 1043 1124 1133 1052
8 1043 1124 1133 1052 1044 1125 1134 1053
8 1044 1125 1134 1053 1045 1126 1135 1054
8 1045 1126 1135 1054 1046 1127 1136 1055
8 1046 1127 1136 1055 1047 1128 1137 1056
8 1047 1128 1137 1056 1048 1129 1138 1057
8 1048 1129 1138 1057 1049 1130 1139 1058
8 1049 1130 1139 1058 1050 1131 1140 1059
8 1050 1131 1140 1059 1051 1132 1141 1060
8 1051 1132 1141 1060 246 255 256 247
8 166 175 176 167 1052 1133 1142 1061
8 1052 1133 1142 1061 1053 1134 1143 1062
8 1053 1134 1143 1062 1054 1135 1144 1063
8 1054 1135 1144 1063 1055 1136 1145 1064
8 1055 1136 1145 1064 1056 1137 1146 1065
8 1056 1137 1146 1065 1057 1138 1147 1066
8 1057 1138 1147 1066 1058 1139 1148 1067
8 1058 1139 1148 1067 1059 1140 1149 1068
8 1059 1140 1149 1068 1060 1141 1150 1069
8 1060 1141 1150 1069 247 256 257 248
8 167 176 177 168 1061 1142 1151 1070
8 1061 1142 1151 1070 1062 1143 1152 1071
8 1062 1143 1152 1071 1063 1144 1153 1072
8 1063 1144 1153 1072 1064 1145 1154 1073
8 1064 1145 1154 1073 1065 1146 1155 1074
8 1065 1146 1155 1074 1066 1147 1156 1075
8 1066 1147 1156 1075 1067 1148 1157 1076
8 1067 1148 1157 1076 1068 1149 1158 1077
8 1068 1149 1158 1077 1069 1150 1159 1078
8 1069 1150 1159 1078 248 257 258 249
8 168 177 178 169 1070 1151 1160 1079
8 1070 1151 1160 1079 1071 1152 1161 1080
8 1071 1152 1161 1080 1072 1153 1162 1081
8 1072 1153 1162 1081 1073 1154 1163 1082
8 1073 1154 1163 1082 1074 1155 1164 1083
8 1074 1155 1164 1083 1075 1156 1165 1084
8 1075 1156 1165 1084 1076 1157 1166 1085
8 1076 1157 1166 1085 1077 1158 1167 1086
8 1077 1158 1167 1086 1078 1159 1168 1087
8 1078 1159 1168 1087 249 258 259 250
8 169 178 28 29 1079 1160 458 467
8 1079 1160 458 467 1080 1161 459 468
8 1080 1161 459 468 1081 1162 460 469
8 1081 1162 460 469 1082 1163 461 470
8 1082 1163 461 470 1083 1164 462 471
8 1083 1164 462 471 1084 1165 463 472
8 1084 1165 463 472 1085 1166 464 473
8 1085 1166 464 473 1086 1167 465 474
8 1086 1167 465 474 1087 1168 466 475
8 1087 1168 466 475 250 259 64 65
8 14 15 179 170 332 341 1169 1088
8 332 341 1169 1088 333 342 1170 1089
8 333 342 1170 1089 334 343 1171 1090
8 334 343 1171 1090 335 344 1172 1091
8 335 344 1172 1091 336 345 1173 1092
8 336 345 1173 1092 337 346 1174 1093
8 337 346 1174 1093 338 347 1175 1094
8 338 347 1175 1094 339 348 1176 1095
8 339 348 1176 1095 340 349 1177 1096
8 340 349 1177 1096 50 51 260 251
8 170 179 180 171 1088 1169 1178 1097
8 1088 1169 1178 1097 1089 1170 1179 1098
8 1089 1170 1179 1098 1090 1171 1180 1099
8 1090 1171 1180 1099 1091 1172 1181 1100
8 1091 1172 1181 1100 1092 1173 1182 1101
8 1092 1173 1182 1101 1093 1174 1183 1102
8 1093 1174 1183 1102 1094 1175 1184 1103
8 1094 1175 1184 1103 1095 1176 1185 1104
8 1095 1176 1185 1104 1096 1177 1186 1105
8 1096 1177 1186 1105 251 260 261 252
8 171 180 181 172 1097 1178 1187 1106
8 1097 1178 1187 1106 1098 1179 1188 1107
8 1098 1179 1188 1107 1099 1180 1189 1108
8 1099 1180 1189 1108 1100 1181 1190 1109
8 1100 1181 1190 1109 1101 1182 1191 1110
8 1101 1182 1191 1110 1102 1183 1192 1111
8 1102 1183 1192 1111 1103 1184 1193 1112
8 1103 1184 1193 1112 1104 1185 1194 1113
8 1104 1185 1194 1113 1105 1186 1195 1114
8 1105 1186 1195 1114 252 261 262 253
8 172 181 182 173 1106 1187 1196 1115
8 1106 1187 1196 1115 1107 1188 1197 1116
8 1107 1188 1197 1116 1108 1189 1198 1117
8 1108 1189 1198 1117 1109 1190 1199 1118
8 1109 1190 1199 1118 1110 1191 1200 1119
8 1110 1191 1200 1119 1111 1192 1201 1120
8 1111 1192 1201 1120 1112 1193 1202 1121
8 1112 1193 1202 1121 1113 1194 1203 1122
8 1113 1194 1203 1122 1114 1195 1204 1123
8 1114 1195 1204 1123 253 262 263 254
8 173 182 183 174 1115 1196 1205 1124
8 1115 1196 1205 1124 1116 1197 1206 1125
8 1116 1197 1206 1125 1117 1198 1207 1126
8 1117 1198 1207 1126 1118 1199 1208 1127
8 1118 1199 1208 1127 1119 1200 1209 1128
8 1119 1200 1209 1128 1120 1201 1210 1129
8 1120 1201 1210 1129 1121 1202 1211 1130
8 1121 1202 1211 1130 1122 1203 1212 1131
8 1122 1203 1212 1131 1123 1204 1213 1132
8 1123 1204 1213 1132 254 263 264 255
8 174 183 184 175 1124 1205 1214 1133
8 1124 1205 1214 1133 1125 1206 1215 1134
8 1125 1206 1215 1134 1126 1207 1216 1135
8 1126 1207 1216 1135 1127 1208 1217 1136
8 1127 1208 1217 1136 1128 1209 1218 1137
8 1128 1209 1218 1137 1129 1210 1219 1138
8 1129 1210 1219 1138 1130 1211 1220 1139
8 1130 1211 1220 1139 1131 1212 1221 1140
8 1131 1212 1221 1140 1132 1213 1222 1141
8 1132 1213 1222 1141 255 264 265 256
8 175 184 185 176 1133 1214 1223 1142
8 1133 1214 1223 1142 1134 1215 1224 1143
8 1134 1215 1224 1143 1135 1216 1225 1144
8 1135 1216 1225 1144 1136 1217 1226 1145
8 1136 1217 1226 1145 1137 1218 1227 1146
8 1137 1218 1227 1146 1138 1219 1228 1147
8 1138 1219 1228 1147 1139 1220 1229 1148
8 1139 1220 1229 1148 1140 1221 1230 1149
8 1140 1221 1230 1149 1141 1222 1231 1150
8 1141 1222 1231 1150 256 265 266 257
8 176 185 186 177 1142 1223 1232 1151
8 1142 1223 1232 1151 1143 1224 1233 1152
8 1143 1224 1233 1152 1144 1225 1234 1153
8 1144 1225 1234 1153 1145 1226 1235 1154
8 1145 1226 1235 1154 1146 1227 1236 1155
8 1146 1227 1236 1155 1147 1228 1237 1156
8 1147 1228 1237 1156 1148 1229 1238 1157
8 1148 1229 1238 1157 1149 1230 1239 1158
8 1149 1230 1239 1158 1150 1231 1240 1159
8 1150 1231 1240 1159 257 266 267 258
8 177 186 187 178 1151 1232 1241 1160
8 1151 1232 1241 1160 1152 1233 1242 1161
8 1152 1233 1242 1161 1153 1234 1243 1162
8 1153 1234 1243 1162 1154 1235 1244 1163
8 1154 1235 1244 1163 1155 1236 1245 1164
8 1155 1236 1245 1164 1156 1237 1246 1165
8 1156 1237 1246 1165 1157 1238 1247 1166
8 1157 1238 1247 1166 1158 1239 1248 1167
8 1158 1239 1248 1167 1159 1240 1249 1168
8 1159 1240 1249 1168 258 267 268 259
8 178 187 27 28 1160 1241 449 458
8 1160 1241 449 458 1161 1242 450 459
8 1161 1242 450 459 1162 1243 451 460
8 1162 1243 451 460 1163 1244 452 461
8 1163 1244 452 461 1164 1245 453 462
8 1164 1245 453 462 1165 1246 454 463
8 1165 1246 454 463 1166 1247 455 464
8 1166 1247 455 464 1167 1248 456 465
8 1167 1248 456 465 1168 1249 457 466
8 1168 1249 457 466 259 268 63 64
8 15 16 188 179 341 350 1250 1169
8 341 350 1250 1169 342 351 1251 1170
8 342 351 1251 1170 343 352 1252 1171
8 343 352 1252 1171 344 353 1253 1172
8 344 353 1253 1172 345 354 1254 1173
8 345 354 1254 1173 346 355 1255 1174
8 346 355 1255 1174 347 356 1256 1175
8 347 356 1256 1175 348 357 1257 1176
8 348 357 1257 1176 349 358 1258 1177
8 349 358 1258 1177 51 52 269 260
8 179 188 189 180 1169 1250 1259 1178
8 1169 1250 1259 1178 1170 1251 1260 1179
8 1170 1251 1260 1179 1171 1252 1261 1180
8 1171 1252 1261 1180 1172 1253 1262 1181
8 1172 1253 1262 1181 1173 1254 1263 1182
8 1173 1254 1263 1182 1174 1255 1264 1183
8 1174 1255 1264 1183 1175 1256 1265 1184
8 1175 1256 1265 1184 1176 1257 1266 1185
8 1176 1257 1266 1185 1177 1258 1267 1186
8 1177 1258 1267 1186 260 269 270 261
8 180 189 190 181 1178 1259 1268 1187
8 1178 1259 1268 1187 1179 1260 1269 1188
8 1179 1260 1269 1188 1180 1261 1270 1189
8 1180 1261 1270 1189 1181 1262 1271 1190
8 1181 1262 1271 1190 1182 1263 1272 1191
8 1182 1263 1272 1191 1183 1264 1273 1192
8 1183 1264 1273 1192 1184 1265 1274 1193
8 1184 1265 1274 1193 1185 1266 1275 1194
8 1185 1266 1275 1194 1186 1267 1276 1195
8 1186 1267 1276 1195 261 270 271 262
8 181 190 191 182 1187 1268 1277 1196
8 1187 1268 1277 1196 1188 1269 1278 1197
8 1188 1269 1278 1197 1189 1270 1279 1198
8 1189 1270 1279 1198 1190 1271 1280 1199
8 1190 1271 1280 1199 1191 1272 1281 1200
8 1191 1272 1281 1200 1192 1273 1282 1201
8 1192 1273 1282 1201 1193 1274 1283 1202
8 1193 1274 1283 1202 1194 1275 1284 1203
8 1194 1275 1284 1203 1195 1276 1285 1204
8 1195 1276 1285 1204 262 271 272 263
8 182 191 192 183 1196 1277 1286 1205
8 1196 1277 1286 1205 1197 1278 1287 1206
8 1197 1278 1287 1206 1198 1279 1288 1207
8 1198 1279 1288 1207 1199 1280 1289 1208
8 1199 1280 1289 1208 1200 1281 1290 1209
8 1200 1281 1290 1209 1201 1282 1291 1210
8 1201 1282 1291 1210 1202 1283 1292 1211
8 1202 1283 1292 1211 1203 1284 1293 1212
8 1203 1284 1293 1212 1204 1285 1294 1213
8 1204 1285 1294 1213 263 272 273 264
8 183 192 193 184 1205 1286 1295 1214
8 1205 1286 1295 1214 1206 1287 1296 1215
8 1206 1287 1296 1215 1207 1288 1297 1216
8 1207 1288 1297 1216 1208 1289 1298 1217
8 1208 1289 1298 1217 1209 1290 1299 1218
8 1209 1290 1299 1218 1210 1291 1300 1219
8 1210 1291 1300 1219 1211 1292 1301 1220
8 1211 1292 1301 1220 1212 1293 1302 1221
8 1212 1293 1302 1221 1213 1294 1303 1222
8 1213 1294 1303 1222 264 273 274 265
8 184 193 194 185 1214 1295 1304 1223
8 1214 1295 1304 1223 1215 1296 1305 1224
8 1215 1296 1305 1224 1216 1297 1306 1225
8 1216 1297 1306 1225 1217 1298 1307 1226
8 1217 1298 1307 1226 1218 1299 1308 1227
8 1218 1299 1308 1227 1219 1300 1309 1228
8 1219 1300 1309 1228 1220 1301 1310 1229
8 1220 1301 1310 1229 1221 1302 1311 1230
8 1221 1302 1311 1230 1222 1303 1312 1231
8 1222 1303 1312 1231 265 274 275 266
8 185 194 195 186 1223 1304 1313 1232
8 1223 1304 1313 1232 1224 1305 1314 1233
8 1224 1305 1314 1233 1225 1306 1315 1234
8 1225 1306 1315 1234 1226 1307 1316 1235
8 1226 1307 1316 1235 1227 1308 1317 1236
8 1227 1308 1317 1236 1228 1309 1318 1237
8 1228 1309 1318 1237 1229 1310 1319 1238
8 1229 1310 1319 1238 1230 1311 1320 1239
8 1230 1311 1320 1239 1231 1312 1321 1240
8 1231 1312 1321 1240 266 275 276 267
8 186 195 196 187 1232 1313 1322 1241
8 1232 1313 1322 1241 1233 1314 1323 1242
8 1233 1314 1323 1242 1234 1315 1324 1243
8 1234 1315 1324 1243 1235 1316 1325 1244
8 1235 1316 1325 1244 1236 1317 1326 1245
8 1236 1317 1326 1245 1237 1318 1327 1246
8 1237 1318 1327 1246 1238 1319 1328 1247
8 1238 1319 1328 1247 1239 1320 1329 1248
8 1239 1320 1329 1248 1240 1321 1330 1249
8 1240 1321 1330 1249 267 276 277 268
8 187 196 26 27 1241 1322 440 449
8 1241 1322 440 449 1242 1323 441 450
8 1242 1323 441 450 1243 1324 442 451
8 1243 1324 442 451 1244 1325 443 452
8 1244 1325 443 452 1245 1326 444 453
8 1245 1326 444 453 1246 1327 445 454
8 1246 1327 445 454 1247 1328 446 455
8 1247 1328 446 455 1248 1329 447 456
8 1248 1329 447 456 1249 1330 448 457
8 1249 1330 448 457 268 277 62 63
8 16 1 17 188 350 89 359 1250
8 350 89 359 1250 351 90 360 1251
8 351 90 360 1251 352 91 361 1252
8 352 91 361 1252 353 92 362 1253
8 353 92 362 1253 354 93 363 1254
8 354 93 363 1254 355 94 364 1255
8 355 94 364 1255 356 95 365 1256
8 356 95 365 1256 357 96 366 1257
8 357 96 366 1257 358 97 367 1258
8 358 97 367 1258 52 5 53 269
8 188 17 18 189 1250 359 368 1259
8 1250 359 368 1259 1251 360 369 1260
8 1251 360 369 1260 1252 361 370 1261
8 1252 361 370 1261 1253 362 371 1262
8 1253 362 371 1262 1254 363 372 1263
8 1254 363 372 1263 1255 364 373 1264
8 1255 364 373 1264 1256 365 374 1265
8 1256 365 374 1265 1257 366 375 1266
8 1257 366 375 1266 1258 367 376 1267
8 1258 367 376 1267 269 53 54 270
8 189 18 19 190 1259 368 377 1268
8 1259 368 377 1268 1260 369 378 1269
8 1260 369 378 1269 1261 370 379 1270
8 1261 370 379 1270 1262 371 380 1271
8 1262 371 380 1271 1263 372 381 1272
8 1263 372 381 1272 1264 373 382 1273
8 1264 373 382 1273 1265 374 383 1274
8 1265 374 383 1274 1266 375 384 1275
8 1266 375 384 1275 1267 376 385 1276
8 1267 376 385 1276 270 54 55 271
8 190 19 20 191 1268 377 386 1277
8 1268 377 386 1277 1269 378 387 1278
8 1269 378 387 1278 1270 379 388 1279
8 1270 379 388 1279 1271 380 389 1280
8 1271 380 389 1280 1272 381 390 1281
8 1272 381 390 1281 1273 382 391 1282
8 1273 382 391 1282 1274 383 392 1283
8 1274 383 392 1283 1275 384 393 1284
8 1275 384 393 1284 1276 385 394 1285
8 1276 385 394 1285 271 55 56 272
8 191 20 21 192 1277 386 395 1286
8 1277 386 395 1286 1278 387 396 1287
8 1278 387 396 1287 1279 388 397 1288
8 1279 388 397 1288 1280 389 398 1289
8 1280 389 398 1289 1281 390 399 1290
8 1281 390 399 1290 1282 391 400 1291
8 1282 391 400 1291 1283 392 401 1292
8 1283 392 401 1292 1284 393 402 1293
8 1284 393 402 1293 1285 394 403 1294
8 1285 394 403 1294 272 56 57 273
8 192 21 22 193 1286 395 404 1295
8 1286 395 404 1295 1287 396 405 1296
8 1287 396 405 1296 1288 397 406 1297
8 1288 397 406 1297 1289 398 407 1298
8 1289 398 407 1298 1290 399 408 1299
8 1290 399 408 1299 1291 400 409 1300
8 1291 400 409 1300 1292 401 410 1301
8 1292 401 410 1301 1293 402 411 1302
8 1293 402 411 1302 1294 403 412 1303
8 1294 403 412 1303 273 57 58 274
8 193 22 23 194 1295 404 413 1304
8 1295 404 413 1304 1296 405 414 1305
8 1296 405 414 1305 1297 406 415 1306
8 1297 406 415 1306 1298 407 416 1307
8 1298 407 416 1307 1299 408 417 1308
8 1299 408 417 1308 1300 409 418 1309
8 1300 409 418 1309 1301 410 419 1310
8 1301 410 419 1310 1302 411 420 1311
8 1302 411 420 1311 1303 412 421 1312
8 1303 412 421 1312 274 58 59 275
8 194 23 24 195 1304 413 422 1313
8 1304 413 422 1313 1305 414 423 1314
8 1305 414 423 1314 1306 415 424 1315
8 1306 415 424 1315 1307 416 425 1316
8 1307 416 425 1316 1308 417 426 1317
8 1308 417 426 1317 1309 418 427 1318
8 1309 418 427 1318 1310 419 428 1319
8 1310 419 428 1319 1311 420 429 1320
8 1311 420 429 1320 1312 421 430 1321
8 1312 421 430 1321 275 59 60 276
8 195 24 25 196 1313 422 431 1322
8 1313 422 431 1322 1314 423 432 1323
8 1314 423 432 1323 1315 424 433 1324
8 1315 424 433 1324 1316 425 434 1325
8 1316 425 434 1325 1317 426 435 1326
8 1317 426 435 1326 1318 427 436 1327
8 1318 427 436 1327 1319 428 437 1328
8 1319 428 437 1328 1320 429 438 1329
8 1320 429 438 1329 1321 430 439 1330
8 1321 430 439 1330 276 60 61 277
8 196 25 2 26 1322 431 98 440
8 1322 431 98 440 1323 432 99 441
8 1323 432 99 441 1324 433 100 442
8 1324 433 100 442 1325 434 101 443
8 1325 434 101 443 1326 435 102 444
8 1326 435 102 444 1327 436 103 445
8 1327 436 103 445 1328 437 104 446
8 1328 437 104 446 1329 438 105 447
8 1329 438 105 447 1330 439 106 448
8 1330 439 106 448 277 61 6 62
CELL_TYPES 1000
12
12
12
12
12
12
12
12
12
12
12
12
12
12
12
12
12
12
12
12
12
12
12
12
12
12
12
12
12
12
12
12
12
12
12
12
12
12
12
12
12
12
12
12
12
12
12
12
12
12
12
12
12
12
12
12
12
12
12
12
12
12
12
12
12
12
12
12
12
12
12
12
12
12
12
12
12
12
12
12
12
12
12
12
12
12
12
12
12
12
12
12
12
12
12
12
12
12
12
12
12
12
12
12
12
12
12
12
12
12
12
12
12
12
12
12
12
12
12
12
12
12
12
12
12
12
12
12
12
12
12
12
12
12
12
12
12
12
12
12
12
12
12
12
12
12
12
12
12
12
12
12
12
12
12
12
12
12
12
12
12
12
12
12
12
12
12
12
12
12
12
12
12
12
12
12
12
12
12
12
12
12
12
12
12
12
12
12
12
12
12
12
12
12
12
12
12
12
12
12
12
12
12
12
12
12
12
12
12
12
12
12
12
12
12
12
12
12
12
12
12
12
12
12
12
12
12
12
12
12
12
12
12
12
12
12
12
12
12
12
12
12
12
12
12
12
12
12
12
12
12
12
12
12
12
12
12
12
12
12
12
12
12
12
12
12
12
12
12
12
12
12
12
12
12
12
12
12
12
12
12
12
12
12
12
12
12
12
12
12
12
12
12
12
12
12
12
12
12
12
12
12
12
12
12
12
12
12
12
12
12
12
12
12
12
12
12
12
12
12
12
12
12
12
12
12
12
12
12
12
12
12
12
12
12
12
12
12
12
12
12
12
12
12
12
12
12
12
12
12
12
12
12
12
12
12
12
12
12
12
12
12
12
12
12
12
12
12
12
12
12
12
12
12
12
12
12
12
12
12
12
12
12
12
12
12
12
12
12
12
12
12
12
12
12
12
12
12
12
12
12
12
12
12
12
12
12
12
12
12
12
12
12
12
12
12
12
12
12
12
12
12
12
12
12
12
12
12
12
12
12
12
12
12
12
12
12
12
12
12
12
12
12
12
12
12
12
12
12
12
12
12
12
12
12
12
12
12
12
12
12
12
12
12
12
12
12
12
12
12
12
12
12
12
12
12
12
12
12
12
12
12
12
12
12
12
12
12
12
12
12
12
12
12
12
12
12
12
12
12
12
12
12
12
12
12
12
12
12
12
12
12
12
12
12
12
12
12
12
12
12
12
12
12
12
12
12
12
12
12
12
12
12
12
12
12
12
12
12
12
12
12
12
12
12
12
12
12
12
12
12
12
12
12
12
12
12
12
12
12
12
12
12
12
12
12
12
12
12
12
12
12
12
12
12
12
12
12
12
12
12
12
12
12
12
12
12
12
12
12
12
12
12
12
12
12
12
12
12
12
12
12
12
12
12
12
12
12
12
12
12
12
12
12
12
12
12
12
12
12
12
12
12
12
12
12
12
12
12
12
12
12
12
12
12
12
12
12
12
12
12
12
12
12
12
12
12
12
12
12
12
12
12
12
12
12
12
12
12
12
12
12
12
12
12
12
12
12
12
12
12
12
12
12
12
12
12
12
12
12
12
12
12
12
12
12
12
12
12
12
12
12
12
12
12
12
12
12
12
12
12
12
12
12
12
12
12
12
12
12
12
12
12
12
12
12
12
12
12
12
12
12
12
12
12
12
12
12
12
12
12
12
12
12
12
12
12
12
12
12
12
12
12
12
12
12
12
12
12
12
12
12
12
12
12
12
12
12
12
12
12
12
12
12
12
12
12
12
12
12
12
12
12
12
12
12
12
12
12
12
12
12
12
12
12
12
12
12
12
12
12
12
12
12
12
12
12
12
12
12
12
12
12
12
12
12
12
12
12
12
12
12
12
12
12
12
12
12
12
12
12
12
12
12
12
12
12
12
12
12
12
12
12
12
12
12
12
12
12
12
12
12
12
12
12
12
12
12
12
12
12
12
12
12
12
12
12
12
12
12
12
12
12
12
12
12
12
12
12
12
12
12
12
12
12
12
12
12
12
12
12
12
12
12
12
12
12
12
12
12
12
12
12
12
12
12
12
12
12
12
12
12
12
12
12
12
12
12
12
12
12
12
12
12
12
12
12
12
12
12
12
12
12
12
12
12
12
12
12
12
12
12
12
12
12
12
12
12
12
12
12
12
12
12
12
12
12
12
12
12
12
12
12
12
12
12
12
12
12
12
12
12
12
12
12
12
12
12
12
12
12
12
12
12
12
12
12
12
12
12
12
12
12
12
12
12
12
12
12
12
12
12
12
12
12
12
12
12
12
12
POINT_DATA 1331
SCALARS stress11 float
LOOKUP_TABLE default
-0.006937934636198406
-0.006937938519797626
-0.00693795171957845
-0.006937947843312031
0.03276449328240005
0.03276449268361148
0.03276450460805336
0.032764505197746985
-0.02510528799422218
-0.034525864388285754
-0.04207670234472971
-0.04705186750365442
-0.04877528942191431
-0.04705186676795847
-0.042076700903976416
-0.03452586328853613
-0.025105287739222604
-0.05134622810601286
-0.07955797353639582
-0.10021537025164662
-0.11317291449756794
-0.11759347002055165
-0.11317291163663867
-0.10021536458287983
-0.07955796833294926
-0.0513462266947613
-0.025105297968650575
-0.03452586533745716
-0.042076698118847844
-0.04705186141286788
-0.04877528322718877
-0.047051862144513734
-0.04207669956051063
-0.03452586643265931
-0.02510529822063745
-0.051346220294703926
-0.07955796392150205
-0.10021536073691095
-0.11317290793147095
-0.11759346634107715
-0.11317291079001279
-0.1002153663926606
-0.07955796912477808
-0.0513462217088545
0.05362946533165314
0.08032828931433755
0.10971894736456989
0.13276164902934795
0.14148891433055635
0.13276164521369083
0.10971894068592292
0.08032828433226769
0.05362946416437353
0.10068769840864888
0.176091289736803
0.2580684956983532
0.32228921179120107
0.3471503859360041
0.322289197074781
0.25806847041144465
0.17609127143919068
0.10068769482330708
0.05362947733812007
0.08032828663155556
0.10971893266457755
0.13276163000701047
0.14148889665836012
0.13276163381920014
0.10971893934939203
0.080328291617775
0.05362947850670707
0.1006876891117372
0.17609126709305656
0.2580684667282185
0.3222891943210584
0.3471503829518383
0.3222892090343521
0.25806849202086823
0.17609128539118046
0.10068769269355471
0.002896927641302227
0.0036862517715690046
0.0035016121142916745
0.0028044165234746288
0.0015536814218535255
-0.00019944741961808177
-0.0018052103412173892
-0.001625737764470614
0.003300939933637892
0.0028969235536351334
0.0036862472878738117
0.00350160678311795
0.002804410113810718
0.0015536740423272022
-0.00019945519835573577
-0.0018052173247156134
-0.0016257422876151395
0.003300939389873747
0.0028969132869747227
0.0036862377351098985
0.003501595530224222
0.002804396070303028
0.0015536571356733475
-0.00019947374056528133
-0.0018052344063335113
-0.0016257525046512455
0.003300942487669545
0.0028969173797008807
0.003686242219998803
0.0035016008727666303
0.002804402488834512
0.0015536645208271693
-0.00019946598280284888
-0.0018052274252795542
-0.001625747981108816
0.0033009430406423235
-0.04696771316082504
-0.05683266663294262
-0.0658777492682816
-0.07244580272055146
-0.07476859671527336
-0.07244580313312099
-0.06587774944773628
-0.056832666897889794
-0.04696771453302517
-0.02367785564103997
-0.009004283433000637
-0.00040326150440250785
0.0034818234556723837
0.00464730006302716
0.0034818196775177057
-0.0004032687760400222
-0.009004291686210308
-0.023677860313569
-0.01275467287521792
0.0198306426970305
0.03997202671166633
0.050551971230277104
0.05393089866970513
0.05055196504534365
0.039972014575454295
0.01983062927968149
-0.012754679160678961
-0.00815073726263904
0.0343045726473008
0.06111860062472374
0.07536568247166997
0.07994179520341049
0.07536567492024915
0.06111858577189366
0.0343045562655675
-0.008150744461090653
-0.006798820883089807
0.03886122809800599
0.0678667712249888
0.08333340873638807
0.08829645840058606
0.08333340075198153
0.06786675547614866
0.03886121072896717
-0.006798828374402988
-0.00815074216909295
0.03430456261658321
0.06111858686237781
0.07536566656813193
0.07994177861749563
0.07536565901816061
0.06111857201111093
0.03430454622460388
-0.008150749357383802
-0.012754682276579388
0.019830623098386013
0.03997200007728452
0.0505519407044801
0.05393086685688786
0.05055193451656237
0.039971987949542154
0.019830609695560497
-0.01275468856306361
-0.023677866641548917
-0.009004305772521093
-0.0004032907353916926
0.003481790077103142
0.004647265307539783
0.003481786302245382
-0.0004032980116903673
-0.009004314025446547
-0.023677871321353905
-0.0469677186990225
-0.05683267611868814
-0.06587776132755607
-0.07244581635245595
-0.07476861087985753
-0.07244581676434336
-0.06587776151332037
-0.05683267637482459
-0.04696772007417849
0.09874896453226256
0.1523959472031038
0.2241510358065284
0.29082547508301104
0.30343163286312347
0.29082546956755095
0.22415101997785314
0.1523959373974435
0.09874896585762372
0.07874143967234204
0.08564888203636656
0.1391403656139687
0.24247062078302406
0.3183504328053459
0.242470606345762
0.13914035598730834
0.08564888870608911
0.07874144583649922
0.0652041242724124
0.0169156084182589
-0.06737646336705438
0.05130937296254956
0.048498409704791356
0.05130939711870042
-0.06737642110979891
0.016915636382549337
0.0652041336992113
0.0601962221575576
-0.027880571105612262
-0.22681525615041664
-1.0583998398964383
-0.7700750858301433
-1.0583995238783217
-0.22681500927336629
-0.027880544787024064
0.06019623053300904
0.05114003433857149
-0.02055110533910623
-0.3986875373362453
-1.0261183437669767
-10.625497966950322
-1.0261154007696307
-0.39868756011796
-0.0205510771573068
0.0511400458120909
0.06019624037408278
-0.027880519438681972
-0.22681507468750794
-1.0583990661131963
-0.7700716073367744
-1.0583987500984193
-0.22681482781118234
-0.027880493124797567
0.06019624874635099
0.06520415207717178
0.0169156819030718
-0.06737626356348869
0.05130968437680394
0.04849839564573699
0.051309708528719966
-0.06737622131277021
0.016915709857642014
0.06520416149447783
0.07874145956742495
0.08564893235069349
0.13914042660479709
0.24247063147589643
0.31835040057359265
0.24247061704471662
0.13914041696909862
0.08564893901717596
0.07874146572385143
0.09874897238898939
0.1523959618505728
0.22415105314530592
0.29082548585569157
0.3034316441021474
0.2908254803436421
0.2241510373202118
0.15239595203718181
0.09874897370656299
-0.00772552233325996
-0.006102258045473263
-0.008173212934593721
-0.01196562092405884
-0.016574897111922837
-0.02070569024976976
-0.021594692805138038
-0.014564207885996439
0.005798737050838554
-0.011549641506746866
-0.00896776764062679
-0.012304907713200919
-0.01846520141526753
-0.026385522623911584
-0.03442844759371155
-0.03821808248716252
-0.028846858386259555
0.005402960383719346
-0.013256552793848186
-0.010395593067414666
-0.014825870182960443
-0.023225889316279336
-0.03485729940075544
-0.048483332599232654
-0.05830021606627156
-0.04944988095314784
0.0005662480572254935
-0.014159470565473953
-0.011069346107404954
-0.016392367173651223
-0.026579116609468656
-0.04158598797496893
-0.061175552865307736
-0.07854348266876343
-0.07143392485683364
-0.007172782288265012
-0.014455013738148448
-0.011283865294652057
-0.01694313862071764
-0.027852726799770466
-0.044210650219763586
-0.06689106012512364
-0.0873595980025684
-0.0822576923550199
-0.012110895613269876
-0.014159470775283012
-0.011069346327403196
-0.016392367334006508
-0.02657911672891089
-0.04158598792820101
-0.061175551922744376
-0.07854348056832805
-0.07143392105852797
-0.007172780265889855
-0.013256553079685318
-0.010395593256390612
-0.014825870125235951
-0.023225888962429053
-0.03485729834923745
-0.04848333012395756
-0.05830021128224416
-0.0494498753517405
0.0005662508025920943
-0.01154964157547056
-0.00896776751494599
-0.012304907431030188
-0.018465200785044544
-0.02638552140410866
-0.034428445423657195
-0.038218079235946334
-0.028846854872483618
0.005402961520246663
-0.007725522218663627
-0.006102257967427249
-0.008173212823407994
-0.01196562073619134
-0.01657489681366542
-0.020705689853798503
-0.02159469240331191
-0.01456420768533917
0.005798736836993612
-0.018088373589193907
-0.014494072826380489
-0.01894846919049087
-0.027254559301240988
-0.03726297554703706
-0.045977023573414044
-0.04727856392105423
-0.03125956085108328
0.012582660827888503
-0.02673099148506708
-0.020951378169797863
-0.028492848437053908
-0.04249517389041557
-0.0604639005274521
-0.07856664910218569
-0.08677000692705406
-0.06496903271062138
0.01243246444317947
-0.03094234616861513
-0.02404423469977246
-0.03428692812963163
-0.05372449472918106
-0.08071086297763941
-0.11249426858978495
-0.13551428373932595
-0.11522149699226247
0.0016491136124727745
-0.03321103859411778
-0.025510893259138356
-0.03783976249758325
-0.06161498890662642
-0.09686429130636043
-0.14333576305546103
-0.18540717323139688
-0.1699558713926308
-0.01728913061805315
-0.03395371529393287
-0.02597829463729795
-0.03908547729417933
-0.06460168478020023
-0.10317076289913985
-0.1572205728446079
-0.20731752053461605
-0.1970368013571715
-0.029408003022410867
-0.03321103819075688
-0.025510893016189584
-0.037839761839222774
-0.06161498737333204
-0.09686428809993686
-0.14333575618945815
-0.18540716181973949
-0.16995585731422125
-0.017289124496585373
-0.030942345179880704
-0.0240442339868423
-0.034286926530512574
-0.05372449142396363
-0.08071085656388277
-0.1124942569661016
-0.13551426568824354
-0.11522147785535708
0.0016491193120486969
-0.026730990043972724
-0.020951377012465855
-0.02849284651472317
-0.042495170583947584
-0.06046389506923333
-0.07856664073062802
-0.08676999583360612
-0.06496902217702427
0.012432465893880362
-0.01808837301564381
-0.014494072360889731
-0.018948468565099574
-0.02725455837969548
-0.03726297428715952
-0.04597702203619747
-0.04727856240788242
-0.03125955998206109
0.012582660210057384
-0.007725530130358038
-0.006102266716084159
-0.008173223587505163
-0.01196563427856745
-0.01657491299783942
-0.02070570733843624
-0.021594708157749665
-0.014564216866688184
0.005798739526483132
-0.011549644383364921
-0.008967773143297109
-0.012304914930609812
-0.01846520993683498
-0.026385531580899624
-0.03442845533470518
-0.03821808708283925
-0.028846859187865448
0.005402960266110313
-0.013256551570634656
-0.010395596476797664
-0.014825875049012893
-0.023225894252021817
-0.03485730248286245
-0.048483331139777874
-0.05830020809287362
-0.04944987041730542
0.0005662478279759853
-0.014159466680482069
-0.011069347876045299
-0.01639237043583819
-0.0265791190747251
-0.04158598699403626
-0.06117554469435049
-0.07854346571778592
-0.07143390425011376
-0.007172780653590394
-0.014455008759996182
-0.011283866223922537
-0.01694314102784239
-0.027852728010322264
-0.044210647234808664
-0.0668910494903527
-0.08735957771663738
-0.08225766916655135
-0.0121108931788148
-0.014159466459261694
-0.01106934764594314
-0.016392370273976553
-0.02657911895950349
-0.04158598703753569
-0.06117554564151817
-0.07854346782026767
-0.07143390804971261
-0.00717278268128041
-0.013256551291561891
-0.010395596290493359
-0.014825875106595277
-0.023225894611499598
-0.03485730352969085
-0.048483333614967705
-0.05830021286803344
-0.04944987602436868
0.0005662450756460657
-0.011549644319643448
-0.008967773264146217
-0.012304915214542689
-0.01846521056046413
-0.026385532797348787
-0.03442845750504375
-0.03821809033530599
-0.02884686270419934
0.005402959123443907
-0.007725530240747958
-0.006102266800439793
-0.008173223688572762
-0.011965634459102148
-0.016574913288934567
-0.02070570772815472
-0.021594708560087383
-0.014564217066549645
0.005798739750161985
-0.0180883690071596
-0.0144940661833175
-0.01894846090158353
-0.027254549198801215
-0.037262964071260285
-0.04597701192415116
-0.047278554149329466
-0.031259555481028656
0.012582660175553428
-0.026730987948724305
-0.020951371216028747
-0.028492838726833725
-0.042495161289480166
-0.060463885208832835
-0.07856663182508328
-0.08676998951000314
-0.06496901911731356
0.012432467909604838
-0.03094234455318201
-0.024044228208254026
-0.0342869183032235
-0.05372448148568765
-0.0807108462583983
-0.11249424845482281
-0.13551426129686206
-0.11522147761525048
0.0016491219118961453
-0.03321103839289208
-0.025510887223845202
-0.03783975322369315
-0.06161497685206996
-0.09686427729229763
-0.14333574797740312
-0.18540715986353007
-0.169955863739915
-0.017289127167202878
-0.033953715759480474
-0.025978288826763674
-0.03908546852107975
-0.06460167399404781
-0.1031707519067595
-0.1572205645423992
-0.20731752005610815
-0.1970368133439706
-0.029408011943473866
-0.03321103879397924
-0.025510887462473875
-0.03783975387830196
-0.061614978375814644
-0.0968642804978117
-0.1433357548451113
-0.18540717127723383
-0.16995587782071198
-0.0172891332904328
-0.03094234553196884
-0.02404422892095681
-0.034286919909732205
-0.053724484805456996
-0.08071085267897615
-0.11249426006838803
-0.13551427934578442
-0.1152214967545433
0.0016491162193119635
-0.02673098939214924
-0.020951372375407118
-0.0284928406384779
-0.04249516460788527
-0.060463890673759124
-0.07856664019038817
-0.08677000059344664
-0.0649690296480685
0.012432466455777558
-0.01808836958645088
-0.014494066664894945
-0.018948461519642024
-0.0272545501110244
-0.037262965324543984
-0.04597701346631311
-0.047278555668299305
-0.03125955635852051
0.012582660795374068
-0.022272288813724117
-0.022382859274614475
-0.02844875932339619
-0.03744364435016223
-0.04714957778543294
-0.05409902754860241
-0.0524838397853955
-0.033737844131849215
0.009955842339877563
-0.02805637779516701
-0.02750202618426556
-0.03686709190213833
-0.0504517647503917
-0.0658952218864215
-0.0794610568761982
-0.08292622493587487
-0.061508080012288247
0.007729363997441396
-0.030070430449882224
-0.0306973099546326
-0.04280888419305029
-0.06112590682789687
-0.0837590188058357
-0.10761475814229016
-0.12396369033410792
-0.10665084857254215
-0.013395583773274211
-0.031209831346586725
-0.032467280410060084
-0.0469566444951397
-0.06922760606335032
-0.09838757167062795
-0.1339694489525982
-0.1686456675932959
-0.16829110776262723
-0.04123559535480581
-0.031600689696119844
-0.033074157200246646
-0.0484849147925388
-0.07234098801188793
-0.10448868023900104
-0.1443016082188251
-0.19519077797519913
-0.19600317091652641
-0.06343213385133595
-0.031209832986235142
-0.032467281730703235
-0.046956645922932694
-0.06922760826182639
-0.09838757509555762
-0.1339694531055784
-0.16864566841502437
-0.16829110275216408
-0.04123558748722189
-0.030070432745048947
-0.030697311283518047
-0.04280888509020997
-0.06112590791462935
-0.0837590198733551
-0.1076147578007749
-0.12396368482518483
-0.10665083630374284
-0.013395572482295393
-0.028056379139059118
-0.027502026204672347
-0.036867091614738
-0.050451764056617776
-0.06589522049199559
-0.07946105406216475
-0.08292621986566928
-0.06150807303924921
0.0077293685577046745
-0.022272289402394563
-0.02238285935550266
-0.02844875959357296
-0.0374436448980191
-0.04714957865797942
-0.05409902877232753
-0.05248384121341587
-0.033737845284179
0.009955843081002058
-0.015668378577686326
-0.017938962751145482
-0.024135927676809388
-0.03211422465170699
-0.04050887480013898
-0.04699781370226219
-0.0472290221368894
-0.03434981797533965
0.002228641256067476
-0.017312159808909655
-0.020135812445687407
-0.029537188417350535
-0.040980225934220016
-0.05340132905769224
-0.0647339356349903
-0.07073780385121609
-0.060487636240509346
-0.014479751899898474
-0.01617944578714514
-0.021797642562148667
-0.033811951520419825
-0.04935560659515659
-0.06761323409398301
-0.08855541740069839
-0.10786273469886964
-0.11352689464456489
-0.045072915878222375
-0.015377156865326924
-0.022796695350223217
-0.037295113436186966
-0.05651454419006541
-0.0810861287067155
-0.11200067437260941
-0.15675987717190765
-0.20930162413282005
-0.16997928282540897
-0.0151293564607613
-0.02316918145999125
-0.038661612796261124
-0.05946574518929992
-0.0869816428885315
-0.12402850934461185
-0.17447242240672267
-0.32354982879053296
-0.2302709114870254
-0.015377160293098768
-0.0227966981212262
-0.037295116725715616
-0.05651454959871671
-0.08108613794354369
-0.11200068938194363
-0.15675989563828807
-0.20930162002389352
-0.1699792595285885
-0.01617945135097898
-0.021797646131801685
-0.03381195516953994
-0.049355612195256526
-0.06761324269450597
-0.08855542850153597
-0.10786274326335388
-0.1135268831983467
-0.045072888711672476
-0.017312164330917312
-0.020135814383422712
-0.029537190617020315
-0.04098022893873576
-0.05340133296408567
-0.0647339396561506
-0.07073780534034313
-0.06048763166694471
-0.014479737886290422
-0.015668380339889154
-0.017938963676499498
-0.02413592909243789
-0.03211422685905063
-0.04050887790702973
-0.04699781762809607
-0.04722902630129511
-0.03434982072269577
0.0022286428251732104
-0.008536951703206341
-0.01511159755960989
-0.021251522019497315
-0.027918533118167943
-0.0342334576418466
-0.03855087001591073
-0.03981006874784043
-0.03245527428134665
-0.011364744318854036
-0.003477659925408716
-0.013299072320819505
-0.022210834865688867
-0.030420191155656084
-0.03722128735677188
-0.04211802454642566
-0.04339521070022556
-0.04694014118172163
-0.029804789309025637
0.0019640658481989703
-0.013368475200365992
-0.02462216643357351
-0.036037642759481514
-0.046986621626217584
-0.05572274867103033
-0.06705381609401684
-0.07075676578682533
-0.1146194635546749
0.005304862289733592
-0.013603967293761343
-0.027379477093631976
-0.04216972090478066
-0.0592129690143679
-0.07851567605484888
-0.0982257013781691
-0.16538823713091233
-0.19222941561156404
0.006394858063117681
-0.013758161534326518
-0.02857034365928257
-0.0450006341600897
-0.06521005171055094
-0.09325221386933435
-0.13014113802142901
-0.1794275936615577
-1.0028147454747227
0.0053048573957426015
-0.013603971096529222
-0.027379481807372485
-0.0421697289453391
-0.05921298375420747
-0.0785157028243475
-0.09822575373607378
-0.16538830602490862
-0.19222930515024927
0.001964057532973129
-0.013368480319002174
-0.024622172165550182
-0.03603765219003208
-0.046986637310453716
-0.055722773974196116
-0.06705384829467675
-0.07075678667496277
-0.11461941979507628
-0.003477667074434976
-0.013299075498480306
-0.022210838836997482
-0.030420197151499906
-0.037221296393283865
-0.04211803633802447
-0.04339522182408473
-0.046940141261131885
-0.02980476962869716
-0.008536953906116196
-0.015111598571792229
-0.021251523779540094
-0.027918536065101307
-0.034233462057102315
-0.03855087591972506
-0.03981007472117426
-0.03245527790028291
-0.011364740129778284
-0.0041885348276196055
-0.012857540066050888
-0.019357443477616698
-0.024861255217416556
-0.02885601862533349
-0.03084439984365872
-0.03254993192089728
-0.03546974452879681
-0.02218996661522965
0.005498784259685863
-0.00792285446308938
-0.017135124086763653
-0.02262100002428724
-0.024304290439033593
-0.02030200265937765
-0.015493863281818676
-0.029014779104699073
-0.06892962381749612
0.014283569630578086
-0.006226477268967301
-0.0178252752605772
-0.025824062727593855
-0.030554409734349974
-0.028534040946283312
-0.010760810620951133
-0.006583574644025703
-0.0661095895425774
0.01947946484514773
-0.005653700480962698
-0.019977529007235262
-0.031367404046363845
-0.04290426039008821
-0.05730782502516263
-0.06564388246940212
-0.039468001915253126
-0.16974730097035717
0.02116946355195637
-0.005570138547398074
-0.021061167608138476
-0.034171314741740844
-0.05058046968397889
-0.07708982928505748
-0.1510175877265283
-0.18266337367097663
0.2084793716840352
0.019479459044561054
-0.005653704894712064
-0.01997753457089857
-0.0313674138136264
-0.042904278586092914
-0.057307860813125444
-0.06564395305298376
-0.03946821775855369
-0.16974764205551196
0.01428355959376404
-0.006226483379208503
-0.017825282300805156
-0.025824074726074286
-0.030554430777726793
-0.028534076253691865
-0.010760871892898649
-0.006583628260443675
-0.06610957821541774
0.005498775410131884
-0.007922858548653267
-0.01713512929407557
-0.022621008282385446
-0.024304303487014067
-0.02030202208405285
-0.015493883561759958
-0.029014776953431465
-0.06892956386417382
-0.004188537228301925
-0.012857541120752103
-0.019357445434025067
-0.024861258694272692
-0.028856024167282612
-0.030844407501234627
-0.03254993911531301
-0.03546974476776654
-0.022189956361472696
-0.0027249764254962533
-0.012017290159823599
-0.018628977995840998
-0.023697593632763303
-0.026826503440473007
-0.027066580171472218
-0.03225019675165851
-0.036767615747300156
-0.02988909324791615
0.008541466844415313
-0.005931718384102128
-0.015244072367814748
-0.01975293427629722
-0.019518183397359598
-0.012511214893273392
0.0014787761114218034
-0.047223406928368045
-0.08590193642181987
0.018530802211451203
-0.0035315108082158986
-0.015255190555587259
-0.02213863561805529
-0.024651289853426725
-0.020979744955893317
0.0024457716122121137
0.06968683287908466
-0.34381992647236725
0.024407027940241258
-0.002607977088375471
-0.017171880459216984
-0.027500459872132635
-0.03836415104916023
-0.05442095169645117
-0.10477519027579299
-0.09125408338557953
0.3213096147199372
0.02631104620602695
-0.0024331569036956102
-0.018206031043589158
-0.030594013066816805
-0.046898673246757866
-0.09072944722216607
-0.2230401234300316
-1.0970379397912897
-3.718225723231252
0.024407021835409853
-0.0026079816979928394
-0.017171886310289042
-0.027500470130122412
-0.038364170332730485
-0.0544209856749642
-0.10477526504444146
-0.0912541377928418
0.32130890436102283
0.018530791583686507
-0.003531517273947987
-0.015255198047290114
-0.02213864860449445
-0.02465131240920003
-0.02097978582076413
0.0024457165494389047
0.06968667684585109
-0.343819369956832
0.008541457407649625
-0.005931722789800739
-0.015244078036795852
-0.01975294333108199
-0.019518198199107398
-0.012511235824811347
0.0014787453660217165
-0.04722336652658984
-0.08590186113372913
-0.0027249788879544212
-0.0120172912279628
-0.018628980024544717
-0.023697597330427894
-0.026826509433759603
-0.02706658877343439
-0.03225020382691042
-0.036767611281158304
-0.029889076101851222
-0.004188539919383061
-0.012857544350595163
-0.019357449070014354
-0.024861264710125397
-0.028856034765681216
-0.030844423863612747
-0.03254996180959324
-0.03546976584360095
-0.02218996771591719
0.005498774827515263
-0.00792286252507779
-0.017135134539500996
-0.022621017780352304
-0.024304321339741364
-0.020302054409825132
-0.015493935488649413
-0.029014857293134355
-0.06892962999165775
0.014283557124031176
-0.0062264878669395785
-0.01782528922558413
-0.025824087024972187
-0.030554454385594454
-0.028534122779063864
-0.010760967095734486
-0.006583791460570865
-0.06610975109882133
0.01947945061758105
-0.005653712457785787
-0.019977545023351695
-0.03136743266819053
-0.04290431465227584
-0.05730793288157088
-0.06564410775803253
-0.039468600631551
-0.16974803739773847
0.0211694487928753
-0.005570150938893903
-0.021061184295376734
-0.034171344733181286
-0.050580527554501487
-0.07708994147441217
-0.15101785040178584
-0.18266391155856354
0.20847636144119974
0.019479444823161884
-0.005653716866191871
-0.019977550591988802
-0.031367442437101545
-0.04290433284899109
-0.05730796866868104
-0.06564417833996572
-0.0394688164674335
-0.16974837848994184
0.014283547093810967
-0.006226493978061853
-0.017825296263623613
-0.025824099026749536
-0.03055447543158607
-0.02853415809448734
-0.010761028369870473
-0.006583845080285755
-0.06610973977112167
0.005498765979240261
-0.007922866604161527
-0.017135139750848793
-0.02262102603745575
-0.024304334377546866
-0.020302073835011925
-0.015493955767880152
-0.02901485514723845
-0.06892957004563982
-0.004188542325394451
-0.012857545405438486
-0.019357451029321737
-0.024861268195678576
-0.02885604031052935
-0.03084443151595906
-0.032549969006367974
-0.035469766079387455
-0.02218995746152075
-0.00853696056938702
-0.015111603829552678
-0.02125152956216425
-0.027918545536920192
-0.03423347720871561
-0.03855089769865572
-0.03981009920209999
-0.03245529687350768
-0.011364736154547472
-0.0034776764033495056
-0.013299084218886037
-0.022210849356270046
-0.03042021492655067
-0.03722132589990679
-0.04211808112768267
-0.043395283359927816
-0.046940193853686196
-0.029804795877566903
0.0019640444216975084
-0.013368490423090407
-0.024622185417797482
-0.036037674936608255
-0.04698667598376005
-0.055722837284918114
-0.06705393764571
-0.07075690373960697
-0.11461942277958315
0.005304838251959154
-0.013603984082294573
-0.027379498466757468
-0.04216975823976554
-0.059213034928916386
-0.07851578802279846
-0.09822588963396583
-0.1653884120865996
-0.19222946950583264
0.0063948331954861715
-0.013758178814384792
-0.028570365787800256
-0.04500067343849423
-0.06521012105929458
-0.09325233907890151
-0.1301413224343264
-0.17942799754428052
-1.0028132415852156
0.005304833358877659
-0.013603987882277124
-0.02737950317970217
-0.04216976628072189
-0.05921304967307606
-0.07851581479138758
-0.09822594199317791
-0.1653884809786632
-0.19222935904974747
0.0019640361131791906
-0.013368495548945702
-0.024622191150285744
-0.036037684369091494
-0.04698669167026992
-0.05572286259246084
-0.06705396984966683
-0.0707569246317803
-0.1146193790185066
-0.00347768355311473
-0.013299087389839315
-0.022210853323656465
-0.030420220916255403
-0.03722133492954072
-0.042118092917860395
-0.04339529448640178
-0.04694019393406279
-0.029804776193401494
-0.00853696276624305
-0.015111604841990811
-0.021251531311179406
-0.02791854848123876
-0.03423348162476714
-0.03855090359991209
-0.039810105176229627
-0.03245530049693457
-0.0113647319714687
-0.01566838678536442
-0.017938967097961722
-0.024135933445677438
-0.03211423315207185
-0.04050888668314201
-0.04699782845978007
-0.04722903700877623
-0.03434982654016494
0.0022286480178195234
-0.017312174161986604
-0.020135820482551026
-0.029537199173773843
-0.040980242015791646
-0.05340135196075835
-0.06473396505128903
-0.07073783421327562
-0.06048765488998242
-0.014479730754089815
-0.016179463316234433
-0.021797651809947638
-0.033811964533924765
-0.04935562692264739
-0.06761326469256801
-0.08855545803982068
-0.1078627778244936
-0.11352691436496798
-0.045072890560504675
-0.015377176184529162
-0.022796705126665984
-0.037295127700474495
-0.0565145673338634
-0.08108616467654883
-0.11200072559250884
-0.15675992551689433
-0.2093016095271878
-0.16997913717790425
-0.015129376360846436
-0.02316919137797413
-0.03866162748983015
-0.059465769228324916
-0.08698168139051177
-0.12402856159519615
-0.17447248844928254
-0.3235497035101389
-0.23027071124556642
-0.015377179606559821
-0.022796707894144674
-0.03729513099358428
-0.05651457274069571
-0.08108617391081907
-0.11200074060195675
-0.15675994398395687
-0.20930160541996656
-0.16997911389125875
-0.016179468879272463
-0.021797655372324698
-0.033811968193560915
-0.04935563252530528
-0.06761327329013511
-0.08855546913571288
-0.1078627863910242
-0.11352690291329282
-0.04507286339782013
-0.017312178690076507
-0.020135822431484485
-0.02953720137224991
-0.04098024502309272
-0.05340135585970529
-0.06473396906454809
-0.07073783569524039
-0.06048765031914627
-0.014479716741391258
-0.015668388549158863
-0.01793896801552819
-0.024135934862385966
-0.03211423534992264
-0.04050888978230205
-0.04699783238282862
-0.047229041173068254
-0.03434982928206409
0.0022286495938033113
-0.02227229120268248
-0.022382860872369292
-0.02844876150129494
-0.037443647445570605
-0.04714958187520324
-0.054099032402973535
-0.0524838445670639
-0.033737847097143
0.009955844394596625
-0.028056381335034075
-0.027502028577941928
-0.03686709528318488
-0.050451769714584316
-0.06589522861935393
-0.07946106503817418
-0.08292623317311154
-0.06150808515451445
0.007729367392869335
-0.030070434451431538
-0.030697312525319376
-0.042808888115985155
-0.061125912914576475
-0.08375902747582131
-0.10761476908442091
-0.12396370103954268
-0.10665085400029284
-0.013395577052108365
-0.03120983556510737
-0.032467283029063765
-0.046956648725313244
-0.06922761292889845
-0.09838758192893238
-0.13396946238094642
-0.16864567926450036
-0.16829110556295745
-0.041235574870142955
-0.03160069399916665
-0.03307415983465489
-0.04848491913526232
-0.07234099517995674
-0.10448869112542525
-0.14430162298378946
-0.1951907892912459
-0.19600315814568603
-0.0634320957874479
-0.031209837213850733
-0.032467284357835524
-0.04695665015742634
-0.06922761512373654
-0.09838758535272518
-0.13396946653335817
-0.1686456800733822
-0.16829110054897
-0.04123556700670861
-0.030070436747791973
-0.03069731385369323
-0.04280888901570279
-0.06112591400619749
-0.08375902853822481
-0.10761476874529308
-0.12396369553584918
-0.10665084172995876
-0.013395565768803408
-0.028056382679608305
-0.02750202860011086
-0.03686709500516372
-0.05045176902098092
-0.06589522721793628
-0.0794610622243681
-0.08292622809454997
-0.06150807817448367
0.007729371960465414
-0.022272291787942322
-0.022382860957407047
-0.02844876177249489
-0.03744364799962341
-0.04714958275042136
-0.054099033622549086
-0.05248384599036626
-0.03373784825311077
0.00995584514419079
SCALARS stress22 float
LOOKUP_TABLE default
-0.006937934639779542
-0.0069379478437952
-0.006937951722420621
-0.006937938512351138
0.03276449328529907
0.03276450519797436
0.032764504602710076
0.03276449269139903
-0.0513462217062397
-0.07955796911950586
-0.10021536639023054
-0.11317291079151914
-0.11759346634378115
-0.11317290793492418
-0.10021536074249582
-0.07955796391735248
-0.05134622029561342
-0.025105298222825922
-0.03452586643723521
-0.04207669956508653
-0.04705186214241053
-0.0487752832269166
-0.047051861411659957
-0.04207669812277004
-0.034525865334529726
-0.025105297970128504
-0.05134622669794453
-0.079557968335223
-0.10021536459439062
-0.11317291163604182
-0.11759347002110196
-0.11317291449456235
-0.10021537024277904
-0.0795579735378027
-0.0513462281103898
-0.025105287738369952
-0.0345258632939931
-0.042076700904459585
-0.04705186677063011
-0.04877528942193976
-0.04705186750479129
-0.04207670234583816
-0.0345258643880868
-0.025105287991095793
0.10068769270137068
0.17609128538764196
0.2580684920183103
0.32228920903483527
0.34715038295190104
0.3222891943161059
0.25806846673341965
0.17609126708691747
0.10068768911096981
0.05362947851108402
0.08032829161959398
0.1097189393518363
0.13276163382153072
0.14148889665744946
0.13276163000620045
0.109718932663327
0.0803282866295092
0.05362947734164436
0.10068769482006701
0.1760912714415781
0.25806847041639003
0.3222891970710364
0.3471503859338292
0.3222892117903342
0.25806849570287227
0.17609128974220312
0.10068769841100789
0.05362946416516934
0.08032828433493933
0.10971894069234622
0.13276164521846567
0.14148891433515587
0.13276164903155063
0.10971894737750176
0.08032828931840186
0.053629465334438464
0.0028969276440307112
0.003686251769948967
0.003501612119606534
0.0028044165370886276
0.0015536814308916291
-0.00019944742535926707
-0.0018052103360162164
-0.0016257377527892913
0.0033009399425054653
0.002896917374471286
0.0036862422183219223
0.0035016008647517083
0.002804402489033464
0.0015536645198039878
-0.00019946598456499487
-0.001805227424114264
-0.001625747978465597
0.0033009430397612505
0.0028969132858946978
0.003686237735166742
0.0035015955324126935
0.002804396067460857
0.001553657137293385
-0.00019947374835282972
-0.00180523440332081
-0.00162575250988084
0.0033009424955992017
0.0028969235489455514
0.0036862472871916907
0.0035016067818958163
0.002804410109803257
0.0015536740422987805
-0.0001994551899997532
-0.0018052173193154886
-0.0016257422811918332
0.0033009393916927365
-0.046967713160540825
-0.023677855641011547
-0.012754672875075812
-0.008150737269033925
-0.006798820879765799
-0.008150742166037617
-0.012754682279989993
-0.02367786664328264
-0.04696771869677718
-0.056832666636182694
-0.009004283436951255
0.01983064268873136
0.034304572645538656
0.03886122809518611
0.034304562606990885
0.019830623097561784
-0.009004305776841193
-0.056832676118744985
-0.0658777492688074
-0.0004032615029814224
0.039972026708596786
0.061118600623160546
0.0678667712204799
0.061118586861596214
0.03997200007799506
-0.000403290731142647
-0.0658777613328283
-0.07244580272423917
0.0034818234550186844
0.050551971231037385
0.0753656824672575
0.08333340873749506
0.07536566656465027
0.050551940701616616
0.003481790077223934
-0.07244581635629999
-0.07476859671286543
0.004647300058586393
0.05393089867142696
0.07994179520216274
0.08829645839698341
0.07994177861258837
0.053930866854586076
0.004647265302507239
-0.07476861087602636
-0.07244580313329863
0.0034818196791590594
0.050551965043780456
0.07536567491471402
0.0833334007462625
0.07536565901439474
0.05055193451135409
0.003481786302806711
-0.07244581676326334
-0.06587774945255376
-0.00040326878547602973
0.03997201457272581
0.0611185857678862
0.06786675547085963
0.0611185720125178
0.03997198794299095
-0.000403298011619313
-0.06587776151309299
-0.056832666897406625
-0.00900429169004724
0.019830629276953005
0.03430455625894524
0.038861210729550066
0.03430454622073853
0.019830609692689904
-0.009004314027777127
-0.056832676381958436
-0.04696771453728843
-0.023677860315018506
-0.012754679155705162
-0.008150744460778014
-0.006798828377441168
-0.00815074935735538
-0.012754688563148875
-0.023677871318056987
-0.04696772006823835
0.09874896454365967
0.07874143967708847
0.06520412427786937
0.060196222155298074
0.05114003433936887
0.0601962403733296
0.06520415207825181
0.07874145956805023
0.09874897239703273
0.15239594720176797
0.08564888203997612
0.01691560842346007
-0.027880571105782792
-0.02055110533464699
-0.02788051944048675
0.016915681902673896
0.08564893235285354
0.15239596186160043
0.22415103580497941
0.13914036562017884
-0.06737646336762282
-0.22681525615156772
-0.3986875373394838
-0.22681507468786322
-0.06737626356371607
0.1391404266079661
0.22415105314831862
0.29082547508223655
0.24247062078129034
0.05130937296133453
-1.0583998399000834
-1.0261183437708183
-1.058399066114596
0.051309684380250076
0.2424706314793923
0.29082548585490287
0.30343163285534164
0.318350432804849
0.04849840970203896
-0.7700750858321909
-10.625497966951283
-0.7700716073360504
0.04849839565021643
0.3183504005708263
0.3034316440996226
0.29082546956847466
0.24247060634712625
0.05130939711744986
-1.0583995238795367
-1.0261154007760496
-1.0583987500987604
0.05130970853398509
0.2424706170453348
0.29082548034229916
0.22415101997668785
0.13914035598426722
-0.06737642111153264
-0.22681500927552634
-0.39868756011863127
-0.22681482780990336
-0.06737622130867749
0.1391404169656596
0.22415103732043917
0.1523959373882633
0.08564888870080267
0.01691563638294724
-0.027880544786171413
-0.020551077160604336
-0.027880493123461747
0.01691570986375268
0.08564893901240112
0.15239595204282352
0.09874896585526471
0.07874144582947906
0.06520413369506173
0.06019623053526857
0.05114004581474774
0.060196248747104164
0.06520416149825792
0.07874146572095242
0.09874897370812619
-0.018088369579828623
-0.014494066662592786
-0.01894846151495244
-0.02725455010687483
-0.03726296532494189
-0.04597701346582994
-0.047278555670288824
-0.031259556354257256
0.012582660794834055
-0.02673098939030183
-0.020951372373218646
-0.0284928406391316
-0.04249516461348435
-0.06046389067498126
-0.07856664019612936
-0.08677000059688567
-0.06496902964960327
0.012432466454299629
-0.030942345536658422
-0.0240442289210705
-0.03428691990849586
-0.053724484806124906
-0.08071085268230149
-0.11249426007296393
-0.1355142793492803
-0.11522149675555227
0.0016491162212446397
-0.03321103879390108
-0.02551088746830743
-0.03783975388177652
-0.06161497837849339
-0.09686428049738538
-0.14333575485051853
-0.1854071712856893
-0.16995587782477628
-0.01728913328449977
-0.033953715763637024
-0.025978288830788926
-0.03908546852589338
-0.06460167399841157
-0.10317075190855994
-0.1572205645404514
-0.20731752005799114
-0.19703681334218864
-0.029408011944250564
-0.03321103839489581
-0.02551088722838557
-0.03783975322784272
-0.06161497685648243
-0.09686427729197078
-0.14333574797991844
-0.1854071598672533
-0.16995586374458327
-0.017289127169817675
-0.030942344547582934
-0.024044228215188923
-0.03428691830733044
-0.05372448149022091
-0.0807108462606152
-0.11249424846008083
-0.13551426130234745
-0.11522147761768053
0.001649121910261897
-0.026730987947587437
-0.02095137122242363
-0.028492838733541248
-0.042495161290304395
-0.06046388521326662
-0.07856663182570855
-0.08676998951310111
-0.06496901911765463
0.012432467904275768
-0.018088369005226923
-0.01449406618297644
-0.0189484608984003
-0.02725454919692538
-0.03726296406566121
-0.045977011923469036
-0.047278554148647345
-0.03125955548225079
0.01258266018024301
-0.007725530244840684
-0.006102266798279743
-0.008173223695820298
-0.011965634459386365
-0.016574913292089377
-0.020705707731934808
-0.02159470855986001
-0.014564217067999152
0.005798739752748361
-0.011549644318449737
-0.00896777326718734
-0.01230491521673116
-0.018465210566319
-0.026385532800503597
-0.034428457506606946
-0.03821809034050716
-0.028846862703460374
0.005402959127792428
-0.013256551295654617
-0.010395596296888243
-0.014825875110545894
-0.023225894612068032
-0.03485730353230565
-0.04848333361709933
-0.058300212872751445
-0.04944987602769402
0.0005662450787440321
-0.014159466467418724
-0.011069347650163763
-0.016392370274473933
-0.026579118962956727
-0.04158598703804728
-0.061175545641447115
-0.07854346782028188
-0.0714339080500963
-0.007172782687007384
-0.014455008763377464
-0.01128386622809785
-0.016943141029713615
-0.027852728016171113
-0.044210647239310674
-0.06689104949612101
-0.08735957771941116
-0.08225766916547173
-0.012110893175503179
-0.014159466680126798
-0.011069347867561419
-0.016392370432754433
-0.0265791190715845
-0.0415859869938231
-0.061175544700404316
-0.07854346571934911
-0.07143390425136431
-0.007172780658692091
-0.013256551571885211
-0.010395596483505187
-0.014825875050178183
-0.023225894252647095
-0.03485730248718255
-0.048483331141596864
-0.058300208089860917
-0.04944987042381399
0.0005662478266117432
-0.011549644381403823
-0.00896777314596875
-0.012304914930666655
-0.01846520994050138
-0.02638553158064383
-0.03442845533706418
-0.03821808708786989
-0.028846859189144425
0.005402960263864998
-0.00772553013072752
-0.006102266710740878
-0.008173223588272549
-0.011965634279675896
-0.01657491299849312
-0.02070570733590671
-0.021594708154253794
-0.014564216865892377
0.005798739527676844
-0.01808837301496169
-0.01449407235205058
-0.018948468564730092
-0.027254558383560834
-0.03726297428792691
-0.0459770220330995
-0.047278562406802394
-0.03125955998240215
0.012582660206419405
-0.026730990047525438
-0.02095137701988392
-0.02849284653052564
-0.04249517057709795
-0.060463895064089
-0.07856664073003117
-0.08676999583849465
-0.0649690221771948
0.01243246589417879
-0.030942345175702712
-0.02404423399212874
-0.034286926530512574
-0.05372449141553659
-0.08071085656389698
-0.11249425696263415
-0.13551426568905356
-0.1152214778576024
0.0016491193056111797
-0.03321103819477145
-0.025510893015493252
-0.037839761838256436
-0.061614987377474506
-0.09686428810042003
-0.14333575618864813
-0.18540716181915684
-0.1699558573133828
-0.017289124499228592
-0.03395371529268548
-0.025978294634531676
-0.039085477291909324
-0.06460168478344538
-0.10317076289910114
-0.15722057285150565
-0.20731752053585722
-0.19703680135644852
-0.0294080030168525
-0.03321103859245511
-0.025510893254057976
-0.03783976249551557
-0.06161498890212158
-0.09686429130917418
-0.14333576305865847
-0.18540717323759992
-0.1699558713924958
-0.017289130617299975
-0.030942346161339174
-0.0240442346994314
-0.03428692813245959
-0.053724494737750206
-0.0807108629833948
-0.11249426857987999
-0.13551428373726537
-0.11522149699129614
0.0016491136154854757
-0.026730991490723
-0.02095137817042314
-0.02849284843557598
-0.042495173897521
-0.06046390052622996
-0.078566649102072
-0.08677000692608772
-0.06496903270749499
0.012432464441985758
-0.018088373592604512
-0.014494072830814275
-0.01894846918600024
-0.027254559294561886
-0.037262975544166466
-0.045977023574266696
-0.047278563926340667
-0.03125956085247594
0.012582660827462178
-0.007725522215565661
-0.006102257962425028
-0.008173212824743814
-0.011965620739715632
-0.01657489681352331
-0.020705689852803744
-0.021594692400185522
-0.01456420768201383
0.005798736838642071
-0.011549641574390535
-0.008967767516566028
-0.012304907423867917
-0.01846520078646563
-0.026385521399731715
-0.034428445425987775
-0.038218079234781044
-0.028846854871261485
0.005402961526414174
-0.013256553074967314
-0.010395593250393631
-0.014825870123019058
-0.023225888959956364
-0.03485729835387019
-0.04848333012498074
-0.058300211280794656
-0.04944987534992151
0.0005662508118575715
-0.014159470780526817
-0.011069346322130968
-0.016392367331832247
-0.02657911672378077
-0.041585987929522616
-0.06117555192031432
-0.07854348056218896
-0.07143392105513158
-0.00717278025649648
-0.014455013740558798
-0.011283865294473117
-0.016943138617762088
-0.0278527267945492
-0.044210650221771175
-0.0668910601222592
-0.08735959799906823
-0.08225769235627922
-0.012110895611499473
-0.014159470567477683
-0.011069346107746014
-0.016392367175711797
-0.026579116608161257
-0.04158598797198465
-0.06117555286101606
-0.07854348266749867
-0.071433924849714
-0.007172782284499135
-0.01325655279455873
-0.010395593067556774
-0.014825870184807854
-0.023225889314289816
-0.034857299396918506
-0.04848333259752735
-0.058300216060700905
-0.04944988094931091
0.0005662480621424493
-0.01154964151081117
-0.008967767642332092
-0.012304907708255541
-0.01846520141026531
-0.026385522619079893
-0.0344284475915515
-0.038218082482814
-0.028846858383445806
0.005402960390910039
-0.007725522328684065
-0.006102258048827025
-0.008173212929193596
-0.011965620917663955
-0.016574897106693243
-0.020705690243715935
-0.021594692802722193
-0.014564207881647917
0.005798737063770432
-0.022272288813041996
-0.022382859278110345
-0.028448759326437312
-0.03744364435252123
-0.047149577787024555
-0.054099027546413936
-0.05248383978485549
-0.03373784413096814
0.009955842340559684
-0.015668378578453712
-0.017938962758535126
-0.02413592767919681
-0.03211422465935243
-0.040508874796529426
-0.04699781370260325
-0.047229022135525156
-0.03434981797090586
0.0022286412593643945
-0.008536951704087414
-0.015111597560860446
-0.021251522021373148
-0.02791853311762793
-0.03423345764483088
-0.03855087001335278
-0.03981006874877835
-0.03245527427824868
-0.01136474431623924
-0.004188534828898582
-0.012857540068182516
-0.01935744347716195
-0.02486125521630811
-0.028856018625759816
-0.030844399842720804
-0.03254993191859512
-0.035469744525045144
-0.02218996661591177
-0.0027249764211774163
-0.012017290163242933
-0.018628977991255624
-0.023697593636029524
-0.026826503437263227
-0.027066580169105237
-0.032250196747753535
-0.03676761574286047
-0.029889093239546582
-0.004188539922182599
-0.012857544353863659
-0.019357449071577548
-0.024861264712768616
-0.028856034769688677
-0.03084442386369801
-0.032549961809820616
-0.0354697658390819
-0.022189967714837167
-0.00853696056938702
-0.015111603827307363
-0.021251529560913696
-0.027918545536010697
-0.03423347721098935
-0.03855089769854203
-0.039810099201503135
-0.03245529686969917
-0.011364736152103205
-0.01566838679138982
-0.01793896709475007
-0.024135933446956415
-0.032114233150537075
-0.04050888667779873
-0.04699782845318623
-0.04722903700593406
-0.034349826533940586
0.0022286480217417193
-0.02227229119830554
-0.02238286087282404
-0.0284487615003286
-0.03744364744929385
-0.04714958187918228
-0.05409903239737446
-0.05248384456376698
-0.03373784709953043
0.00995584440184416
-0.028056377791330078
-0.02750202618440767
-0.03686709190480997
-0.05045176475036328
-0.06589522188795627
-0.07946105687648242
-0.0829262249427245
-0.06150808001518726
0.007729363993917104
-0.01731215980967704
-0.020135812442788392
-0.029537188420704297
-0.040980225937516934
-0.053401329060818625
-0.06473393563811669
-0.07073780385246664
-0.06048763624119147
-0.01447975188986561
-0.003477659932343613
-0.01329907232457117
-0.022210834869810014
-0.030420191159834076
-0.03722128736086461
-0.0421180245484436
-0.043395210701106635
-0.04694014118209111
-0.029804789305956092
0.005498784257525813
-0.007922854465562068
-0.017135124087758413
-0.022621000024400928
-0.02430429044099469
-0.020302002660514518
-0.015493863281335507
-0.02901477910415906
-0.06892962381431289
0.008541466842814316
-0.005931718382953477
-0.015244072366442651
-0.01975293427813085
-0.019518183397423172
-0.01251121489562479
0.0014787761080867767
-0.04722340692720195
-0.08590193642223198
0.005498774826463659
-0.007922862521638763
-0.017135134540865238
-0.02262101777881753
-0.024304321337240253
-0.020302054410592518
-0.015493935488905208
-0.02901485729654496
-0.06892962999339147
-0.0034776764063906285
-0.013299084221728208
-0.02221084935797535
-0.030420214925129585
-0.03722132589859939
-0.04211808112765425
-0.04339528336259946
-0.04694019385286197
-0.029804795874554202
-0.017312174167130934
-0.020135820484910028
-0.029537199178946594
-0.04098024201616113
-0.05340135195862672
-0.06473396504503626
-0.0707378342099787
-0.060487654888873976
-0.014479730747837039
-0.02805638133725097
-0.027502028576464
-0.036867095285430196
-0.05045176970938314
-0.065895228615517
-0.07946106503788997
-0.08292623317103676
-0.061508085152297554
0.0077293673952851805
-0.030070430452084906
-0.03069730995547104
-0.04280888419354767
-0.061125906831662746
-0.08375901880908998
-0.107614758144436
-0.12396369033571375
-0.10665084857468798
-0.013395583772833675
-0.01617944578644881
-0.02179764257053307
-0.03381195152086036
-0.04935560659691873
-0.06761323409497777
-0.08855541740632589
-0.10786273469932439
-0.11352689464916921
-0.04507291588042506
0.001964065844234142
-0.013368475201588126
-0.024622166434483006
-0.036037642762494215
-0.04698662162934397
-0.05572274867361671
-0.06705381609413053
-0.07075676578523371
-0.11461946355497332
0.014283569627124848
-0.006226477272406328
-0.01782527526390254
-0.025824062732539232
-0.030554409734151022
-0.02853404094807388
-0.01076081062188905
-0.006583574644196233
-0.06610958954144053
0.01853080221114567
-0.0035315108109443827
-0.015255190555450326
-0.02213863562315055
-0.024651289855114555
-0.020979744957941193
0.002445771609984604
0.06968683287479394
-0.3438199264707862
0.01428355712509699
-0.006226487870378605
-0.01782528922808524
-0.025824087028951226
-0.030554454385963936
-0.028534122782900795
-0.010760967094853413
-0.006583791463754096
-0.06610975110260142
0.0019640444187416506
-0.013368490426486801
-0.024622185419133302
-0.03603767493686405
-0.04698667598543693
-0.05572283728812977
-0.06705393764571
-0.07075690374185228
-0.11461942277671255
-0.01617946331569442
-0.021797651810430807
-0.033811964541243356
-0.0493556269225337
-0.06761326469089113
-0.08855545803902487
-0.10786277782244724
-0.11352691436312057
-0.045072890560362566
-0.030070434449001482
-0.030697312523983555
-0.04280888811504724
-0.06112591291535807
-0.08375902747464181
-0.10761476908422196
-0.12396370103897425
-0.10665085399816121
-0.013395577052122576
-0.031209831348135708
-0.032467280408518207
-0.04695664449790371
-0.06922760606546774
-0.09838757167353407
-0.13396944895474405
-0.16864566759728916
-0.16829110777053558
-0.04123559535628374
-0.015377156870542308
-0.022796695354003305
-0.03729511343775016
-0.05651454419624713
-0.08108612870778131
-0.11200067437526684
-0.15675987717592932
-0.20930162413475273
-0.16997928282327024
0.0053048622851079585
-0.013603967298479347
-0.027379477095465177
-0.04216972090686966
-0.059212969016797956
-0.07851567605580101
-0.09822570138119602
-0.16538823713446504
-0.19222941561025664
0.01947946484303742
-0.005653700483335911
-0.019977529010432704
-0.03136740404961813
-0.04290426039227668
-0.057307825025617376
-0.06564388246994213
-0.03946800191476996
-0.16974730096873714
0.02440702793389704
-0.0026079770884308573
-0.017171880463180855
-0.027500459877586536
-0.0383641510527184
-0.05442095169857453
-0.10477519027774918
-0.09125408338810814
0.3213096147202208
0.01947945061941425
-0.005653712456023641
-0.019977545026037546
-0.03136743266887265
-0.042904314653313236
-0.05730793288140035
-0.06564410775997942
-0.03946860062968938
-0.1697480374013054
0.0053048382531457605
-0.01360398408787944
-0.027379498467013264
-0.042169758240788724
-0.05921303493114749
-0.07851578802331005
-0.09822588963476164
-0.16538841209067812
-0.1922294695060316
-0.015377176183037022
-0.022796705125657013
-0.03729512770085819
-0.05651456733578186
-0.08108616467387719
-0.11200072559077512
-0.15675992551838647
-0.20930160952821097
-0.16997913717806057
-0.031209835570848554
-0.03246728302941193
-0.046956648731232065
-0.06922761292931767
-0.09838758193154717
-0.13396946238441387
-0.16864567926106133
-0.1682911055638172
-0.04123557487336882
-0.031600689704080226
-0.033074157203914656
-0.04848491479537874
-0.07234098801622951
-0.10448868024369938
-0.1443016082255938
-0.1951907779768891
-0.1960031709206082
-0.06343213385312224
-0.015129356463226287
-0.023169181463485275
-0.03866161280097724
-0.05946574519266469
-0.08698164289361851
-0.12402850934931785
-0.17447242241074462
-0.3235498287949578
-0.2302709114913455
0.0063948580585702075
-0.01375816154018139
-0.028570343662101608
-0.04500063416402611
-0.06521005171436732
-0.09325221387321794
-0.13014113802525956
-0.17942759366373698
-1.0028147454729042
0.02116946354557102
-0.00557013855119276
-0.02106116760798829
-0.03417131474526311
-0.05058046968707579
-0.07708982928911474
-0.1510175877281721
-0.18266337367427277
0.20847937168282832
0.026311046203131155
-0.002433156906773079
-0.018206031044298215
-0.030594013070517276
-0.0468986732515964
-0.0907294472252767
-0.22304012343470034
-1.0970379397957184
-3.718225723230924
0.02116944878862552
-0.005570150939163673
-0.02106118429881497
-0.034171344735369674
-0.05058052755799921
-0.07708994147719395
-0.1510178504038627
-0.1826639115562406
0.20847636143832987
0.006394833191474478
-0.013758178812320013
-0.028570365791470625
-0.045000673441753944
-0.06521012106067085
-0.09325233908295384
-0.13014132243506063
-0.17942799755428251
-1.002813241584756
-0.01512937636061791
-0.023169191381580634
-0.038661627490458386
-0.059465769228387325
-0.08698168139068257
-0.12402856159305264
-0.17447248845651073
-0.3235497035060937
-0.23027071124075016
-0.0316006939996214
-0.033074159835365435
-0.04848491913980979
-0.07234099517944549
-0.10448869112417003
-0.1443016229829288
-0.19519078929009154
-0.19600315814752622
-0.06343209579335071
-0.03120983299017155
-0.03246728173344593
-0.04695664592428983
-0.06922760826230245
-0.09838757509817242
-0.1339694531069
-0.16864566841600492
-0.1682911027546794
-0.04123558749400047
-0.015377160300396042
-0.0227966981227965
-0.037295116732011024
-0.05651454960438684
-0.08108613794929909
-0.1120006893850416
-0.1567598956409597
-0.20930162002730412
-0.16997925953403836
0.005304857392353313
-0.013603971097424505
-0.027379481810498874
-0.042169728949019714
-0.059212983759593385
-0.07851570282912235
-0.09822575374023756
-0.16538830602753762
-0.19222930515535097
0.019479459040312008
-0.005653704896914746
-0.019977534575829736
-0.0313674138201776
-0.04290427858887824
-0.05730786081527128
-0.06564395305635173
-0.03946821776020215
-0.16974764206158
0.024407021832118403
-0.002607981702027473
-0.017171886311516005
-0.02750047013263668
-0.03836417033203077
-0.05442098567687026
-0.1047752650500513
-0.09125413779568703
0.3213089043600377
0.01947944481892705
-0.005653716868764036
-0.01997755059346673
-0.03136744243980161
-0.04290433285038375
-0.057307968671551635
-0.06564417834630376
-0.03946881647073042
-0.16974837849046764
0.005304833361371664
-0.013603987885403512
-0.02737950318189064
-0.04216976628460145
-0.05921304967394292
-0.07851581479644665
-0.09822594199351897
-0.16538848098210224
-0.19222935904790006
-0.015377179609522784
-0.022796707893213863
-0.037295130996511716
-0.05651457274365157
-0.08108617391243911
-0.1120007406037331
-0.15675994398354476
-0.2093016054196255
-0.16997911388708076
-0.031209837214248637
-0.03246728435264856
-0.04695665015933059
-0.06922761512624476
-0.09838758535414627
-0.13396946653632824
-0.16864568007876812
-0.16829110054747076
-0.04123556700816522
-0.030070432748701137
-0.03069731129053821
-0.042808885095141136
-0.061125907917869426
-0.08375901987778889
-0.10761475780526553
-0.12396368482647802
-0.10665083630433969
-0.013395572485976004
-0.01617945135282639
-0.021797646134487536
-0.03381195517067681
-0.04935561220275986
-0.06761324270078717
-0.08855542850446341
-0.10786274326582657
-0.11352688320602056
-0.045072888717328397
0.001964057530145169
-0.013368480325169685
-0.02462217216782392
-0.03603765219327215
-0.04698663731403485
-0.05572277397973835
-0.06705384829899685
-0.07075678667573015
-0.1146194197999364
0.01428355959561145
-0.006226483378782177
-0.01782528230188518
-0.025824074731247038
-0.030554430779574204
-0.028534076259404628
-0.010760871901709379
-0.006583628266383812
-0.06610957821899888
0.0185307915843822
-0.0035315172790717497
-0.015255198050795116
-0.022138648609200118
-0.024651312412288462
-0.02097978582398241
0.002445716548464816
0.06968667684517982
-0.3438193699603005
0.01428354709403834
-0.006226493976953407
-0.01782529627070062
-0.025824099028426417
-0.030554475431983974
-0.02853415809536841
-0.010761028367255676
-0.006583845082900552
-0.06610973977399226
0.0019640361072958967
-0.013368495550764692
-0.024622191154264783
-0.036037684370256784
-0.04698669166995728
-0.055722862593484024
-0.06705396984602885
-0.07075692462919392
-0.11461937902113561
-0.016179468881020398
-0.021797655373887892
-0.03381196819452725
-0.049355632527493754
-0.06761327329434152
-0.08855546913471812
-0.10786278638937574
-0.11352690291695922
-0.045072863397408014
-0.03007043674274712
-0.030697313859448627
-0.042808889014949614
-0.061125914003127946
-0.08375902853822481
-0.10761476874534992
-0.12396369552861586
-0.10665084172809713
-0.013395565767268636
-0.02805637913726855
-0.027502026209134556
-0.03686709162090551
-0.05045176406051155
-0.06589522049191032
-0.07946105406597326
-0.08292621986728932
-0.061508073042148226
0.007729368559012073
-0.01731216433401528
-0.020135814387828077
-0.02953719062057303
-0.040980228943396924
-0.05340133296539307
-0.0647339396612665
-0.07073780534534535
-0.06048763166961635
-0.014479737888990485
-0.0034776670777887375
-0.013299075497144486
-0.02221083883847541
-0.03042019715337574
-0.03722129639933769
-0.0421180363399003
-0.04339522182513633
-0.04694014126243928
-0.02980476963222145
0.005498775404674916
-0.007922858547800615
-0.01713512929825356
-0.022621008283863375
-0.024304303490424672
-0.020302022091442495
-0.015493883564488442
-0.029014776955392563
-0.06892956387048343
0.008541457408341557
-0.0059317227959923
-0.015244078041718012
-0.019752943331326378
-0.019518198201183168
-0.012511235829151701
0.0014787453647215898
-0.047223366530062094
-0.08590186113349318
0.005498765974806474
-0.00792286660421837
-0.01713513975312253
-0.022621026036176772
-0.02430433438743762
-0.020302073838877277
-0.01549395577234236
-0.02901485514422575
-0.06892957005283051
-0.0034776835562979613
-0.0132990873906067
-0.022210853327692348
-0.030420220921115515
-0.03722133493587876
-0.04211809291675195
-0.04339529448560597
-0.04694019393318172
-0.029804776193770977
-0.01731217869541979
-0.020135822431143424
-0.029537201376513167
-0.04098024502178532
-0.053401355862916944
-0.06473396906662288
-0.07073783570220371
-0.060487650317412545
-0.014479716742073379
-0.02805638268250732
-0.02750202860141826
-0.03686709500155416
-0.05045176902078197
-0.06589522721705521
-0.07946106222169647
-0.08292622809520367
-0.06150807817928694
0.0077293719563442664
-0.02227228939767656
-0.022382859356270046
-0.028448759594169815
-0.03744364490017915
-0.047149578658775226
-0.05409902877633499
-0.05248384121605909
-0.03373784528707802
0.009955843084469507
-0.015668380340912336
-0.01793896367385628
-0.024135929097781172
-0.03211422686166543
-0.04050887790606339
-0.04699781762985822
-0.04722902630103931
-0.03434982072411685
0.002228642827759586
-0.008536953910265765
-0.015111598578386065
-0.02125152378150119
-0.027918536064731825
-0.0342334620617919
-0.0385508759197819
-0.03981007472901865
-0.03245527790542724
-0.011364740133416262
-0.004188537227179268
-0.012857541122997418
-0.019357445432689246
-0.024861258699019118
-0.02885602417109112
-0.030844407499103
-0.032549939120059435
-0.035469744770807665
-0.022189956364769614
-0.002724978888750229
-0.012017291229312832
-0.018628980025511055
-0.02369759733451815
-0.026826509439388246
-0.027066588773720923
-0.032250203829107704
-0.03676761128514272
-0.029889076104041123
-0.0041885423238738895
-0.012857545406859572
-0.019357451027104844
-0.02486126819559331
-0.02885604031067146
-0.030844431518033844
-0.03254996901026175
-0.03546976608234331
-0.022189957464945564
-0.008536962772581091
-0.01511160484514562
-0.02125153132004698
-0.027918548484052508
-0.03423348162579032
-0.038550903600992115
-0.03981010517898653
-0.03245530049542822
-0.011364731965301189
-0.015668388555184265
-0.017938968014107104
-0.024135934868695585
-0.03211423535384483
-0.04050888978702005
-0.046997832379588544
-0.04722904117139137
-0.034349829281609345
0.0022286495887158253
-0.022272291783451692
-0.022382860956156492
-0.02844876177050537
-0.03744364799868549
-0.04714958275457093
-0.05409903362482282
-0.05248384599360634
-0.03373784825424764
0.009955845146578213
SCALARS stress33 float
LOOKUP_TABLE default
-0.0056609239595104555
-0.005660928784976704
-0.0056609336134272326
-0.00566092879006419
0.024885510895387597
0.024885510836213598
0.024885510778801745
0.02488551083973789
-0.024071649257109584
-0.03621649759038803
-0.04519837876196675
-0.05095285848705089
-0.05293061490666978
-0.050952857356719505
-0.045198376512487926
-0.0362164955684392
-0.024071648802220125
-0.024071651966750096
-0.03621649807848826
-0.045198378546245976
-0.05095285809861139
-0.05293061449216907
-0.05095285696208407
-0.04519837629123913
-0.03621649605125299
-0.02407165151126378
-0.024071651515328085
-0.03621649605497623
-0.04519837629888457
-0.05095285696170748
-0.05293061448913022
-0.05095285810219963
-0.045198378542067985
-0.03621649808400207
-0.024071651966437457
-0.024071648803527523
-0.03621649557180717
-0.04519837651659486
-0.05095285735185939
-0.0529306149112756
-0.050952858488813035
-0.045198378763672054
-0.036216497592647556
-0.024071649256114824
0.04886016819710903
0.08048768889800328
0.11432503395982963
0.14115717893410107
0.15080621471161215
0.14115717332180822
0.11432502420645108
0.08048768172754706
0.04886016654933201
0.04886016629950518
0.08048768289148711
0.11432502471686234
0.14115716809442347
0.15080620290436286
0.14115716248684862
0.11432501496076952
0.08048767571787607
0.048860164643400594
0.048860164649426
0.08048767571749238
0.1143250149582542
0.14115716248581833
0.1508062029071015
0.1411571680939545
0.1143250247149723
0.08048768288743702
0.04886016629444612
0.04886016654708669
0.08048768172253062
0.11432502420592527
0.14115717332032318
0.15080621471048516
0.1411571789307402
0.11432503396304128
0.08048768889446478
0.04886016819872907
0.001966016138453597
0.0029936710863864846
0.0029876858243653714
0.002387711388337266
0.0012434095408764279
-0.0002929659615631408
-0.0015516814400768908
-0.001129149241222649
0.003112711954884162
0.0019660112547228437
0.0029936653945981107
0.002987679083759076
0.002387703680511777
0.0012434013223980855
-0.0002929738267027915
-0.0015516877855645816
-0.0011291528959418429
0.0031127117441656083
0.0019660063687467755
0.0029936597043160873
0.00298767234497177
0.002387695970327286
0.0012433931024133926
-0.0002929816922403461
-0.001551694126504799
-0.0011291565544411242
0.0031127115184972354
0.0019660112535575536
0.002993665392125422
0.002987679078302108
0.002387703679829656
0.0012434013163442614
-0.0002929738276122862
-0.0015516877859624856
-0.0011291529011998591
0.0031127117359517342
-0.02225975907646216
-0.02232437900048012
-0.0245929847605737
-0.027308598309417675
-0.028364222594632338
-0.0273085995022484
-0.024592986836154296
-0.022324381400920856
-0.022259761965244707
-0.02232437899877482
-0.014020847759326216
-0.010531250253535518
-0.010431389089092136
-0.010632334845524838
-0.01043139213794575
-0.010531255977781484
-0.014020854358335555
-0.022324384167831113
-0.024592984763302184
-0.01053125025339341
-0.0037130449110946984
-0.0020521543130485043
-0.0017911243461128379
-0.002052158695803996
-0.003713053086130458
-0.010531259232422485
-0.02459299129959902
-0.027308598308017906
-0.010431389086249965
-0.0020521543137377307
0.00016179213451295027
0.0005660300304271004
0.0001617870420602685
-0.002052163726489198
-0.010431399397930363
-0.02730860563800519
-0.028364222589027682
-0.01063233484688178
-0.0017911243398827104
0.0005660300288766462
0.000997607271714246
0.0005660247131475393
-0.0017911341553842608
-0.010632345582638064
-0.028364230187993417
-0.027308599495583508
-0.010431392133973816
-0.002052158693970796
0.0001617870372569996
0.0005660247119791961
0.0001617819418555655
-0.002052168113259256
-0.010431402442478088
-0.027308606829400617
-0.024592986831692087
-0.010531255979472576
-0.0037130530859457167
-0.002052163726588674
-0.0017911341555389981
-0.0020521681089746835
-0.0037130612578977207
-0.010531264957961639
-0.024592993365843085
-0.022324381402739846
-0.014020854357966073
-0.010531259233800938
-0.010431399397987207
-0.010632345583275082
-0.01043140244715346
-0.010531264954011021
-0.014020860955668013
-0.022324386571227706
-0.02225976196461943
-0.022324384168229017
-0.024592991299300593
-0.027308605637301753
-0.02836423018763412
-0.027308606827261883
-0.024592993367292593
-0.022324386568101318
-0.022259764851526143
0.043651537234694615
0.054382935733258364
0.07029656289543595
0.08988932927039173
0.08422497418794705
0.0898893345610361
0.07029656628162684
0.05438293881718437
0.043651541428374685
0.05438293573322994
0.042513028962503085
0.04179457491488847
0.05428684157817543
0.11654609781257363
0.054286844301572046
0.04179459500355165
0.042513044270947375
0.05438294414450695
0.07029656289611808
0.041794574913623705
-0.07990273282049998
-0.053351008513701004
-0.30144048539432333
-0.053350906726450376
-0.07990267252353078
0.041794603599839775
0.07029657475172257
0.08988932927374549
0.054286841578225165
-0.05335100851432628
-1.2480512271265738
-0.09835215636661587
-1.2480510715372617
-0.0533506606371148
0.05428684587735688
0.08988933850054792
0.08422497419262723
0.11654609781586854
-0.3014404853935807
-0.09835215636564724
-21.304596646277638
-0.09834631524514878
-0.30144095524662895
0.11654611867006483
0.08422499115309771
0.08988933456452486
0.054286844302041004
-0.05335090672500087
-1.24805107153621
-0.09834631524780946
-1.2480509159436721
-0.05335055885197448
0.05428684860087429
0.08988934379431157
0.0702965662827637
0.041794595006834356
-0.07990267252199601
-0.05335066063722138
-0.3014409552451127
-0.05335055885005602
-0.07990261222130357
0.04179462369113196
0.07029657813873769
0.05438293881451273
0.04251304426806257
0.04179460360305143
0.05428684587587895
0.11654611867083986
0.0542868486044199
0.04179462369245357
0.04251305958447915
0.054382947228234
0.04365154143249583
0.05438294414645384
0.07029657475217732
0.08988933849877867
0.08422499115198434
0.08988934379013358
0.07029657813896506
0.054382947229299816
0.04365154562717066
-0.007600574687501194
-0.006269491632338031
-0.008266966154764077
-0.01188160381917669
-0.016189266981598394
-0.019864320024510107
-0.020276184245290096
-0.013255651534109347
0.005609597514620646
-0.011573540116671666
-0.009144749502070226
-0.012621875727404586
-0.018840855210584095
-0.026698182831410122
-0.03447979675743795
-0.03781030477307468
-0.028121177455545876
0.005587401588286411
-0.013500255654690818
-0.010656388521894655
-0.015393843849608402
-0.02418110300105525
-0.03620329468654404
-0.05007335645319699
-0.05968175699130995
-0.05006970421675305
0.0007963404557358444
-0.014562634183469925
-0.01143954768065214
-0.017198458196077127
-0.028067284865869624
-0.04393610865795239
-0.06436457144804564
-0.08190244264333302
-0.07382364147341747
-0.007321364123527019
-0.014914706514392195
-0.011701938022986469
-0.01785003814316083
-0.02956261519934522
-0.047002709144038035
-0.07076586845840993
-0.09169332923309084
-0.08553377794672948
-0.012812252532618279
-0.014562634102951222
-0.011439547658376625
-0.01719845800758435
-0.028067284362649048
-0.04393610752978816
-0.06436456883913877
-0.08190243827073829
-0.07382363584178364
-0.007321361538544124
-0.013500255360142432
-0.010656388258553307
-0.015393843175814936
-0.024181101625671886
-0.036203292048142544
-0.050073351749801986
-0.059681749727090505
-0.05006969660813354
0.000796342972037678
-0.011573539640750141
-0.00914474899886386
-0.012621874888765205
-0.018840853796177726
-0.026698180561993468
-0.03447979336166895
-0.03781030033937327
-0.028121173238446318
0.00558740235740629
-0.007600574576457575
-0.006269491483493539
-0.008266965992845599
-0.011881603577734268
-0.0161892666209269
-0.01986431955617718
-0.020276183773262346
-0.013255651301079752
0.005609597313792847
-0.007600578666512092
-0.006269500135488215
-0.008266976617562705
-0.011881614901113835
-0.01618927700229733
-0.019864326850779435
-0.020276186477161673
-0.013255650541083241
0.0056095964604878645
-0.011573543431836697
-0.009144759372105682
-0.012621888958193495
-0.018840869394722404
-0.02669819505331361
-0.03447980349173463
-0.03781030402029728
-0.02812117279688664
0.005587399655240688
-0.013500258868958781
-0.01065640013868574
-0.015393860062516751
-0.02418112128799521
-0.03620331120788478
-0.050073365636990275
-0.05968175445772772
-0.050069694043259005
0.0007963398083745687
-0.014562637601386541
-0.011439560761743905
-0.01719847691197174
-0.02806730677411906
-0.043936129348082886
-0.06436458311810611
-0.08190243728262203
-0.07382362273608578
-0.007321359472229005
-0.014914710048316238
-0.011701951676258204
-0.017850057849670975
-0.02956263858419561
-0.04700273161250834
-0.07076588114074411
-0.09169332202742453
-0.08553375396286356
-0.012812243932188494
-0.014562637513023446
-0.011439560737983356
-0.017198476723990552
-0.028067306273214854
-0.04393612822070736
-0.0643645805135975
-0.08190243291122101
-0.07382361709721863
-0.0073213568891503655
-0.013500258576527813
-0.010656399876097566
-0.015393859388154851
-0.02418111990698435
-0.03620330856995224
-0.05007336092694459
-0.05968174719518515
-0.050069686438973804
0.0007963423300338945
-0.011573542964043781
-0.009144758867705605
-0.012621888115347701
-0.01884086798654039
-0.02669819279441299
-0.03447980009420348
-0.03781029959071702
-0.028121168586153544
0.00558740042325212
-0.007600578545407188
-0.006269499986530036
-0.00826697645686636
-0.011881614655862904
-0.01618927663901104
-0.01986432638381075
-0.020276186003655994
-0.013255650308735767
0.005609596254942062
-0.0076005785479367205
-0.006269499987809013
-0.008266976457150577
-0.011881614659529305
-0.016189276640403705
-0.019864326382929676
-0.020276186005787622
-0.013255650305382005
0.005609596256761051
-0.011573542966146988
-0.009144758871400427
-0.012621888118786728
-0.01884086797940654
-0.02669819279057606
-0.034479800096704594
-0.03781029958906856
-0.028121168585300893
0.005587400423991085
-0.013500258577195723
-0.010656399874591216
-0.015393859388240116
-0.02418111990566274
-0.03620330857242493
-0.050073360926546684
-0.059681747198354174
-0.05006968643903065
0.0007963423293233518
-0.014562637522423927
-0.011439560738253363
-0.01719847672851671
-0.02806730627382592
-0.043936128221616855
-0.06436458051249616
-0.0819024329118605
-0.07382361710504881
-0.007321356888297714
-0.01491471004710207
-0.011701951678008776
-0.017850057850862397
-0.029562638585248435
-0.047002731614398066
-0.07076588114069289
-0.09169332202546478
-0.08553375396060124
-0.012812243931574777
-0.014562637599894401
-0.011439560761438372
-0.017198476915332606
-0.028067306778666534
-0.043936129354392506
-0.06436458312190751
-0.08190243728495972
-0.07382362273651921
-0.007321359471426092
-0.013500258871602
-0.010656400139879452
-0.015393860062076214
-0.024181121287725205
-0.03620331121138065
-0.0500733656380703
-0.05968175446056989
-0.05006969404729489
0.0007963398085593099
-0.011573543436639966
-0.009144759371338296
-0.01262188895779559
-0.018840869395262416
-0.026698195055814722
-0.034479803490825134
-0.0378103040216331
-0.02812117280086568
0.005587399652341674
-0.007600578665858393
-0.006269500134919781
-0.00826697662080278
-0.011881614902733872
-0.016189277006560587
-0.019864326854616365
-0.02027618647696272
-0.013255650540173747
0.005609596457730959
-0.007600574572563801
-0.006269491481276646
-0.00826696599884258
-0.011881603578075328
-0.01618926662487752
-0.019864319559957266
-0.020276183777212964
-0.013255651300994487
0.005609597312229653
-0.011573539641148045
-0.00914474900301343
-0.012621874888878892
-0.018840853795381918
-0.026698180565887242
-0.03447979336428375
-0.03781030034122068
-0.02812117324165797
0.005587402353881998
-0.013500255364391478
-0.010656388257530125
-0.015393843175559141
-0.024181101624776602
-0.036203292048014646
-0.050073351754122086
-0.05968174972647944
-0.050069696610052006
0.000796342971256081
-0.014562634101139338
-0.011439547655243132
-0.017198458006646433
-0.028067284365477008
-0.04393610753362509
-0.06436456884182462
-0.08190243827269228
-0.07382363584233076
-0.007321361542096838
-0.014914706517259901
-0.011701938017949942
-0.01785003814461561
-0.029562615196823572
-0.04700270914304383
-0.07076586845971633
-0.09169332923568163
-0.08553377794706307
-0.012812252536321012
-0.014562634182283318
-0.011439547680794249
-0.01719845819616239
-0.028067284867177023
-0.043936108655145745
-0.06436457144923224
-0.08190244264548596
-0.07382364147133558
-0.00732136412321438
-0.013500255654122384
-0.010656388523244686
-0.01539384384875575
-0.0241811030037411
-0.03620329468816408
-0.050073356456380225
-0.059681756992489454
-0.05006970421453616
0.0007963404543716024
-0.011573540116131653
-0.009144749503860794
-0.012621875727830911
-0.018840855215415786
-0.026698182826919492
-0.034479796756500036
-0.03781030477068725
-0.028121177453044766
0.0055874015878885075
-0.007600574684630601
-0.006269491631002211
-0.008266966156696753
-0.011881603819261954
-0.016189266987282735
-0.01986432002757965
-0.020276184244295337
-0.013255651534933577
0.005609597516752274
-0.012023332469937031
-0.02228271800899506
-0.02733803096808174
-0.03036051073857493
-0.03035410330980426
-0.025514299386969697
-0.015891774863689534
-0.00500486327163685
0.0004128473362641216
-0.01542898280641225
-0.027717379512040452
-0.03687565410774596
-0.04261243857695263
-0.04334747341661682
-0.036778133784906686
-0.023303509207181605
-0.009182969826696308
0.00018637290014567043
-0.01764200690945472
-0.0337257850570154
-0.04617118361164785
-0.05645931042806751
-0.06115340819158632
-0.05550025961645133
-0.03917340225160615
-0.018500950840376618
-0.007237516674450717
-0.01953244558549727
-0.038362458107940256
-0.05391920380438364
-0.06853921626375836
-0.07751230400293707
-0.0736492692660704
-0.055244682252180155
-0.03468288109215223
-0.015370028628325372
-0.02026982819771206
-0.040143222508419285
-0.05697842328191882
-0.07345273504037664
-0.08466971991626338
-0.0800907069440484
-0.06610971177121883
-0.04073152837261773
-0.024660493443349196
-0.019532446980150553
-0.03836245880387423
-0.05391920440291642
-0.06853921752124847
-0.07751230693915545
-0.07364927528672638
-0.05524469017041156
-0.034682886706974614
-0.015370026853275931
-0.017642008961843203
-0.03372578525249992
-0.04617118308030399
-0.056459310029282506
-0.0611534088396013
-0.05550026277899178
-0.03917340768896338
-0.0185009551749431
-0.0072375122198593544
-0.015428984620768915
-0.027717379115870244
-0.03687565322175601
-0.042612437649324875
-0.043347473072486764
-0.03677813470872593
-0.02330351152099297
-0.009182971718360022
0.00018637549055711133
-0.012023333828750538
-0.022282718009421387
-0.027338031394435802
-0.030360511837301374
-0.03035410522537063
-0.025514302174030945
-0.01589177815367293
-0.005004865829221217
0.0004128489703703053
-0.015428982806923841
-0.027717379508573003
-0.03687565410427851
-0.0426124385761284
-0.04334747341707157
-0.03677813378251926
-0.02330350920775004
-0.009182969827975285
0.0001863728973603429
-0.02039524373316226
-0.03438825834979298
-0.051907994104851696
-0.06412381612548756
-0.06853288016472447
-0.06144037014877313
-0.043873170071293544
-0.024971381126562164
-0.008710792921647226
-0.02338538180197247
-0.04213834677867112
-0.06678174568733652
-0.08925179494622171
-0.10443414097784398
-0.10517149124027014
-0.08452762218902876
-0.0540331329050332
-0.019503256455777773
-0.025990981104627053
-0.0485626966552104
-0.07961515875987857
-0.1118298941931073
-0.1404055073974746
-0.15131416065594294
-0.1293474333876361
-0.08500948463398572
-0.065101850277415
-0.027042718621487438
-0.05110580437224144
-0.0847644396673104
-0.12120096294074756
-0.15627756764678224
-0.17557779904080917
-0.13851219177746543
-0.13497346786954267
-0.07775179519668995
-0.025990983752961938
-0.0485626982203371
-0.07961516001302016
-0.111829896218552
-0.14040551158629455
-0.15131417003826186
-0.1293474542492845
-0.08500950335081825
-0.06510184741549097
-0.023385385851554474
-0.04213834802780525
-0.06678174536631332
-0.08925179413725459
-0.10443414066284618
-0.10517149362382838
-0.08452763115940343
-0.05403314100084344
-0.019503251675217825
-0.020395247226986157
-0.03438825871458562
-0.051907993256037344
-0.0641238147792933
-0.0685328791425377
-0.06144037044342099
-0.04387317187624262
-0.024971382074113535
-0.008710783335459382
-0.015428984877615903
-0.027717379765647365
-0.03687565502841039
-0.04261244065529013
-0.04334747696412933
-0.036778138911643055
-0.02330351537548836
-0.00918297476926
0.00018637498675388997
-0.017642006910023156
-0.03372578505653223
-0.04617118361137784
-0.05645931042593588
-0.061153408188445724
-0.05550025961709082
-0.039173402250739287
-0.018500950841030317
-0.007237516676553923
-0.023385381798917138
-0.04213834678010642
-0.06678174568556017
-0.08925179494377744
-0.10443414097846926
-0.10517149123947434
-0.08452762218962562
-0.05403313290491951
-0.019503256456587792
-0.027020783656780623
-0.05243136632529399
-0.08805746165322148
-0.12907896612853165
-0.17004576075220257
-0.1974766156213832
-0.1956748988756658
-0.14527998116801655
-0.11412813302212044
-0.030169490258757037
-0.06095694261264839
-0.1064334411574066
-0.16512885464999272
-0.23686870545117245
-0.3128860297014171
-0.3412032907077105
-0.27371407459079933
-0.11820407652925269
-0.031443846478438786
-0.06434489831946166
-0.11381905035182172
-0.18023328795499083
-0.26666343339050513
-0.3736153396004056
-0.4529069176074927
-0.23622195935115542
-0.49966293593502087
-0.030169493777236767
-0.060956944569483085
-0.10643344246471997
-0.165128856122152
-0.23686870793127923
-0.31288603454297004
-0.3412033103861347
-0.27371415248302355
-0.11820408167218943
-0.027020788935914197
-0.05243136774818424
-0.0880574605452864
-0.1290789628382356
-0.17004575431963076
-0.19747660587651694
-0.1956748891572886
-0.14527998294380495
-0.11412810341973056
-0.023385385997045205
-0.042138346882325095
-0.06678174384744295
-0.08925179131935579
-0.10443413586105521
-0.10517148482966832
-0.08452761470996961
-0.054033121190968814
-0.019503237089466552
-0.01764200921586223
-0.03372578512687596
-0.046171184614820504
-0.05645931296824358
-0.06115341281480369
-0.055500266712343205
-0.03917341053812606
-0.018500956855959316
-0.00723751214513868
-0.01953244558266931
-0.038362458108281317
-0.05391920380338178
-0.06853921626347415
-0.07751230399934173
-0.07364926926439352
-0.05524468225264911
-0.03468288109131379
-0.015370028628552745
-0.025990981104889954
-0.048562696657427296
-0.07961515876183967
-0.11182989419256728
-0.14040550739544244
-0.1513141606569235
-0.12934743338468024
-0.08500948463374414
-0.0651018502761147
-0.030169490255730125
-0.0609569426107015
-0.10643344115848663
-0.16512885465148486
-0.23686870545212457
-0.31288602969939916
-0.34120329070883315
-0.27371407459119723
-0.11820407653213749
-0.033833044385325195
-0.07127780759186919
-0.12964389497777518
-0.2138583192551664
-0.33684364230659014
-0.5218003232051558
-0.7614047340897656
-0.8750653358621605
-0.8343117088832344
-0.035314919742347683
-0.07537153719448497
-0.1390230455522783
-0.2343171161141413
-0.38351350525032046
-0.6315439327175341
-1.098176248914669
-1.642396232273967
-0.24612421524606987
-0.03383304834394352
-0.0712778096137896
-0.12964389593385306
-0.21385831945491418
-0.3368436402594597
-0.5218003150445014
-0.7614046995592503
-0.8750653310839169
-0.8343120231117211
-0.030169496068324975
-0.06095694376557503
-0.10643343887029744
-0.16512884818274642
-0.23686869100073693
-0.3128859974750924
-0.3412032299293202
-0.2737139556211332
-0.11820388697954343
-0.025990985613525197
-0.048562696345435086
-0.07961515583400569
-0.11182988819518869
-0.14040549719831574
-0.1513141450324582
-0.129347409317063
-0.08500944284376999
-0.06510177951564344
-0.0195324479801684
-0.038362457999774335
-0.05391920480263934
-0.0685392190869365
-0.07751230960612077
-0.07364927821669198
-0.05524469153840528
-0.03468288201249692
-0.015370016539847597
-0.02026982819497708
-0.04014322250541166
-0.05697842328064717
-0.07345273503977492
-0.08466971991660971
-0.08009070694363893
-0.06610971176841576
-0.04073152837137611
-0.02466049343934812
-0.027042718623189133
-0.051105804370053964
-0.08476443966862954
-0.12120096293866076
-0.15627756764393153
-0.17557779903869397
-0.13851219177692914
-0.13497346786614733
-0.0777517951958373
-0.03144384648030041
-0.06434489831693213
-0.11381905035640674
-0.18023328795122648
-0.26666343338840387
-0.3736153395984513
-0.45290691760594737
-0.23622195934920068
-0.499662935933607
-0.03531491974074752
-0.07537153719527778
-0.13902304555132053
-0.23431711611283657
-0.3835135052493739
-0.6315439327176262
-1.0981762489157618
-1.642396232274834
-0.24612421524417893
-0.036882267735951435
-0.07975944707032259
-0.14920818525478635
-0.25757411571348793
-0.4383352546135499
-0.7943774975791436
-1.5914046155955635
-4.5707772051114475
-13.983118417516456
-0.03531492382284365
-0.07537153919146147
-0.13902304629912593
-0.23431711544071085
-0.3835135002724722
-0.6315439066344791
-1.0981761626412299
-1.6423956592929123
-0.2461224527552661
-0.031443852439044406
-0.0643448993253228
-0.1138190475128295
-0.18023328011073625
-0.2666634144414913
-0.37361529752351735
-0.4529067994237975
-0.23622180025231748
-0.49966238433960036
-0.02704272321975351
-0.051105803866520416
-0.08476443628580763
-0.1212009558496013
-0.15627755530100554
-0.17557777652443507
-0.13851216283759057
-0.13497337574959986
-0.07775169121732145
-0.02026983062137333
-0.04014322233162204
-0.05697842427046851
-0.0734527379748934
-0.08466972588603668
-0.08009071725851669
-0.06610971954051227
-0.04073152434955938
-0.02466047135027235
-0.01953244698009371
-0.038362458804883204
-0.053919204401495335
-0.06853921752137637
-0.07751230693651223
-0.0736492752851916
-0.05524469016721412
-0.034682886706676186
-0.01537002684869293
-0.02599098375350195
-0.04856269821902259
-0.07961516001537916
-0.1118298962160793
-0.1404055115908136
-0.15131417003877345
-0.12934745424726657
-0.08500950334823187
-0.06510184741652125
-0.03016949377751388
-0.06095694456820411
-0.1064334424626594
-0.16512885612186778
-0.2368687079321461
-0.31288603454052577
-0.34120331038550944
-0.27371415248157405
-0.11820408167253049
-0.03383304834140688
-0.07127780961495489
-0.12964389593253145
-0.21385831945735845
-0.33684364025718594
-0.5218003150470452
-0.761404699558895
-0.8750653310834764
-0.8343120231127301
-0.03531492382269619
-0.0753715391927301
-0.13902304629650075
-0.23431711544104417
-0.3835135002738781
-0.6315439066370061
-1.098176162640243
-1.6423956592945501
-0.2461224527543635
-0.03383305229995415
-0.07127781163565317
-0.12964389689115308
-0.21385831965781676
-0.3368436382112918
-0.5218003068854102
-0.7614046650274418
-0.8750653263036838
-0.8343123373393553
-0.030169499588019733
-0.06095694572375976
-0.10643344017142908
-0.16512884965550256
-0.23686869348011896
-0.3128860023179243
-0.3412032496059254
-0.27371403351243373
-0.11820389211985116
-0.02599098826226509
-0.04856269790905543
-0.07961515709311584
-0.11182989022036338
-0.1404055013890968
-0.15131415441638296
-0.12934743017709138
-0.08500946155658085
-0.06510177664954142
-0.019532449380811556
-0.0383624586977902
-0.05391920539994288
-0.06853922034738957
-0.07751231254131596
-0.07364928423454842
-0.05524469945642352
-0.034682887626246384
-0.0153700147611886
-0.017642008959739996
-0.03372578525041092
-0.046171183079394496
-0.05645931002833038
-0.06115340883613385
-0.05550026277811071
-0.039173407687883355
-0.018500955171717237
-0.0072375122184809015
-0.023385385852236595
-0.0421383480280042
-0.0667817453632864
-0.08925179413313344
-0.10443414066165246
-0.10517149362289047
-0.08452763115747075
-0.05403314099748968
-0.01950325167130984
-0.027020788936027884
-0.0524313677507422
-0.08805746054443375
-0.12907896283655873
-0.17004575431866442
-0.19747660587282212
-0.19567488915785702
-0.14527998294082067
-0.11412810342052637
-0.030169496067344426
-0.06095694376551819
-0.10643343887088008
-0.16512884818263274
-0.23686869099790897
-0.3128859974727618
-0.34120322992677643
-0.2737139556221848
-0.11820388697697126
-0.03144385243793124
-0.06434489932320275
-0.11381904751232241
-0.18023328010954742
-0.26666341444004615
-0.373615297524168
-0.45290679942277734
-0.23622180025330408
-0.4996623843402688
-0.030169499587316295
-0.06095694571951071
-0.10643344017267964
-0.16512884965376884
-0.23686869348102846
-0.31288600231499686
-0.3412032496049733
-0.2737140335096626
-0.11820389211899851
-0.02702079421732151
-0.052431369174570364
-0.08805745943777765
-0.12907895954461424
-0.17004574788734317
-0.19747659612502844
-0.1956748794371208
-0.14527998471626802
-0.11412807381431378
-0.02338539004917095
-0.042138348125490666
-0.06678174352742872
-0.08925179051286136
-0.10443413554403946
-0.10517148721115177
-0.08452762367986111
-0.05403312928376636
-0.019503232306917084
-0.017642011263291124
-0.033725785323127866
-0.04617118408359033
-0.05645931256903225
-0.061153413464353434
-0.055500269873192565
-0.03917341597369273
-0.018500961186504128
-0.007237507688557798
-0.015428984621109976
-0.02771737911714922
-0.03687565322152864
-0.04261243764736378
-0.04334747307021303
-0.036778134708839616
-0.02330351152201615
-0.009182971716541033
0.0001863754919781968
-0.020395247224570312
-0.03438825872055418
-0.0519079932529678
-0.06412381478037332
-0.06853287914259454
-0.06144037044163042
-0.04387317186919404
-0.02497138207371563
-0.008710783336397299
-0.02338538599579465
-0.04213834687664075
-0.0667817438464624
-0.08925179132040739
-0.10443413586068573
-0.10517148482659877
-0.08452761471005488
-0.054033121189519306
-0.01950323708811652
-0.025990985613418616
-0.048562696344504275
-0.07961515583528467
-0.1118298881940234
-0.14040549720033368
-0.15131414503312612
-0.12934740931439137
-0.08500944284239154
-0.0651017795127018
-0.027042723217448383
-0.05110580386636343
-0.08476443628364905
-0.1212009558463194
-0.1562775553000506
-0.17557777652376672
-0.13851216283407553
-0.13497337575068968
-0.07775169121919134
-0.025990988260815584
-0.048562697908579366
-0.07961515709141054
-0.11182989021801859
-0.14040550138886942
-0.1513141544131429
-0.12934743017865458
-0.08500946155623978
-0.06510177665185779
-0.02338539004830409
-0.042138348127309655
-0.06678174352424548
-0.08925179051260557
-0.10443413554554581
-0.10517148721282865
-0.08452762367983269
-0.054033129284391634
-0.019503232307812368
-0.02039525071756998
-0.034388259083812045
-0.05190799240389765
-0.06412381343366746
-0.06853287812197095
-0.0614403707352551
-0.04387317367519472
-0.024971383015127913
-0.008710773738584976
-0.01542898669367787
-0.02771737937536045
-0.03687565414728056
-0.04261243972757711
-0.04334747662133509
-0.03677813983301803
-0.023303517683785913
-0.009182976655665698
0.00018637757884221173
-0.012023333828238947
-0.02228271800797188
-0.027338031395260032
-0.030360511840996196
-0.030354105221391592
-0.025514302173718306
-0.015891778154241365
-0.005004865827544336
0.00041284897463356174
-0.015428984877019047
-0.027717379767921102
-0.0368756550275009
-0.042612440655034334
-0.04334747696563568
-0.03677813890479342
-0.02330351537352726
-0.009182974769544217
0.0001863749886581445
-0.017642009215620647
-0.03372578512639279
-0.04617118461410996
-0.05645931296859885
-0.06115341281886799
-0.05550026671389219
-0.03917341053727341
-0.018500956853472417
-0.007237512145849223
-0.019532447981873702
-0.038362458000534616
-0.05391920480082035
-0.06853921908407301
-0.0775123096059076
-0.07364927821393508
-0.05524469153931477
-0.0346828820118219
-0.015370016540600773
-0.020269830621657547
-0.040143222328680395
-0.05697842427071009
-0.07345273797423602
-0.08466972588402655
-0.08009071725709305
-0.06610971953770672
-0.04073152435000793
-0.02466047134836913
-0.01953244937777754
-0.0383624586942517
-0.05391920540014894
-0.06853922034719062
-0.07751231254164281
-0.07364928423484685
-0.05524469945459032
-0.0346828876235179
-0.015370014758588013
-0.01764201126289322
-0.03372578532085413
-0.04617118408583565
-0.05645931256836434
-0.06115341346441028
-0.05550026987464207
-0.03917341597212953
-0.01850096118468514
-0.007237507685289302
-0.015428986692313629
-0.027717379369221362
-0.03687565414347205
-0.04261243972933926
-0.04334747661661709
-0.03677813983162537
-0.02330351768742389
-0.009182976650635055
0.00018637758364548063
-0.012023335189638829
-0.022282718013201475
-0.027338031821585673
-0.030360512938614193
-0.030354107142983366
-0.025514304960637446
-0.015891781441098374
-0.00500486837444214
0.00041285061305984527
SCALARS stress23 float
LOOKUP_TABLE default
-0.00460125979629189
-0.004601267170180501
0.004601264273926264
0.004601256896170081
-0.012932671105976068
-0.012932675142202088
0.012932669137974973
0.012932665101916596
-0.026608777275273332
-0.04647765702130047
-0.06162706740393653
-0.07105383634075307
-0.07425648735854604
-0.07105383428610157
-0.06162706321442912
-0.046477652896083965
-0.026608776591943273
-0.0018333846969290635
-0.001213440562959911
-0.000872416363117412
-0.00045582726821974395
3.044336241431189e-10
0.00045582773353547434
0.0008724167425409046
0.001213440689496026
0.0018333844617266504
0.02660877303925535
0.0464776474851718
0.06162705623255804
0.07105382625853701
0.07425647897217565
0.07105382831418652
0.0616270604218242
0.04647765160955264
0.026608773729096757
0.0018333789865371264
0.0012134372356678025
0.0008724145470732081
0.00045582665413962387
3.057752662183333e-10
-0.0004558261847878442
-0.0008724141636038407
-0.0012134371067388239
-0.0018333792190896592
-0.03696323468510543
-0.07570972124147812
-0.11933956990527084
-0.15431450848003758
-0.1699156176386721
-0.15431449983044887
-0.11933955682413311
-0.07570971133644866
-0.03696323307427929
-0.004000009946807825
-0.0031794349695442037
-0.0026014416942889973
-0.0016988589725427383
2.0639937606259373e-09
0.0016988609280197964
0.0026014432387437836
0.0031794354652552315
0.004000009766659929
0.03696322089313697
0.07570968918268162
0.11933952093509403
0.15431444913769787
0.16991555999666583
0.1543144577885437
0.11933953401830322
0.07570969908631464
0.036963222503421544
0.0040000072011616705
0.0031794349809586286
0.0026014441913898567
0.001698862062234463
2.066225440744418e-09
-0.0016988601035475281
-0.0026014426433371707
-0.003179434479837706
-0.004000007376746995
-0.0015475506361273261
-0.0012280598481004823
-0.0013221726319090354
-0.0017028801339391553
-0.002356669843741388
-0.0031903817039053983
-0.00400821345022484
-0.00463091610054156
-0.005410055924318646
-0.0015475595495999528
-0.0012280704318472502
-0.0013221849570115296
-0.0017028938922116765
-0.0023566843001150417
-0.003190395609021124
-0.0040082252466071555
-0.00463092471577875
-0.005410062001409699
0.0015475580619799256
0.0012280695529867103
0.0013221842703214914
0.001702893196499744
0.0023566834354742383
0.0031903943873854423
0.004008223428908719
0.0046309220318507816
0.005410058147554908
0.0015475491502776606
0.0012280589733015823
0.0013221719522080733
0.0017028794441433792
0.002356668981104759
0.0031903804830506477
0.004008211637169579
0.004630913418832483
0.005410052069630966
-0.015756866668219627
-0.009530509216657324
-0.006280426928663874
-0.003135916035184927
2.860396614012828e-09
0.0031359205689346914
0.006280431031961964
0.009530511805422082
0.01575686811178678
-0.029636014749490402
-0.01921252404937257
-0.01282952122182962
-0.006464114902511253
5.572186850821836e-09
0.006464123683354139
0.012829529066067713
0.01921252900352599
0.02963601712138697
-0.039883998523842834
-0.026554683613878916
-0.017847601156991244
-0.009020337044738064
7.698251203169804e-09
0.009020349147646156
0.01784761190020684
0.02655469027848223
0.03988400160496802
-0.046197324944012436
-0.031072022739489058
-0.02094984970936381
-0.010604499170629736
9.030691902611743e-09
0.010604513353363196
0.02094986224638351
0.03107203046678908
0.046197328453392084
-0.048336089027759856
-0.03260552523990582
-0.022002723137943138
-0.011143242644519373
9.48376293469222e-09
0.011143257536955747
0.02200273628148497
0.03260553332502443
0.04833609268053407
-0.04619732371564689
-0.03107202188219843
-0.02094984913072384
-0.010604498874454776
9.031135457526762e-09
0.010604513059409348
0.020949861666316016
0.031072029606333484
0.04619732722572245
-0.0398839956988839
-0.026554681644317624
-0.01784759982907791
-0.009020336372637577
7.6987650143856e-09
0.009020348472103423
0.017847610568080652
0.026554688307908858
0.03988399877842658
-0.02963601157204243
-0.019212521841505792
-0.012829519730239769
-0.006464114144681871
5.569635891378155e-09
0.006464122924559473
0.012829527571937005
0.019212526791939966
0.029636013941734762
-0.015756866249597268
-0.009530509037176005
-0.006280426795686744
-0.0031359159722346708
2.8593487230721415e-09
0.0031359205011312064
0.006280430899373746
0.009530511619880166
0.01575686769231055
-0.012842676648769258
-0.006949233182756531
-0.004094560526523683
-0.0022084968783728787
1.0200889313805028e-08
0.0022085067167727512
0.00409456649264317
0.006949233490255224
0.012842676619716054
-0.03676778501406153
-0.030589183146809917
-0.023965296707315176
-0.010829721400111125
1.843307341486966e-08
0.010829763398988501
0.02396530567395061
0.030589179460228433
0.03676778291699634
-0.06418645094657571
-0.07948646549484839
-0.08675444331478
-0.05688262523748844
1.268553863134625e-07
0.056882679005219705
0.08675445672373239
0.07948642356767954
0.06418644119635974
-0.08943455476223128
-0.11367758967404862
-0.3674445943169826
-0.34654318095179804
2.430930204216919e-07
0.3465437150031523
0.36744403300758033
0.11367753194201069
0.08943453314002237
-0.09137558586545072
-0.18531543512176685
-0.17290406129673094
-3.8957190261761703
1.0843997336404398e-05
3.895710512218674
0.17290443192153698
0.1853152884952265
0.09137555458440803
-0.08943455076405149
-0.11367756354439784
-0.36744461468034384
-0.34654213579646065
2.4308757370916645e-07
0.3465426698356757
0.36744405337354746
0.1136775058121482
0.0894345291409393
-0.06418644105233029
-0.07948645359244133
-0.08675436055577634
-0.05688265287425909
1.2685244981866517e-07
0.056882706640081104
0.08675437396177976
0.0794864116634173
0.06418643130016188
-0.036767778305884624
-0.030589173794289604
-0.023965287688667125
-0.010829711833802935
1.843069329446334e-08
0.010829753827216959
0.023965296651984325
0.030589170105496777
0.036767776206093616
-0.012842676466065406
-0.006949232723735044
-0.0040945594700549925
-0.002208494979438813
1.0199706308722245e-08
0.002208504815234158
0.004094565432751884
0.006949233027693458
0.012842676435937506
-0.022408017428948046
-0.024883636368030038
-0.028818465800003912
-0.03284679619463127
-0.03598600871998747
-0.036865511030415465
-0.0342505576177734
-0.028747097370273922
-0.025258598239116914
-0.043311178464883526
-0.04708597945945869
-0.053618335323548205
-0.06144396087596027
-0.06914692487301544
-0.07448515151023427
-0.07490529326201867
-0.06985319523026767
-0.06489445351674594
-0.059153574246703644
-0.06472707036016523
-0.0736775039124965
-0.08550360804474733
-0.09910861013518235
-0.11179224242376296
-0.1189950733078613
-0.11713768112310596
-0.11020884795027697
-0.06904238040219252
-0.0760084178253354
-0.08698278166128948
-0.10216827144811769
-0.1211641914837851
-0.14110433207726802
-0.15532644413402985
-0.1564669747176307
-0.14855424054526767
-0.07240450575483345
-0.07989945507951986
-0.09166707506409527
-0.10820042269243943
-0.1294393131625287
-0.15264269340594494
-0.16941168488046923
-0.17308266553198787
-0.16310087163095865
-0.06904237826836523
-0.07600841539227382
-0.0869827787609383
-0.10216826778060673
-0.12116418657520112
-0.14110432540339835
-0.15532643587071948
-0.15646696539294813
-0.1485542317684868
-0.059153569515539406
-0.06472706497483616
-0.07367749764588549
-0.08550360037709481
-0.09910860035584301
-0.11179222998775518
-0.11899505851136527
-0.11713766559115868
-0.11020883328367392
-0.04331117347677449
-0.04708597397779446
-0.053618329138898746
-0.06144395362929167
-0.06914691624645752
-0.07448514139411122
-0.07490528201700086
-0.06985318373824412
-0.06489444269116373
-0.022408017070448594
-0.024883635900341705
-0.028818465179092367
-0.03284679545634339
-0.035986007919069696
-0.036865510264651125
-0.03425055701933122
-0.028747097024848456
-0.025258597967547702
-0.0002648535259326401
-0.0004603647978556058
-0.0005869705296643879
-0.0007509246537458214
-0.0009534753467992374
-0.0011312100323099816
-0.0011445332893613713
-0.0008619680487340631
-0.00040634305746301
-0.00014829635342472614
-0.0003237243652285393
-0.0004717963458649166
-0.0006610272094285108
-0.0009411255458997569
-0.0012637606864400741
-0.0014269070818324625
-0.0011275706063764712
-0.00037350951955472667
-8.039627781264436e-05
-0.00023511440043377796
-0.00037266472462893496
-0.0005730319081491686
-0.0009014454750313483
-0.0013350379954404357
-0.0016504306477502784
-0.0013791461422520968
-0.0004497358687329811
-3.9009998828831716e-05
-0.0001253946751585966
-0.00021338118528968497
-0.0003476831471339592
-0.0005811496334088284
-0.000934343927468384
-0.0011951717795605221
-0.0011022459237460258
-0.00041267118332311004
3.222426006588286e-10
4.0474041479443557e-10
5.066917024842965e-10
6.723212611636775e-10
9.356357771883594e-10
1.3100156445733369e-09
1.4352435767639449e-09
1.6642600075833514e-09
9.618731713900708e-10
3.901050093679803e-05
0.00012539526738253315
0.00021338189243502725
0.000347684031962725
0.000581150792829388
0.0009343453965032777
0.0011951736190334294
0.0011022474848033648
0.0004126728781729816
8.039673438209327e-05
0.00023511492985761606
0.00037266529630830547
0.0005730325251454005
0.0009014461111480632
0.0013350386032522366
0.0016504311873033473
0.0013791466905695993
0.0004497362887342371
0.00014829665444338058
0.0003237246000609151
0.00047179658132012747
0.0006610274177327735
0.0009411256538853774
0.0012637606107901433
0.0014269068159569187
0.0011275702714586
0.00037350940464842
0.000264853461143133
0.00046036471171961857
0.0005869704602716741
0.0007509245738333004
0.0009534752332167606
0.001131209854392079
0.0011445330204933324
0.0008619676846066682
0.00040634269051254
0.022408014880847427
0.02488363614432254
0.028818466392432462
0.03284679702459914
0.035986009241857575
0.03686551043439934
0.03425055473128835
0.02874709092368022
0.025258587387556597
0.043311170380754827
0.04708597469644982
0.05361833138539618
0.061443956538377975
0.06914691899472558
0.07448514252696747
0.07490527909796962
0.0698531738003274
0.06489442364074871
0.05915356556284135
0.06472706611293588
0.07367750079803237
0.08550360458100714
0.09910860471629523
0.11179223250733505
0.11899505498068574
0.11713765003825194
0.11020880124804511
0.06904237375250455
0.07600841680416487
0.08698278256858738
0.10216827300678455
0.12116419241838028
0.1411043294169695
0.15532643146991232
0.15646694225968105
0.14855418439421297
0.072404501043578
0.0798994565911301
0.09166707911504496
0.10820042831786567
0.129439319650189
0.15264269817844847
0.16941167971534818
0.17308263814181796
0.16310081601048715
0.06904237588754553
0.07600841923773594
0.08698278547084226
0.10216827667533679
0.1211641973286457
0.14110433609024997
0.15532643973547344
0.15646695158586288
0.14855419317164498
0.05915357029452273
0.06472707150093471
0.07367750706600074
0.08550361224806546
0.09910861449749953
0.11179224494331996
0.11899506977829866
0.117137665572836
0.11020881591693454
0.04331117537018436
0.04708598017883703
0.053618337574845576
0.06144396378666017
0.06914692762511021
0.07448515264379951
0.07490529034431903
0.06985318529670792
0.06489443446819187
0.022408015238325252
0.0248836366154237
0.028818467014814164
0.03284679776710009
0.03598601004449864
0.036865511204217105
0.034250555332461685
0.028747091274727632
0.0252585876600957
0.00026484524639314166
0.0004603533847675756
0.0005869568375733714
0.0007509089466626317
0.0009534582343213582
0.0011311928585147069
0.0011445181889948586
0.0008619571477905819
0.00040633700168357656
0.00014829031709251428
0.00032371487425586487
0.0004717842837103081
0.0006610127594606219
0.0009411088793573885
0.0012637428291952801
0.0014268905587078162
0.0011275589376844586
0.0003735046281989618
8.03924699079861e-05
0.000235107836813353
0.0003726558023221527
0.0005730206596332721
0.0009014318280617939
0.0013350227489308253
0.001650416488064188
0.0013791373338637447
0.0004497338003309759
3.9008326094491785e-05
0.00012539151183305064
0.00021337666893506135
0.0003476772627886149
0.0005811423480549527
0.0009343357069746538
0.001195164762246681
0.001102242521918595
0.0004126724628449874
3.23346308062078e-10
4.046456086870265e-10
5.096131433512952e-10
6.733815172133006e-10
9.380962812111093e-10
1.3129306322690049e-09
1.4372654663641349e-09
1.6678749215071065e-09
9.640766795993017e-10
-3.900782251409218e-05
-0.0001253909166641365
-0.00021337596035775341
-0.00034767637703281284
-0.0005811411837076674
-0.000934334234156009
-0.0011951629170384725
-0.0011022409572510883
-0.00041267076408807446
-8.039200843534822e-05
-0.00023510730303610838
-0.0003726552307730113
-0.0005730200385223316
-0.000901431188340629
-0.001335022138563513
-0.0016504159431607324
-0.001379136780831347
-0.000449733375426975
-0.00014829001565830335
-0.00032371463395142186
-0.000471784046705892
-0.0006610125459964866
-0.0009411087650461614
-0.0012637428977435583
-0.0014268908195913532
-0.0011275592686224023
-0.0003735047396236091
-0.000264845307430317
-0.0004603534656435482
-0.0005869569032264099
-0.0007509090200366053
-0.0009534583428216781
-0.0011311930306334705
-0.0011445184532368202
-0.0008619575073125496
-0.0004063373651899127
-0.01669038630505182
-0.02435635642447398
-0.02964747055469852
-0.03424711751963461
-0.037378115676721224
-0.0372419491337701
-0.031734617185973146
-0.02068891694827668
-0.00837216712224631
-0.012517186221869148
-0.02046828505534526
-0.02635575155050418
-0.03173402824912319
-0.03665632270812158
-0.039080137197333276
-0.03533593607915364
-0.02291137184198422
-0.00621298007684179
-0.008238822616476016
-0.014880093258188731
-0.020351397846769426
-0.025817277174636333
-0.03152870609139713
-0.03542362080361294
-0.03291217939388802
-0.019887778364680697
-0.002970450977143546
-0.004176150012104085
-0.007869566914326886
-0.011235418839048328
-0.014823206849568615
-0.018803410821921163
-0.02201787831911106
-0.02013333662598904
-0.012310320302260869
-0.0006916384540190945
3.975762857821863e-09
5.384090714932732e-09
6.962270981958341e-09
9.086100413724374e-09
1.2015225168970911e-08
1.5429552004120328e-08
1.565986939427999e-08
1.5521100633908436e-08
8.594283312790552e-09
0.004176156287823085
0.007869575029065268
0.011235428869971809
0.014823219280165167
0.018803426351695074
0.022017896756632682
0.02013335726158383
0.012310336672118338
0.0006916534127354157
0.008238828239890195
0.014880100144272435
0.020351405430209635
0.02581728541849171
0.03152871460034756
0.035423628989941225
0.03291218691811548
0.019887785735722474
0.0029704560465213525
0.012517190198644501
0.020468288598194606
0.02635575504906984
0.031734031465589396
0.03665632490503867
0.03908013760155882
0.035335934806342895
0.02291137033542534
0.006212980398358159
0.016690387297842224
0.02435635704771122
0.02964747137129886
0.03424711835297112
0.0373781162858946
0.03724194921697177
0.03173461652601395
0.020688915620619808
0.008372166043884022
-0.03413387286208469
-0.04629473029466902
-0.055057635887566514
-0.0640421986093036
-0.07232819532285917
-0.07699357182796485
-0.07354614557062589
-0.059502852434730524
-0.037378462569580106
-0.02610923514576824
-0.03907484977865028
-0.04913101642603124
-0.05977262931176108
-0.07189368139996555
-0.08254394813655663
-0.08468592903669125
-0.06874158181446188
-0.036722950743692806
-0.017533774510010813
-0.028437730419790475
-0.03792092321893781
-0.04876066669643775
-0.06255212734434523
-0.07735887860267554
-0.08421502796445357
-0.06887878827807237
-0.02807726355758966
-0.008940539287567884
-0.015041161239016332
-0.020914170999960346
-0.028011140668035006
-0.037734868874527594
-0.04914405102962349
-0.05760537165245194
-0.042104736302815304
-0.017894550346009397
7.985220137896043e-09
1.0233461203434935e-08
1.2966391203794725e-08
1.712629470185245e-08
2.389776909694774e-08
3.4279651117685717e-08
4.759692728839582e-08
3.828147810552851e-08
4.594685250325359e-08
0.008940551821374598
0.015041176686791391
0.02091418973398168
0.02801116415000271
0.037734899521137955
0.049144090895580694
0.057605418154009214
0.04210479364495523
0.017894582472208764
0.017533785668099156
0.028437743483619604
0.03792093743609659
0.04876068226117658
0.06255214366244188
0.077358893383219
0.08421503941015152
0.06887879810331654
0.028077279791860255
0.026109242608337024
0.039074856469673236
0.04913102299531724
0.05977263533494548
0.07189368522063755
0.08254394754824079
0.08468592262858565
0.06874157280206106
0.03672294503911999
0.034133874686564925
0.04629473150614016
0.05505763742123171
0.06404220018057272
0.07232819646157318
0.0769935718411443
0.07354614377564106
0.059502848688336885
0.03737845881947144
-0.04720386061958448
-0.06383595479211102
-0.07573571624912079
-0.08947306646481823
-0.10487659358424639
-0.11826937700477647
-0.12198687245953632
-0.1070593638944144
-0.07213959795246994
-0.036535121210668375
-0.054075593209112705
-0.06778805668735366
-0.08422584141024647
-0.10644469969738535
-0.13264750468977127
-0.15153136897811237
-0.14325582118601687
-0.09327036426589252
-0.024706885094357145
-0.03945092859538302
-0.05246852701781446
-0.06924387162039647
-0.09464660275571957
-0.1304087997401
-0.1681069205879806
-0.17148100727803328
-0.10728850569594539
-0.012631572104013944
-0.020887858186961816
-0.028981843546091623
-0.03999783813965818
-0.05780957968583633
-0.0866813043729725
-0.12294271239159826
-0.15024186269679562
-0.053808106431405545
1.1125234955500218e-08
1.4153659487481374e-08
1.7907875682343644e-08
2.421786220868638e-08
3.5947634320632194e-08
5.807038817168264e-08
1.0079217312164435e-07
1.7034855312458852e-07
6.050238621907456e-08
0.012631589526960085
0.02088787954165161
0.028981869402977534
0.03999787124146914
0.057809625191566516
0.08668136993649633
0.12294280095041032
0.15024194826199055
0.053808277512507274
0.024706900514677166
0.039450946596924
0.05246854659810585
0.06924389329585756
0.09464662589948225
0.1304088195503319
0.16810692290349594
0.17148098747905216
0.10728848010149084
0.03653513128777752
0.05407560235353992
0.06778806567798867
0.0842258495518482
0.10644470414017215
0.13264749985358715
0.151531349183756
0.1432557839141282
0.09327032089845488
0.04720386303956792
0.06383595645931706
0.07573571836489046
0.08947306863774518
0.10487659510532077
0.11826937658241521
0.12198686827519634
0.10705935456468896
0.07213958591638181
-0.05531632497474531
-0.07508638164050785
-0.08958228242140448
-0.10743161727417405
-0.12967126181463218
-0.15263377966670766
-0.1642731072364887
-0.14907882429645392
-0.10123696739868904
-0.043019300993733356
-0.0637621198635353
-0.08041206373007032
-0.10188646526592837
-0.13420871625875586
-0.17877265174738266
-0.2238228762537966
-0.2281725063009148
-0.16012338334124454
-0.029190079069624786
-0.046609593845813424
-0.06241690042527687
-0.08440243421154425
-0.12131325177933594
-0.18374243529395684
-0.27542014227484546
-0.36023253604848215
-0.323306519613312
-0.014942608764649576
-0.024706202977314073
-0.03454908441050014
-0.04899649311340887
-0.0750930321786577
-0.12465865872350096
-0.22363567712065568
-0.36183839519715244
-0.43623241649509703
1.3102994279867719e-08
1.669300639384197e-08
2.1242421821554558e-08
2.937267461200488e-08
4.5651692433257285e-08
8.087681820090342e-08
1.634622142712705e-07
4.0901016973293736e-07
8.658427077534725e-07
0.014942629264623974
0.0247062281414836
0.03454911504778102
0.04899653307196694
0.07509308952255839
0.12465874720543046
0.223635819642388
0.3618385451533497
0.43623239244996626
0.029190097156809647
0.04660961500498123
0.06241692354266898
0.08440246008496854
0.12131327974384065
0.18374245869808825
0.27542012791829085
0.36023239219262937
0.32330615964158804
0.043019312684863587
0.06376213055653945
0.08041207428432406
0.10188647471984658
0.13420872057651378
0.17877264138713245
0.2238228328998939
0.2281724174105535
0.16012327305450036
0.055316327765019435
0.07508638359537378
0.08958228491934828
0.10743161985058325
0.12967126357075598
0.1526337786631463
0.1642730997950056
0.149078805619547
0.10123693997356176
-0.05807151211355133
-0.07897354948547178
-0.09449222742877061
-0.11398955068893293
-0.13931405252895931
-0.16638651193019838
-0.18276088098845314
-0.16394862663434068
-0.11810223047826346
-0.04522494187000129
-0.06712061484386907
-0.08490818077998463
-0.1084847729396491
-0.14504296851488147
-0.1998164876901375
-0.2582081005571615
-0.27942090383581647
-0.17582457181856626
-0.030716846341420023
-0.0490998816804904
-0.06599620897478597
-0.0900935450025648
-0.13234386673028722
-0.2068993086948867
-0.3445383773471739
-0.49319909564090525
-0.550408010410931
-0.01573104264271199
-0.02603938088075531
-0.03656045095704218
-0.05245363042544958
-0.08224632714996534
-0.14412120482971766
-0.2767949063062775
-0.6979938441081919
-1.22622318481247
1.3779883997755427e-08
1.7571753170575466e-08
2.2435096634632057e-08
3.128042832395428e-08
4.966053030602824e-08
9.077319076261636e-08
2.0198342936400548e-07
5.672542779597278e-07
2.8428637014951685e-06
0.015731064192466816
0.026039407365285448
0.03656048328496466
0.052453672933956315
0.08224638895412872
0.1441213038660829
0.27679506642311646
0.6979941161686449
1.226222075543395
0.03071686533764388
0.04909990392555111
0.06599623333679971
0.0900935723584253
0.13234389657799553
0.20689933226352475
0.34453835994312265
0.49319880891920787
0.5504070984514156
0.045224954108454736
0.0671206260663095
0.08490819187369014
0.10848478283546685
0.14504297265393898
0.19981647462887103
0.25820804388206187
0.27942076063390997
0.1758244688842412
0.058071515029951115
0.0789735515401162
0.09449223006140528
0.11398955342162806
0.13931405431613125
0.16638651084349773
0.18276087151878564
0.1639486008406638
0.11810219422350034
-0.0553163233802168
-0.0750863794815011
-0.08958227967234667
-0.10743161363455667
-0.12967125661931955
-0.1526337723240072
-0.16427309767435894
-0.14907881527401956
-0.1012369587297931
-0.043019299705690295
-0.06376211800699044
-0.08041206121389383
-0.1018864616338625
-0.13420871046011884
-0.1787726414657974
-0.2238228598043781
-0.22817248387286138
-0.16012336947373318
-0.02919007815670449
-0.04660959246023921
-0.06241689843385917
-0.08440243108722362
-0.12131324603865734
-0.1837424237028391
-0.27542011379174114
-0.36023248265766195
-0.3233064387645883
-0.014942608291819329
-0.02470620223174652
-0.03454908329146966
-0.048996491229872735
-0.07509302841082632
-0.12465864952635497
-0.22363565325960233
-0.36183829036170545
-0.4362321683843162
1.3103793106150619e-08
1.669222422090444e-08
2.1242718417635587e-08
2.9372304387320636e-08
4.565091413916145e-08
8.087668337125598e-08
1.6346064148770045e-07
4.090071770851411e-07
8.658355030652376e-07
0.01494262879105332
0.024706227393380686
0.034549113929188024
0.04899653118690139
0.07509308575356705
0.12465873800672916
0.22363579577942994
0.3618384403149275
0.43623214433612256
0.029190096242225932
0.04660961361924365
0.062416921550275284
0.08440245695781712
0.12131327400218961
0.18374244710476517
0.27542009943385093
0.36023233880011496
0.32330607879311013
0.04301931139382231
0.06376212869738107
0.08041207176708337
0.10188647108810978
0.1342087147754839
0.1787726311042921
0.2238228164501206
0.2281723949818386
0.160123259186163
0.05531632616820198
0.07508638143559038
0.08958228217007763
0.10743161621043562
0.12967125837671345
0.15263377132033262
0.16427309023190317
0.14907879659560386
0.10123693130346334
-0.04720385659205506
-0.06383594932858672
-0.07573570961650533
-0.08947305806472827
-0.10487658238446285
-0.11826936207640437
-0.12198685449803603
-0.1070593461591407
-0.07213958540639798
-0.036535117980571075
-0.054075588515366424
-0.06778805065908422
-0.08422583322346588
-0.10644468746419111
-0.13264748556102024
-0.1515313407952319
-0.14325578912123893
-0.09327033978565225
-0.024706882852918
-0.03945092513136561
-0.05246852230186505
-0.06924386468631383
-0.09464659122454577
-0.13040877848532784
-0.1681068813736628
-0.17148094457341245
-0.10728844208583888
-0.012631570947772786
-0.020887856342123423
-0.028981840918763768
-0.03999783406074958
-0.05780957234295325
-0.08668128944816655
-0.12294267801772318
-0.15024179523798398
-0.05380800793152596
1.1122181731160197e-08
1.4152984444126826e-08
1.790766286646761e-08
2.4215990997167314e-08
3.594632051739932e-08
5.806898583510245e-08
1.0079065875662208e-07
1.7034485335493121e-07
6.050025035467255e-08
0.012631588370200064
0.020887877695567214
0.028981866773073517
0.03999786715897924
0.05780961784630767
0.0866813550074087
0.1229427665731142
0.1502418807998278
0.05380817900698198
0.024706898272238764
0.03945094313176245
0.052468541878338826
0.06924388636047196
0.0946466143638347
0.1304087982945057
0.16810688368628424
0.17148092477346677
0.10728841648920406
0.036535128057096244
0.054075597658336805
0.06778805964767431
0.08422584136424338
0.1064446919050972
0.13264748072173593
0.1515313209980511
0.14325575184885708
0.09327029641554674
0.047203859010507054
0.0638359509939731
0.07573571173030902
0.0894730602361733
0.10487658390479737
0.11826936165380175
0.12198685031218282
0.10705933682736557
0.07213957336922938
-0.034133868248243604
-0.046294724264577924
-0.05505762888246646
-0.06404219025551128
-0.0723281851806512
-0.07699355975611977
-0.07354613227939755
-0.05950283988098248
-0.03737845352606062
-0.026109231532348454
-0.039074844634157224
-0.04913101011727172
-0.05977262136385897
-0.07189367088847987
-0.08254393412342886
-0.08468591172138984
-0.06874156421539857
-0.03672293861316289
-0.017533772051374963
-0.028437726669173546
-0.037920918326132314
-0.048760660114223864
-0.06255211783853043
-0.07735886440007622
-0.08421500782134173
-0.06887876555419759
-0.028077248318651327
-0.00894053802902467
-0.015041159255694325
-0.02091416829750642
-0.028011136851191387
-0.03773486299679285
-0.049144041437632735
-0.05760535626672347
-0.042104715536458004
-0.017894538864787313
7.984513959724548e-09
1.0232477115623695e-08
1.2965114225271801e-08
1.7124526123513117e-08
2.3895919250283004e-08
3.4277322084885764e-08
4.7594565646263964e-08
3.827916109783169e-08
4.594421383966041e-08
0.008940550560709692
0.015041174702015825
0.02091418703006198
0.02801116033022588
0.03773489364107263
0.04914408130048287
0.057605402762419544
0.04210477287421932
0.017894570988087333
0.017533783206863496
0.02843773973041619
0.03792093254140161
0.04876067567583631
0.06255213415260275
0.07735887917856887
0.08421501926547958
0.06887877537641218
0.028077264548813208
0.02610923899203199
0.03907485132487032
0.04913101668452491
0.05977262738555078
0.07189367470839358
0.08254393353441558
0.08468590531205389
0.06874155520074199
0.0367229329056622
0.034133870072612704
0.04629472547277613
0.05505763041414147
0.06404219182345772
0.07232818631896065
0.07699355976732392
0.07354613048234149
0.059502836131852144
0.03737844977325544
-0.01669038625545205
-0.0243563559761395
-0.029647469942212012
-0.03424711682431325
-0.037378115050298755
-0.03724194879101117
-0.03173461738400429
-0.02068891787462035
-0.008372168528146151
-0.012517186253333645
-0.02046828470249351
-0.026355751031935437
-0.0317340276455369
-0.03665632211907277
-0.039080136804167775
-0.03533593616307096
-0.02291137258707865
-0.006212981390769201
-0.008238822682689162
-0.01488009301344917
-0.020351397432225138
-0.02581727665963207
-0.03152870556826115
-0.03542362048017367
-0.03291217945923108
-0.019887778903807884
-0.0029704512910606606
-0.0041761500524956086
-0.007869566788019311
-0.011235418605259728
-0.014823206542136536
-0.018803410515421448
-0.022017878120927925
-0.02013333689523822
-0.012310319537047754
-0.000691637919448318
3.974949334961675e-09
5.382426726541212e-09
6.957606012159001e-09
9.084144977911102e-09
1.2013575731439907e-08
1.5427878641283144e-08
1.565778175866006e-08
1.551962947043961e-08
8.592292106979205e-09
0.004176156324584346
0.007869574899627363
0.01123542863385879
0.014823218968912921
0.01880342604214491
0.022017896554124894
0.020133357526747164
0.012310335902480762
0.000691652872580828
0.008238828304988677
0.014880099896687815
0.020351405013603108
0.025817284900133686
0.03152871407381008
0.0354236286628582
0.032912186984190184
0.019887786271710173
0.0029704563568253572
0.01251719022640907
0.020468288244202215
0.02635575452579908
0.031734030857637485
0.03665632431584109
0.03908013720467629
0.035335934887521514
0.022911371076437037
0.006212981709053933
0.01669038724325045
0.02435635659752644
0.029647470755688188
0.034247117657601134
0.037378115656981015
0.037241948871693076
0.0317346167183814
0.020688916542326297
0.008372167447760148
SCALARS stress13 float
LOOKUP_TABLE default
-0.004601259812716307
0.004601256893693062
0.004601264276971051
-0.004601267168709455
-0.012932671114867844
0.012932665101288876
0.012932669126712426
-0.012932675158481288
-0.0018333792459088727
-0.0012134371163483593
-0.0008724141780476202
-0.0004558261998681701
2.97859514830634e-10
0.0004558266568892577
0.000872414526384091
0.0012134372173022712
0.0018333789744247042
0.026608773727275548
0.04647765160552808
0.06162706042323407
0.07105382831059615
0.07425647896434384
0.07105382625695711
0.061627056237284705
0.046477647480060114
0.026608773033785837
0.0018333844714106817
0.0012134406842960743
0.0008724167432774266
0.0004558277405521949
3.021796146640554e-10
-0.0004558272753456549
-0.0008724163685656094
-0.001213440566061763
-0.001833384701058094
-0.026608776578541438
-0.04647765291429096
-0.06162706320537836
-0.07105383429006906
-0.07425648737034862
-0.07105383634780083
-0.06162706741497459
-0.04647765702293327
-0.02660877727021216
-0.004000007382728654
-0.0031794344952231768
-0.002601442655759456
-0.001698860110309397
2.05773176276125e-09
0.0016988620586744219
0.0026014441805273236
0.0031794349765732477
0.004000007190825272
0.036963222518807015
0.07570969908533698
0.11933953401398867
0.15431445778335728
0.16991555998993135
0.15431444913792802
0.11933952092499567
0.07570968917707432
0.03696322089217574
0.004000009768788004
0.003179435468837255
0.0026014432319243497
0.001698860938404323
2.0629613572964445e-09
-0.0016988589734410198
-0.0026014417028363823
-0.0031794349704341585
-0.004000009942046745
-0.03696323307303828
-0.07570971134850879
-0.11933955682002306
-0.15431449985157997
-0.16991561764552898
-0.1543145084781372
-0.11933956990378647
-0.07570972122925923
-0.036963234675567946
-0.0015475506415896234
-0.00122805984074148
-0.0013221726426309033
-0.0017028801476044464
-0.002356669833716296
-0.0031903817041438742
-0.004008213451697884
-0.004630916088672166
-0.005410055923675827
0.0015475491413781128
0.0012280589648980822
0.0013221719364082674
0.0017028794418365578
0.0023566689753806713
0.0031903804640478484
0.004008211631344238
0.004630913412484006
0.005410052055594861
0.001547558065794874
0.0012280695286790433
0.0013221842768871284
0.0017028931865752384
0.0023566834397570346
0.0031903943779525434
0.0040082234218061785
0.004630922028582063
0.005410058152847341
-0.0015475595319003332
-0.0012280704222575878
-0.0013221849621913861
-0.0017028938884777745
-0.0023566843058233644
-0.0031903956066798855
-0.004008225239203966
-0.004630924715911533
-0.005410061986367509
-0.015756866665924463
-0.029636014740162864
-0.039883998522554975
-0.04619732494074924
-0.048336089030726725
-0.04619732371133978
-0.03988399570630463
-0.029636011555112418
-0.01575686625801609
-0.00953050922271359
-0.01921252404713414
-0.026554683621498043
-0.0310720227425918
-0.032605525228063925
-0.031072021886984658
-0.026554681656307366
-0.019212521844565345
-0.009530509039223034
-0.006280426931880356
-0.012829521224603013
-0.017847601165613014
-0.020949849709268165
-0.022002723140758462
-0.02094984914037923
-0.017847599830702165
-0.012829519728484229
-0.006280426798184635
-0.003135916031396846
-0.006464114914479069
-0.00902033703437155
-0.010604499170085546
-0.01114324264563038
-0.010604498872226031
-0.009020336374760518
-0.006464114148457156
-0.003135915960683633
2.8505837690318003e-09
5.569063432631083e-09
7.702283255639486e-09
9.036057235789485e-09
9.48875822359696e-09
9.033101378008723e-09
7.700919013586827e-09
5.576339390245266e-09
2.852402758435346e-09
0.003135920565455308
0.006464123677233147
0.009020349147021989
0.010604513349562694
0.011143257538151374
0.010604513059661258
0.009020348470130557
0.00646412291712295
0.003135920497470579
0.006280431037566814
0.012829529065584211
0.017847611898105242
0.020949862239149297
0.02200273628454852
0.020949861669350867
0.017847610567741867
0.0128295275653727
0.006280430897732003
0.009530511817047227
0.019212529000924405
0.026554690275133908
0.031072030464656564
0.03260553331529081
0.031072029614733765
0.026554688310170604
0.01921252679198915
0.00953051161991425
0.01575686811156629
0.029636017103484846
0.03988400160096717
0.046197328452308284
0.04833609268780492
0.046197327229947405
0.039883998774257634
0.029636013940489647
0.01575686769137974
-0.012842676651871443
-0.036767785004030884
-0.06418645094163367
-0.08943455475309747
-0.09137558586644445
-0.08943455076291684
-0.0641864410481503
-0.03676777830173705
-0.012842676471336745
-0.006949233185196135
-0.030589183145366405
-0.07948646549061777
-0.11367758967003283
-0.18531543511903692
-0.11367756353865843
-0.07948645359283546
-0.030589173794851376
-0.006949232724991816
-0.004094560526027635
-0.02396529670431846
-0.08675444330765458
-0.36744459430497045
-0.1729040612888184
-0.3674446146842456
-0.0867543605525043
-0.02396528769077122
-0.004094559466238934
-0.002208496881848987
-0.010829721402387804
-0.05688262523449339
-0.34654318095886083
-3.895719026171264
-0.3465421357850573
-0.056882652872673134
-0.010829711823134858
-0.002208494976912334
1.0199755706707947e-08
1.843363861553371e-08
1.2684949979302473e-07
2.430915628792718e-07
1.0843997984011366e-05
2.430956556054298e-07
1.2686268746620044e-07
1.8433411241858266e-08
1.0199528333032504e-08
0.00220850671144035
0.010829763393076064
0.05688267900768551
0.3465437150014168
3.895710512224923
0.34654266984011883
0.05688270663449657
0.010829753829511901
0.00220850481287016
0.004094566495268737
0.023965305678302684
0.08675445671929083
0.36744403300599515
0.17290443191882332
0.36744405336594355
0.08675437396345842
0.02396529664906666
0.004094565433206299
0.006949233484647266
0.030589179470553063
0.07948642356564051
0.11367753194258512
0.18531528849780443
0.11367750580984648
0.07948641165876325
0.03058917009866491
0.006949233025807189
0.012842676613217918
0.03676778292037852
0.06418644119662531
0.08943453313668215
0.09137555458278257
0.08943452914013506
0.06418643129677548
0.036767776204669644
0.012842676435411704
-0.00026484529826120706
-0.0004603534616762772
-0.0005869569129117735
-0.0007509090332860069
-0.00095345833869942
-0.00113119303023268
-0.0011445184434251132
-0.0008619575028205873
-0.0004063373844473972
-0.0001482900245264318
-0.00032371463339586626
-0.00047178405270642543
-0.0006610125487895857
-0.0009411087726221012
-0.0012637428976631782
-0.0014268908134908997
-0.0011275592673882784
-0.00037350474258346367
-8.039201338760904e-05
-0.00023510730648013123
-0.00037265522996676737
-0.0005730200421112386
-0.0009014311965529487
-0.001335022139528519
-0.0016504159411852015
-0.0013791367850899405
-0.00044973338071940816
-3.9007832356219296e-05
-0.00012539092131191865
-0.00021337596058401687
-0.0003476763772596314
-0.0005811411845115799
-0.0009343342364900309
-0.001195162918747883
-0.0011022409680663259
-0.0004126707701743726
3.226432454539463e-10
4.0449776861350983e-10
5.097717803437263e-10
6.634763849433511e-10
9.30867827264592e-10
1.30216903926339e-09
1.432454155292362e-09
1.6557351045776159e-09
9.536051948089153e-10
3.9008323938105605e-05
0.00012539151680357463
0.00021337666521503706
0.00034767726015161315
0.0005811423454815667
0.000934335706233469
0.001195164752743949
0.0011022425205737818
0.00041267245774179173
8.039246677071787e-05
0.0002351078289848374
0.0003726558047674189
0.0005730206571570307
0.0009014318236495455
0.0013350227472983534
0.0016504164891557593
0.0013791373303320142
0.00044973380317969713
0.0001482903135183733
0.00032371486213378375
0.0004717842880381795
0.0006610127493331674
0.0009411088763044972
0.001263742831270065
0.0014268905538301624
0.0011275589324668545
0.00037350463162511005
0.00026484523823455675
0.0004603533748195332
0.0005869568155958405
0.0007509089348332054
0.0009534582306969241
0.0011311928553823236
0.001144518187857102
0.0008619571458439168
0.0004063370047333592
0.022408015234304912
0.02488363659585957
0.028818466998473014
0.03284679775265431
0.03598601005001001
0.036865511200176115
0.03425055533284649
0.028747091273316983
0.025258587665803134
0.0433111753659432
0.04708598017850818
0.05361833756933265
0.06144396377430894
0.06914692761984043
0.07448515264400157
0.07490529034521387
0.069853185291322
0.06489443445980214
0.059153570293574376
0.06472707148986956
0.07367750705316212
0.08550361224274639
0.09910861449998265
0.11179224493321271
0.1189950697794302
0.11713766556658811
0.11020881591298348
0.06904237587377793
0.07600841923726875
0.08698278546671645
0.10216827667090911
0.121164197327289
0.14110433608925632
0.1553264397350631
0.15646695158466173
0.14855419317223095
0.07240450104291085
0.07989945658073339
0.09166707911845151
0.10820042831414867
0.1294393196458259
0.15264269817589593
0.16941167971731375
0.17308263814425118
0.1631008160111378
0.06904237376352285
0.07600841680437043
0.08698278256383674
0.10216827300905607
0.12116419241465337
0.14110432942015905
0.1553264314622993
0.15646694226143154
0.14855418438469314
0.059153565568522026
0.06472706610520618
0.07367750080356927
0.0855036045752513
0.0991086047151839
0.11179223250178438
0.11899505497990503
0.11713765004242305
0.1102088012510194
0.04331117037918375
0.047085974689025534
0.05361833137726535
0.06144395654564505
0.06914691899942227
0.07448514252610039
0.07490527909612865
0.06985317380099332
0.06489442363863418
0.022408014881420968
0.024883636145887067
0.028818466389793684
0.03284679702142057
0.03598600922850892
0.036865510433699455
0.03425055473530847
0.02874709093225647
0.025258587388861997
0.0002648534737090813
0.0004603647114436171
0.000586970466429193
0.000750924572457734
0.0009534752355193632
0.001131209851564563
0.0011445330187598302
0.0008619676752914529
0.0004063426945322135
0.00014829665815341286
0.00032372460259466607
0.00047179657917695295
0.0006610274115246284
0.0009411256562543713
0.0012637606062071427
0.0014269068187786615
0.0011275702729562909
0.00037350939987845777
8.039673139137449e-05
0.0002351149398691632
0.0003726653005742264
0.0005730325228796573
0.000901446109992321
0.0013350386093406996
0.001650431188636503
0.0013791466899419902
0.00044973628996558546
3.9010502405290026e-05
0.0001253952661954827
0.00021338188753361464
0.0003476840215625998
0.0005811507935504778
0.0009343453943984059
0.0011951736194077967
0.0011022474836863694
0.0004126728756546072
3.253717295592651e-10
4.1109160520136356e-10
5.156834959052503e-10
6.709797162329778e-10
9.370069165015593e-10
1.3142198440618813e-09
1.4417764759855345e-09
1.6652847989462316e-09
9.627001418266445e-10
-3.901000764017226e-05
-0.00012539466570160585
-0.0002133811908606731
-0.00034768314526445465
-0.0005811496278056438
-0.0009343439185158786
-0.0011951717783631466
-0.0011022459186733613
-0.0004126711842218356
-8.039627618927625e-05
-0.0002351143982650683
-0.0003726647260009486
-0.0005730319026042707
-0.0009014454701627983
-0.0013350379917937971
-0.0016504306515798817
-0.0013791461371965852
-0.0004497358645494387
-0.0001482963457419828
-0.00032372436749028566
-0.0004717963490747934
-0.0006610272012039786
-0.0009411255364284443
-0.0012637606876069185
-0.0014269070802583883
-0.0011275706033302413
-0.0003735095217507478
-0.0002648535210028058
-0.00046036479557187704
-0.0005869705221357435
-0.0007509246611334675
-0.0009534753448861011
-0.0011312100307350192
-0.0011445332904713723
-0.0008619680477295333
-0.00040634306446918345
-0.02240801706284401
-0.02488363590487097
-0.02881846517198028
-0.032846795449131605
-0.03598600791156059
-0.03686551028249596
-0.034250557017230676
-0.028747097019277135
-0.025258597963556895
-0.04331117347555846
-0.04708597397348058
-0.05361832913536091
-0.06144395362071009
-0.0691469162516114
-0.07448514140446605
-0.0749052820151519
-0.0698531837479095
-0.06489444268709121
-0.05915356951118156
-0.06472706496083447
-0.07367749764580367
-0.08550360038429972
-0.09910860035097357
-0.11179222997657234
-0.11899505850783498
-0.11713766558841598
-0.11020883329433673
-0.0690423782700691
-0.0760084153976095
-0.08698277875396343
-0.1021682677771878
-0.12116418657069516
-0.1411043254006472
-0.15532643586675476
-0.1564669653960209
-0.14855423177618832
-0.07240450576227886
-0.07989945509893914
-0.09166707505369232
-0.10820042269369878
-0.1294393131643119
-0.1526426933953644
-0.16941168487483083
-0.17308266553436624
-0.1631008716303768
-0.06904238040328892
-0.07600841783619217
-0.08698278166139062
-0.10216827143449336
-0.12116419148173918
-0.1411043320731551
-0.15532644413247
-0.1564669747190237
-0.14855424053484967
-0.059153574252150065
-0.0647270703718732
-0.07367750393314054
-0.08550360804929369
-0.09910861014191141
-0.11179224242800956
-0.11899507331304449
-0.11713768111144418
-0.1102088479556187
-0.043311178471185485
-0.04708597947455928
-0.05361833533288518
-0.06144396087961468
-0.0691469248733938
-0.07448515150736057
-0.07490529326878459
-0.06985319522846112
-0.06489445352053735
-0.02240801742345866
-0.024883636369622764
-0.028818465800895865
-0.03284679619787312
-0.03598600871760027
-0.036865511030100606
-0.03425055761090334
-0.02874709737398007
-0.025258598232539953
-0.016690386303935156
-0.024356356433145265
-0.029647470554209576
-0.03424711751927134
-0.03737811567521021
-0.03724194914366308
-0.03173461718438375
-0.02068891695489583
-0.00837216711011024
-0.03413387287173464
-0.04629473030286135
-0.05505763588553236
-0.06404219861428828
-0.07232819532146095
-0.07699357182764288
-0.07354614556447814
-0.059502852431933206
-0.03737846257195088
-0.047203860609897674
-0.06383595480110671
-0.07573571624811848
-0.08947306647178266
-0.10487659358773271
-0.11826937700402596
-0.12198687245881956
-0.10705936390013449
-0.07213959794262337
-0.05531632497923056
-0.07508638164040349
-0.08958228241590405
-0.10743161727327788
-0.12967126181115418
-0.15263377967153247
-0.1642731072327024
-0.14907882430361497
-0.10123696739674415
-0.05807151210728989
-0.07897354948727298
-0.09449222743160135
-0.11398955068807481
-0.13931405252355944
-0.16638651192761245
-0.18276088098491527
-0.1639486266331005
-0.11810223047882573
-0.05531632336396797
-0.07508637947512398
-0.08958227967900712
-0.1074316136341622
-0.12967125662112267
-0.1526337723259985
-0.16427309766572762
-0.14907881527255995
-0.10123695872425742
-0.047203856581518266
-0.06383594931594416
-0.07573570962017584
-0.08947305806032091
-0.104876582380939
-0.1182693620653481
-0.12198685449334334
-0.10705934614975376
-0.0721395854052389
-0.03413386825332054
-0.046294724262679665
-0.05505762888446952
-0.06404219025330349
-0.07232818517945816
-0.07699355975751132
-0.0735461322719857
-0.05950283988090632
-0.037378453527480815
-0.016690386248001232
-0.02435635598499175
-0.029647469938709037
-0.03424711681623194
-0.03737811504902311
-0.03724194878395792
-0.03173461738651895
-0.020688917870302248
-0.008372168523919754
-0.01251718620437714
-0.020468285054448643
-0.026355751548862827
-0.03173402825314042
-0.03665632270303831
-0.03908013719819792
-0.03533593607767216
-0.02291137184033687
-0.006212980072859864
-0.026109235139756493
-0.039074849769349385
-0.049131016420005835
-0.059772629310373304
-0.07189368140757324
-0.08254394814025545
-0.08468592903886929
-0.06874158181722123
-0.03672295072487941
-0.03653512120945379
-0.054075593207016937
-0.06778805668750465
-0.08422584141453626
-0.10644469970020509
-0.13264750469306819
-0.151531368977885
-0.14325582118726743
-0.09327036426475388
-0.04301930098881712
-0.06376211986957969
-0.08041206373854948
-0.10188646526012235
-0.13420871625862674
-0.1787726517579813
-0.22382287625623576
-0.2281725062964597
-0.16012338333257503
-0.04522494187290249
-0.06712061483790421
-0.08490818077984841
-0.10848477293734504
-0.14504296851509935
-0.19981648768771265
-0.25820810055620314
-0.2794209038397639
-0.1758245718060607
-0.043019299703473735
-0.06376211801011777
-0.08041206120901734
-0.10188646163146586
-0.13420871045877902
-0.17877264146636662
-0.22382285980165761
-0.22817248386581923
-0.16012336947460426
-0.036535117978019116
-0.05407558850833993
-0.06778805065346205
-0.08422583322658284
-0.106444687463636
-0.1326474855568449
-0.1515313407985559
-0.14325578911575576
-0.09327033978047439
-0.026109231537475353
-0.03907484463206856
-0.049131010111295836
-0.05977262135866113
-0.07189367089517873
-0.08254393412016725
-0.08468591171822482
-0.0687415642155429
-0.036722938614275336
-0.012517186251898238
-0.02046828469974571
-0.026355751026812868
-0.03173402764605271
-0.03665632211959746
-0.039080136802795096
-0.0353359361645289
-0.02291137258089293
-0.006212981387534455
-0.008238822613748198
-0.014880093259989735
-0.020351397849481145
-0.02581727717438298
-0.03152870610028913
-0.035423620799519995
-0.03291217939931812
-0.019887778366410203
-0.002970450980910755
-0.017533774504954636
-0.02843773042400244
-0.037920923211004265
-0.048760666693624444
-0.06255212734936322
-0.07735887860485491
-0.08421502796863933
-0.06887878827637905
-0.02807726355717932
-0.02470688510220498
-0.039450928592941636
-0.05246852701816351
-0.06924387161984669
-0.09464660275193637
-0.13040879973652864
-0.16810692059107168
-0.17148100727854398
-0.10728850570103532
-0.029190079067575425
-0.04660959384909802
-0.06241690043043491
-0.08440243420704974
-0.12131325177699637
-0.18374243529001433
-0.2754201422804954
-0.360232536049125
-0.32330651961569856
-0.030716846344603255
-0.049099881676966106
-0.06599620897486602
-0.09009354500096833
-0.13234386672866094
-0.20689930868945794
-0.3445383773463391
-0.49319909563496367
-0.5504080104101376
-0.029190078153305876
-0.04660959246234597
-0.06241689843750464
-0.08440243108725554
-0.12131324604001748
-0.18374242370180127
-0.27542011379750875
-0.36023248265667007
-0.32330643876957765
-0.024706882852797207
-0.03945092513504278
-0.05246852229515753
-0.06924386467835575
-0.09464659122363628
-0.13040877848948185
-0.16810688136843055
-0.17148094457547813
-0.1072884420830178
-0.017533772045908336
-0.028437726664833463
-0.03792091832406186
-0.04876066010911018
-0.06255211783832237
-0.07735886440559625
-0.08421500782014846
-0.06887876555560979
-0.028077248316321857
-0.008238822673547475
-0.014880093004649098
-0.02035139743952641
-0.02581727665847211
-0.031528705561868264
-0.03542362047755887
-0.03291217945934477
-0.019887778900510966
-0.002970451290593701
-0.004176150021976355
-0.007869566918316195
-0.011235418838396072
-0.01482320685522609
-0.01880341082596715
-0.022017878326323626
-0.020133336625576703
-0.012310320306369249
-0.0006916384529631614
-0.00894053928482208
-0.015041161235103573
-0.020914170999958515
-0.028011140674607304
-0.03773486888144362
-0.049144051030225455
-0.057605371654744886
-0.04210473630519118
-0.01789455033849663
-0.01263157210269128
-0.02088785817591088
-0.02898184355262856
-0.039997838138333464
-0.05780957968556777
-0.08668130436979027
-0.12294271239375121
-0.1502418626968165
-0.0538081064362359
-0.014942608767569254
-0.02470620297867754
-0.034549084413129094
-0.04899649311801113
-0.07509303218057539
-0.12465865872115955
-0.22363567712216081
-0.36183839519924277
-0.43623241649777356
-0.01573104263775349
-0.026039380881002216
-0.03656045095181071
-0.05245363042251938
-0.08224632715223379
-0.1441212048266607
-0.2767949063055539
-0.6979938441072591
-1.2262231848088732
-0.014942608291221404
-0.024706202232891883
-0.03454908328740203
-0.04899649123319705
-0.0750930284051492
-0.12465864952434913
-0.22363565325940726
-0.3618382903575821
-0.4362321683869368
-0.012631570938992809
-0.020887856344643296
-0.02898184092100564
-0.039997834056066495
-0.05780957234071593
-0.08668128944520959
-0.12294267801826209
-0.15024179523811654
-0.05380800792681839
-0.008940538021306565
-0.01504115925035876
-0.020914168293529656
-0.028011136846544105
-0.03773486299905926
-0.04914404143914908
-0.05760535626359342
-0.042104715533696435
-0.017894538865220966
-0.0041761500488064485
-0.007869566790759563
-0.011235418597834723
-0.01482320653849456
-0.018803410511054608
-0.022017878118276712
-0.020133336896606124
-0.01231031953193451
-0.0006916379186350241
3.976083462475799e-09
5.382844392443076e-09
6.956952347536571e-09
9.08698893908877e-09
1.2020791473332793e-08
1.5425939636770636e-08
1.5653768059564754e-08
1.5518708096351475e-08
8.592905942350626e-09
7.984226613189094e-09
1.0232042768620886e-08
1.2968030205229297e-08
1.712237462925259e-08
2.389356268395204e-08
3.4279423744010273e-08
4.758874183607986e-08
3.828336048172787e-08
4.5942670112708583e-08
1.1124939192086458e-08
1.4154920791042969e-08
1.7897491488838568e-08
2.421074896119535e-08
3.594561803765828e-08
5.806805347674526e-08
1.0078974810312502e-07
1.7034608390531503e-07
6.050026968296152e-08
1.310331754211802e-08
1.6686499293427914e-08
2.1241021386231296e-08
2.9372472454269882e-08
4.564969913189998e-08
8.087693004199537e-08
1.6346234588127118e-07
4.0900420117395697e-07
8.658378192194505e-07
1.3777707863482647e-08
1.757393874868285e-08
2.243450580863282e-08
3.1281842893804424e-08
4.9659320211503655e-08
9.077041340788128e-08
2.019852445300785e-07
5.672563929692842e-07
2.8428661380530684e-06
1.3100134310661815e-08
1.669400262471754e-08
2.124284037563484e-08
2.9369857657002285e-08
4.565117706079036e-08
8.08776121630217e-08
1.6346166376024485e-07
4.0901204556575976e-07
8.6584782366117e-07
1.1127440302516334e-08
1.4149236449156888e-08
1.7902948457049206e-08
2.4213704818976112e-08
3.595209818740841e-08
5.807157776871463e-08
1.0079145340569085e-07
1.7034108168445528e-07
6.05043624091195e-08
7.979451766004786e-09
1.0225903679383919e-08
1.2966665963176638e-08
1.7124648366007023e-08
2.3900383894215338e-08
3.428044692554977e-08
4.759851890412392e-08
3.829040906566661e-08
4.595108293869998e-08
3.973127604695037e-09
5.387846613302827e-09
6.960590326343663e-09
9.090399544220418e-09
1.2006466931779869e-08
1.542980498925317e-08
1.565422280691564e-08
1.5522346075158566e-08
8.588585842517205e-09
0.004176156288849597
0.007869575021913988
0.01123542887057738
0.01482321927983321
0.01880342634694898
0.022017896748366184
0.02013335725723664
0.012310336669088429
0.0006916534121046425
0.00894055182448028
0.01504117668082472
0.02091418973736836
0.028011164147756062
0.03773489951800002
0.04914409088837601
0.057605418145840304
0.0421047936447394
0.017894582470944442
0.012631589530428755
0.02088787954403415
0.028981869400240612
0.039997871241894245
0.057809625188838254
0.08668136993162534
0.1229428009479534
0.15024194826196435
0.053808277508323954
0.014942629270080943
0.024706228140075837
0.03454911504923075
0.048996533068702774
0.07509308951921412
0.12465874720624015
0.2236358196406627
0.36183854515275016
0.4362323924449356
0.01573106418709358
0.02603940736162258
0.036560483282983114
0.05245367293321124
0.08224638895535463
0.14412130386665467
0.2767950664176624
0.6979941161675924
1.2262220755421822
0.014942628784183398
0.02470622739292594
0.03454911393191651
0.04899653118968672
0.07509308575515661
0.12465873800545069
0.22363579578370718
0.3618384403167738
0.4362321443416022
0.01263158837332412
0.02088787769753253
0.028981866776348397
0.039997867163265255
0.0578096178441001
0.0866813550179586
0.12294276657712544
0.15024188080678869
0.053808179012094115
0.00894055056619436
0.015041174700400006
0.02091418703025738
0.02801116032333084
0.037734893640617884
0.049144081297981757
0.057605402764238534
0.04210477287847425
0.01789457098357161
0.0041761563202271645
0.007869574900496445
0.011235428635018252
0.014823218965602791
0.01880342604931684
0.022017896550323712
0.020133357531221918
0.0123103359014749
0.000691652872319537
0.008238828226240003
0.014880100141226649
0.020351405421479285
0.02581728542008932
0.031528714595197016
0.035423628980197464
0.03291218690992537
0.019887785733089913
0.002970456041794023
0.017533785671730584
0.028437743478662014
0.03792093743663827
0.048760682249849197
0.06255214365637585
0.07735889338027846
0.08421503940326147
0.06887879810142294
0.028077279793478738
0.02470690051040947
0.03945094660252835
0.05246854659617384
0.06924389329492442
0.09464662589857653
0.13040881954896122
0.16810692290255247
0.17148098747588847
0.10728848010057845
0.029190097149921712
0.0466096150003068
0.06241692354637962
0.08440246008262875
0.12131327973611405
0.18374245869699735
0.27542012791275283
0.3602323921890047
0.3233061596461084
0.03071686534053697
0.049099903920250654
0.06599623333772797
0.09009357236368487
0.1323438965700916
0.2068993322635606
0.3445383599420211
0.49319880891903267
0.5504070984502505
0.029190096245656605
0.046609613614691625
0.06241692154208067
0.08440245696033344
0.12131327399526981
0.18374244710298626
0.27542009943351786
0.3602323387992783
0.3233060787922568
0.024706898271233513
0.03945094313667141
0.05246854187907957
0.06924388636093681
0.09464661435322341
0.1304087982908868
0.16810688368559568
0.171480924769412
0.10728841649415699
0.01753378320199772
0.028437739729042733
0.03792093254583051
0.04876067567215614
0.0625521341505646
0.07735887918215667
0.0842150192668214
0.06887877537951681
0.02807726455375814
0.008238828299454326
0.014880099884976516
0.020351405015617274
0.025817284903951077
0.03152871407337443
0.03542362866323856
0.03291218697631848
0.01988778627105603
0.0029704563553423213
0.01251719018591757
0.020468288586243943
0.026355755027225314
0.03173403145615339
0.036656324912200944
0.039080137597011344
0.035335934806198566
0.02291137033330415
0.006212980395048362
0.026109242614893446
0.03907485646436726
0.04913102298519334
0.05977263533600308
0.07189368521744655
0.08254394754703753
0.08468592262602215
0.06874157279457904
0.03672294503462581
0.03653513128074337
0.05407560234925768
0.06778806567240281
0.08422584955019374
0.10644470414331408
0.13264749985546587
0.15153134918068645
0.14325578391640192
0.09327032089549903
0.04301931268150838
0.06376213055887092
0.08041207427640984
0.10188647473160017
0.13420872057099587
0.17877264138292048
0.2238228328990317
0.22817241740744976
0.1601232730567972
0.0452249541110632
0.06712062606425206
0.08490819187500165
0.10848478283287477
0.14504297264898014
0.1998164746275961
0.2582080438785397
0.2794207606305008
0.17582446888786762
0.0430193113822952
0.06376212868349285
0.08041207176302123
0.10188647108952864
0.13420871477183027
0.17877263110449348
0.22382281644718205
0.22817239497953778
0.16012325919655268
0.03653512805021819
0.05407559765149017
0.06778805964290768
0.08422584135132638
0.10644469189878691
0.1326474807174236
0.1515313209999931
0.1432557518437534
0.09327029641303852
0.026109238994422412
0.03907485133049704
0.04913101668444142
0.05977262738383615
0.07189367470004981
0.08254393353468004
0.08468590531128939
0.06874155519517444
0.03672293290946982
0.012517190229573316
0.02046828824836666
0.02635575452768535
0.031734030855204765
0.03665632432239363
0.03908013720433701
0.035335934888507836
0.022911371076816067
0.006212981700173259
0.016690387294147513
0.024356357049327926
0.02964747137230006
0.03424711833940819
0.03737811628866439
0.037241949207782454
0.031734616520225245
0.020688915619075487
0.008372166040771845
0.03413387468003748
0.04629473149157093
0.05505763741280134
0.06404220018066553
0.07232819645014388
0.07699357183059874
0.07354614377322832
0.05950284868322342
0.03737845881391877
0.04720386302619772
0.06383595645570495
0.07573571835928306
0.08947306863433369
0.10487659510499725
0.11826937657747294
0.12198686827696292
0.10705935456553561
0.072139585903642
0.055316327768423434
0.07508638358444841
0.08958228491064801
0.10743161984896687
0.1296712635687527
0.1526337786572185
0.1642730997932631
0.1490788056207748
0.1012369399684303
0.058071515018809805
0.07897355154045727
0.09449223006367902
0.11398955341815054
0.13931405431935673
0.16638651084508638
0.1827608715182123
0.1639486008316453
0.1181021942300049
0.055316326168622254
0.07508638143053759
0.08958228216602038
0.1074316162098512
0.12967125836667037
0.15263377132191636
0.16427309022856207
0.14907879659449463
0.10123693130299216
0.04720385900782276
0.06383595099896411
0.07573571172838456
0.08947306023196688
0.10487658389979515
0.11826936165016377
0.12198685030534762
0.10705933682925206
0.07213957336466592
0.034133870065943483
0.04629472546889701
0.055057630403325675
0.0640421918260472
0.07232818631177906
0.07699355976524203
0.073546130483237
0.05950283613310603
0.037378449770585576
0.01669038724685379
0.024356356598445927
0.029647470751342553
0.03424711766683686
0.0373781156511086
0.037241948867631436
0.03173461671985933
0.02068891654039362
0.008372167445259038
SCALARS stress12 float
LOOKUP_TABLE default
-0.0033001001837220656
0.0033001038036744035
-0.0033001074234633165
0.0033001038035251895
0.009584513591040178
-0.009584518080053783
0.00958452256831066
-0.009584518079307713
-0.01566140483197387
-0.018864677204277314
-0.015618347800497645
-0.008673576593409393
2.171688606722455e-09
0.00867357966533433
0.015618350039325435
0.018864677514621064
0.01566140431459928
0.015661409509160507
0.018864680564270486
0.0156183501214322
0.008673577784099606
-2.1718447457130807e-09
-0.00867358085628922
-0.01561835236096698
-0.018864680874862927
-0.01566140899200974
-0.01566140899227264
-0.018864680875367412
-0.015618352361094878
-0.008673580856253693
-2.1717170284318854e-09
0.008673577784286124
0.015618350122167612
0.01886468056513735
0.015661409508958002
0.01566140431511087
0.01886467751491594
0.015618350039513729
0.008673579665565256
2.171595167577145e-09
-0.00867357659371315
-0.015618347800558041
-0.018864677204465607
-0.015661404832364667
0.029866617900950132
0.04230109734067611
0.04064488638429253
0.024489727864249744
-6.670781260709191e-09
-0.024489736548872543
-0.04064489075288691
-0.04230109629533274
-0.02986661697826065
-0.029866625391310464
-0.04230110478150806
-0.04064489269443605
-0.024489731497671308
6.670495829308454e-09
0.024489740181480535
0.040644897062090735
0.04230110373530849
0.029866624467853597
0.029866624467825176
0.042301103735645995
0.04064489706233587
0.02448974018187755
6.670802576991264e-09
-0.02448973149746081
-0.04064489269429572
-0.042301104781302
-0.02986662539079532
-0.029866616977717086
-0.04230109629508405
-0.04064489075249256
-0.024489736548424013
-6.670422089682937e-09
0.024489727864566824
0.040644886384686885
0.042301097341102434
0.029866617901557646
0.0005357552855755898
0.0007733832021230569
0.0006302257157315694
0.0003369203556502498
-0.00013664847519123668
-0.0008040082093714318
-0.0014532652089087605
-0.0014645228511938058
0.00031398344590627403
-0.000535752606097617
-0.0007733808289316357
-0.0006302229341059729
-0.00033691678835623406
0.0001366529087363233
0.0008040132073219297
0.0014532698723925819
0.0014645255435397075
-0.00031398471925925264
0.0005357499263283216
0.0007733784549017741
0.0006302201514643002
0.0003369132206429981
-0.00013665734345380542
-0.0008040182059048107
-0.0014532745369777444
-0.0014645282364398327
0.0003139859921326149
-0.0005357526060905116
-0.0007733808285550481
-0.0006302229338857046
-0.0003369167880080681
0.00013665290944686603
0.0008040132072792971
0.001453269873024965
0.001464525543930506
-0.000313984718932403
-0.02541839734800888
-0.024408435996626565
-0.01937855106143971
-0.010576076840949966
3.3212577410512978e-09
0.010576081651461067
0.019378554984047724
0.02440843715540808
0.025418397596524755
-0.024408435996754463
-0.021734286029126082
-0.016693003689059793
-0.009046976737540291
3.205793866478679e-09
0.009046981476746652
0.016693007685592676
0.02173428802178279
0.02440843667503856
-0.01937855106135089
-0.01669300368897808
-0.012508756803185861
-0.006698242425860812
2.4922502950275316e-09
0.006698246161798593
0.012508760127058594
0.016693005506787983
0.019378551584772197
-0.010576076840806081
-0.009046976737597134
-0.006698242426033119
-0.0035597976456838154
1.3528703296517008e-09
0.003559799697850252
0.006698244287314026
0.009046977771227205
0.010576077128440886
3.3210696415153507e-09
3.2055460508217948e-09
2.492111406127151e-09
1.3528751452440702e-09
-6.951383912934261e-14
-1.3530243592185798e-09
-2.4922783836700546e-09
-3.2058409260571352e-09
-3.3209701655323443e-09
0.010576081651322511
0.00904698147667915
0.006698246161576549
0.0035597996980811786
-1.3529436737602651e-09
-0.0035598017507005864
-0.006698248023230491
-0.009046982510174217
-0.01057608193901416
0.0193785549839518
0.01669300768519122
0.012508760126802798
0.006698244287507649
-2.492252085262159e-09
-0.006698248023397468
-0.012508763450895799
-0.016693009503519818
-0.019378555506882833
0.02440843715559282
0.02173428802167976
0.01669300550663877
0.00904697777108332
-3.2059541965612226e-09
-0.009046982510318102
-0.016693009503409684
-0.021734290014752133
-0.024408437834146923
0.02541839759625475
0.024408436674455913
0.01937855158434587
0.01057607712857589
-3.3210773020542206e-09
-0.010576081939024817
-0.019378555507014283
-0.024408437834019026
-0.02541839784496247
0.052845833779361584
0.0683815915208541
0.06764823232962236
0.04256100508389604
-1.567666653434774e-08
-0.042561023506316964
-0.0676482401960854
-0.0683815878704479
-0.05284583313844493
0.0683815915201329
0.0993503929757793
0.11835145934243307
0.07849764355080957
-2.4926900821231612e-08
-0.07849768663251044
-0.1183514630040019
-0.09935038123768436
-0.06838159009254241
0.06764823232929729
0.1183514593423709
0.19496529834929177
0.19670796217261888
-9.326712628598965e-08
-0.19670802203958182
-0.19496526108898138
-0.11835143120983105
-0.06764822903443601
0.04256100508402483
0.07849764355124478
0.19670796217356212
0.2741982670437615
-1.2652547985020357e-07
-0.27419834973589374
-0.19670785289838832
-0.0784976219544582
-0.04256100184457168
-1.5676725695357163e-08
-2.4926702479888263e-08
-9.32659993679863e-08
-1.265247426829319e-07
1.3058998327153404e-14
1.265256397431358e-07
9.326699057510268e-08
2.4926993802409925e-08
1.5676832276767527e-08
-0.04256102350641555
-0.07849768663212231
-0.19670802203884818
-0.27419834973609625
1.2652462901691086e-07
0.274198432428129
0.1967079127650173
0.07849766503655431
0.042561020267083194
-0.0676482401962808
-0.11835146300417065
-0.1949652610890844
-0.19670785289932624
9.326582994101384e-08
0.1967079127644702
0.19496522382886283
0.11835143487186173
0.06764823690144084
-0.06838158787111936
-0.09935038123798634
-0.11835143121025204
-0.0784976219553224
2.4926507032063672e-08
0.07849766503585354
0.11835143487146205
0.09935036949986298
0.06838158644298176
-0.05284583313876823
-0.06838159009280531
-0.0676482290349405
-0.042561001844938495
1.567636914029391e-08
0.04256102026669151
0.06764823690125077
0.06838158644295689
0.052845832497432355
-0.005574608349924404
-0.004403134077868742
-0.005788261180050824
-0.008302772528864466
-0.011345508463932674
-0.014088884016302927
-0.014716183694545748
-0.010075436924879
0.0035411700274252667
-0.008290280591054966
-0.0060592459178892
-0.008061432554477221
-0.012088863344814627
-0.017365313712979003
-0.02271202095641911
-0.02509823125577526
-0.01858766725818839
0.003969410430286757
-0.0075892916705058155
-0.005648089540066792
-0.007488933990700275
-0.011634385727234076
-0.017439971405238452
-0.023883775199273316
-0.02779431495800111
-0.022270666022997432
0.0017734853049446997
-0.004439576449925653
-0.0033851485125069303
-0.004509291848783903
-0.007138740465087778
-0.011005404046130707
-0.015517399381195673
-0.018920195419546815
-0.015821833800373497
-0.0006666660369987198
1.0652172477421118e-09
8.147864605234645e-10
1.1068621574850113e-09
1.793459603049996e-09
2.830553569310723e-09
4.2041250480906456e-09
5.2516568871396885e-09
4.704745037997782e-09
5.84464032726828e-10
0.004439577828406982
0.0033851495352976713
0.004509293238598389
0.007138742685874888
0.011005407498075215
0.015517404235204424
0.018920201434873718
0.01582183875927967
0.0006666660729948148
0.007589292551969606
0.0056480901643496395
0.007488934815839343
0.011634386902279914
0.017439972940863413
0.023883776960950343
0.027794316460472146
0.02227066681918899
-0.0017734863567682169
0.008290280387008409
0.006059245821120385
0.008061432395734869
0.01208886295864886
0.017365312922756004
0.022712019589590682
0.025098229339839406
0.01858766539136525
-0.003969410781330396
0.005574608165360928
0.004403133907899814
0.005788260945081447
0.008302772209844989
0.011345508056436415
0.01408888353410731
0.014716183200206956
0.010075436574346952
-0.0035411699069314295
0.005574610698158011
0.004403136182624223
0.005788263792531723
0.008302776099526454
0.011345513162098086
0.014088889632866142
0.014716189310309602
0.01007544053290843
-0.0035411713582149673
0.008290281987708426
0.006059247098097131
0.008061434196381612
0.012088865825575112
0.017365317327094232
0.022712025784109358
0.0250982366951078
0.01858767139236761
-0.003969411024574043
0.007589292539009307
0.005648090252506677
0.0074889350840621205
0.011634387576627603
0.017439974414738657
0.023883779695271556
0.027794320467407374
0.022270670321409725
-0.0017734858066429382
0.004439576888300323
0.0033851488633658278
0.004509292426361
0.007138741512937585
0.011005405885672559
0.015517402363519395
0.018920199226911905
0.015821836290820457
0.0006666649091195964
-1.0654551130251377e-09
-8.150025931907834e-10
-1.1071197084100426e-09
-1.793640715119782e-09
-2.8306588392701393e-09
-4.2045609841001585e-09
-5.251817744578169e-09
-4.705397321780325e-09
-5.848849113365695e-10
-0.004439578267056987
-0.0033851498862400575
-0.004509293816290949
-0.007138743733870356
-0.011005409337705885
-0.015517407217791046
-0.018920205242810795
-0.015821841250418522
-0.0006666649457871543
-0.007589293420895871
-0.005648090877016898
-0.007488935909535144
-0.011634388752433722
-0.017439975951102582
-0.023883781457740838
-0.02779432197035092
-0.022270671118047147
0.0017734868578109797
-0.008290281784535836
-0.006059247001893198
-0.008061434037834658
-0.012088865439530139
-0.017365316537397035
-0.02271202441765041
-0.02509823477954498
-0.01858766952618396
0.003969411374296072
-0.00557461051416297
-0.004403136012584241
-0.005788263558088147
-0.008302775781068306
-0.011345512755070786
-0.014088889151260275
-0.014716188816532139
-0.010075440183122453
0.0035411712371455906
-0.005574610514223366
-0.004403136012413711
-0.005788263558002882
-0.008302775780670402
-0.01134551275531237
-0.014088889151182116
-0.014716188816215947
-0.010075440183008766
0.0035411712369821657
-0.008290281784333331
-0.0060592470019571465
-0.008061434037884396
-0.012088865439487506
-0.017365316537095055
-0.022712024417643306
-0.0250982347795059
-0.01858766952614843
0.003969411374484366
-0.007589293420771526
-0.005648090877002687
-0.007488935909655936
-0.011634388752469249
-0.01743997595103508
-0.02388378145759873
-0.027794321970397107
-0.02227067111769543
0.0017734868581271712
-0.004439578267131594
-0.003385149886227623
-0.004509293816354898
-0.007138743733491992
-0.01100540933779115
-0.015517407217792822
-0.018920205243048827
-0.015821841249987756
-0.0006666649456903428
-1.0653593562892638e-09
-8.150990993271989e-10
-1.1068763683397265e-09
-1.793729609289585e-09
-2.830908840678603e-09
-4.204046888389712e-09
-5.251898471669847e-09
-4.705654532699555e-09
-5.851177320437273e-10
0.0044395768883731535
0.0033851488633942495
0.004509292426156719
0.0071387415129038345
0.01100540588555532
0.015517402363542487
0.018920199226805323
0.01582183629088263
0.0006666649093887145
0.007589292539329051
0.005648090252861948
0.007488935084182913
0.011634387577011296
0.017439974414983794
0.023883779695573537
0.027794320467734224
0.022270670321447028
-0.0017734858060620695
0.00829028198831594
0.006059247098548326
0.008061434197109918
0.012088865825845119
0.017365317327268315
0.02271202578446463
0.0250982366954986
0.018587671392559457
-0.003969411024300484
0.005574610698580784
0.004403136182887124
0.00578826379265962
0.008302776099817777
0.011345513162460463
0.014088889633065094
0.0147161893108958
0.010075440533348967
-0.003541171357923645
0.005574608165506589
0.004403133908240875
0.005788260945017498
0.00830277221002973
0.011345508056741949
0.014088883534320473
0.014716183200309985
0.010075436574691565
-0.0035411699064837876
0.00829028038728552
0.006059245821365522
0.00806143239611501
0.012088862958847812
0.017365312922922982
0.022712019589832266
0.025098229340194678
0.018587665391883945
-0.003969410780705118
0.007589292552459881
0.005648090164640962
0.007488934815974346
0.011634386902905192
0.01743997294130395
0.02388377696125943
0.027794316460862944
0.02227066681945722
-0.0017734863563898529
0.0044395778285437615
0.003385149535267473
0.004509293238834644
0.007138742685997457
0.011005407498167585
0.015517404235463772
0.018920201435271622
0.01582183875987564
0.0006666660732914664
1.0653741222554913e-09
8.149292768377947e-10
1.1070587641048846e-09
1.7936333807089255e-09
2.8309054267428024e-09
4.204745815417077e-09
5.252074650186067e-09
4.70560967968936e-09
5.850175066601793e-10
-0.0044395764497640045
-0.003385148512426994
-0.004509291848599162
-0.00713874046503804
-0.011005404046004585
-0.015517399380906127
-0.018920195418887786
-0.015821833799922302
-0.0006666660364249566
-0.007589291670445419
-0.0056480895398856035
-0.007488933990053681
-0.011634385727077756
-0.017439971405071475
-0.02388377519882212
-0.027794314957539257
-0.022270666022519592
0.0017734853053177346
-0.008290280590685484
-0.006059245917711564
-0.008061432554328007
-0.012088863344633438
-0.017365313712886632
-0.022712020956124235
-0.025098231255441306
-0.018587667257897067
0.003969410431093223
-0.005574608350134014
-0.004403134078124538
-0.0057882611795534444
-0.008302772528871571
-0.011345508463854515
-0.014088884015933445
-0.014716183694197582
-0.010075436924605441
0.003541170027720142
-0.00914390044833624
-0.007385391022886267
-0.009823328160855738
-0.014163050080206574
-0.01952311842477883
-0.024621522496161674
-0.026420567565153874
-0.01910251493864834
0.004575587704053419
-0.009376257822431455
-0.0069506623527715305
-0.009737044036661757
-0.015130062453092563
-0.022571574460158672
-0.031107464215988756
-0.03681808331716141
-0.03055144920241304
0.0019241469241748632
-0.007958190070375792
-0.005927254101926849
-0.008410827971967905
-0.013748957504265746
-0.02181799265941109
-0.032228819325961666
-0.04117186745114054
-0.03704488266115469
-0.003721069560329582
-0.004571328589344503
-0.003457765575340943
-0.004956436293445776
-0.008329225252008854
-0.013709113508754811
-0.02149795714282554
-0.02832691804761467
-0.028120345839767857
-0.0045146539699585375
1.2457290476941552e-09
9.196989975146508e-10
1.492409265613226e-09
2.790024863918994e-09
4.988292348628853e-09
9.169663806041228e-09
1.237912489182591e-08
1.329394637428205e-08
3.3878193861358596e-09
0.004571330323454248
0.0034577668285127316
0.004956438287447185
0.008329228760725726
0.01370911955342713
0.02149796628212286
0.028326931262725452
0.028120357720981204
0.004514655531578704
0.007958191479904286
0.00592725520569104
0.008410829467372594
0.013748959639077185
0.02181799528350581
0.032228821769216154
0.041171868584129356
0.03704488251216276
0.0037210671721989996
0.00937625841865497
0.006950662908174365
0.009737044593734367
0.01513006280872986
0.022571574171120545
0.031107462490286508
0.03681807958925276
0.030551444256978755
-0.0019241490902111025
0.009143900799344351
0.007385391326934609
0.009823328471163961
0.014163050443912084
0.019523118811768825
0.024621522790418737
0.026420567591138422
0.0191025146144419
-0.004575588149908327
-0.009376257822573564
-0.006950662352672055
-0.00973704403662623
-0.015130062453103221
-0.0225715744600663
-0.031107464216091785
-0.03681808331740655
-0.030551449202398828
0.0019241469239617004
-0.008125264855561198
-0.0056256148816586915
-0.008619628860152773
-0.014779113566021351
-0.02456981806116687
-0.03849717318203716
-0.05319841197086106
-0.05360670347874574
-0.010901901462144536
-0.006365146099511776
-0.004388761106920214
-0.007037101406787372
-0.012996261047884872
-0.023510891334971973
-0.04117856026753586
-0.06473434232756503
-0.07662391656323564
-0.026437933222762666
-0.0035877645571158467
-0.002517737500934203
-0.004113363048833918
-0.007870079261730112
-0.01497931972326505
-0.028029707749027466
-0.05058523989785613
-0.062242136821600624
-0.03617727461280218
1.2145560113197007e-09
7.918250499727719e-10
1.5310222117870254e-09
3.2744387479244352e-09
6.955868769864537e-09
1.4018976202123667e-08
3.172419837937923e-08
3.56978560323018e-08
2.1598204606732008e-08
0.003587766363448708
0.0025177386759711595
0.004113365162440985
0.0078700834883918
0.014979327728090297
0.02802972295748063
0.050585260689599565
0.06224216758277201
0.03617728426800326
0.006365147824652695
0.004388762364381904
0.0070371031538556394
0.012996263621086968
0.02351089465466316
0.04117856246210749
0.06473433918686666
0.0766239041884802
0.026437922460544883
0.008125266366079131
0.005625616142175716
0.008619630188185567
0.014779114837061513
0.02456981846656703
0.03849717084076332
0.053198404077214434
0.05360669033121468
0.01090189142728093
0.009376258491464284
0.00695066288913182
0.009737044622916358
0.015130063158764528
0.02257157521212605
0.03110746472893311
0.036818083130569335
0.030551448077034138
-0.001924148088296107
-0.00795819007050369
-0.005927254101976587
-0.008410827971985668
-0.013748957504226667
-0.02181799265969886
-0.032228819326157065
-0.04117186745129686
-0.03704488266175332
-0.003721069560654655
-0.006365146099494012
-0.0043887611069592936
-0.0070371014067021065
-0.012996261048073166
-0.023510891335128292
-0.04117856026756783
-0.06473434232783859
-0.07662391656310774
-0.026437933222904775
-0.00466820405545576
-0.0031521027927858825
-0.005506737198231804
-0.01122056890380918
-0.022502764992200497
-0.04476402761153153
-0.0867249041850009
-0.13526465807802168
-0.09997321281419147
-0.0025499958896038066
-0.0017374724107241946
-0.003160451377896223
-0.006766182021738842
-0.014346801414435006
-0.03102027312820077
-0.06789714128749225
-0.15214609001730217
-0.1237870110157786
1.0021296847906314e-09
6.566450438949545e-10
1.343573086121097e-09
3.145784230329518e-09
7.067794599580068e-09
1.706473062162983e-08
3.9332570214711815e-08
1.340252541448539e-07
9.125341149385235e-08
0.0025499974557696703
0.0017374734487063392
0.003160453292959886
0.00676618605931445
0.014346809850673381
0.031020289727459627
0.06789717639230375
0.1521461039328571
0.12378704686354958
0.004668205726311214
0.003152104050666793
0.005506738898084507
0.011220571474101604
0.02250276833132503
0.044764030225106666
0.08672489378702863
0.13526461223445096
0.09997313360674909
0.006365147612608979
0.004388762372890653
0.007037102730706124
0.012996262326844032
0.023510891676735923
0.04117855669500159
0.06473432940886426
0.07662389059879615
0.02643791581418853
0.007958190613251759
0.005927254534555004
0.008410828442237062
0.01374895807464327
0.021817993232694732
0.032228819544556586
0.04117186662895733
0.037044880270791225
0.0037210672240206577
-0.004571328589683787
-0.0034577655753977865
-0.004956436293738875
-0.008329225252126093
-0.013709113509200677
-0.021497957143594704
-0.02832691804819376
-0.028120345840363825
-0.00451465397016193
-0.003587764556794326
-0.002517737501044337
-0.004113363048837471
-0.007870079261884655
-0.014979319723359197
-0.028029707749432475
-0.05058523989851693
-0.062242136822185046
-0.036177274613379495
-0.002549995889506107
-0.0017374724106744566
-0.003160451378040108
-0.006766182021806344
-0.01434680141466771
-0.031020273128497422
-0.06789714128791502
-0.1521460900177658
-0.12378701101645717
-0.0013637429547568303
-0.000932180870233168
-0.0017955702563412501
-0.004067337686134209
-0.009211758596872954
-0.021513893804300466
-0.05532052826319145
-0.15741824756080547
-0.5712027669378283
5.75984801520768e-10
3.915664181786127e-10
8.15515169283465e-10
1.9540720083699448e-09
4.694299657326262e-09
1.1548611372758089e-08
3.4993329171839616e-08
1.1172471214848656e-07
8.450866868514595e-07
0.0013637438811446856
0.0009321815127272259
0.0017955714323587557
0.004067340234758632
0.009211764025838676
0.02151390579956214
0.055320552055047045
0.15741830280571278
0.5712022695815939
0.0025499969056497207
0.0017374731964991952
0.0031604524322546013
0.00676618362461312
0.014346803606450464
0.031020274499454104
0.06789713546176301
0.15214601028344887
0.12378690865446984
0.0035877654499891776
0.002517738259207647
0.004113363837362272
0.007870080019188208
0.014979319791130763
0.028029705093473467
0.05058522695262013
0.062242112805037664
0.03617723795856165
0.004571328886562753
0.0034577658156180746
0.004956436556710742
0.008329225572310861
0.013709113823551888
0.021497957135181878
0.028326917360473658
0.02812034302077393
0.00451464979227012
1.245751946044038e-09
9.195275652018609e-10
1.49211132338678e-09
2.789917630252603e-09
4.987825263924606e-09
9.169397685582226e-09
1.237835078882199e-08
1.3293217193677265e-08
3.387235381069331e-09
1.2146195160767093e-09
7.919354061414197e-10
1.5307435319300566e-09
3.274102766681608e-09
6.955353626381111e-09
1.4018262106674229e-08
3.172360862890855e-08
3.569708439954411e-08
2.1597756472147012e-08
1.0020855256698269e-09
6.567191235262726e-10
1.3434195977879426e-09
3.1456259819151455e-09
7.06758029878074e-09
1.706444408000607e-08
3.93318657643249e-08
1.34023423470353e-07
9.125211875016248e-08
5.761080501542892e-10
3.914717439101878e-10
8.15409961774094e-10
1.9539925233402755e-09
4.694317823350502e-09
1.1548497269586733e-08
3.499303602438886e-08
1.1172391012337357e-07
8.450814128480033e-07
-5.564992910933597e-14
9.281464485866309e-14
7.423228698399953e-14
3.9669656448637625e-14
-4.259093078218257e-14
2.4827362388180063e-14
-3.211320098728265e-14
1.0498546476611637e-14
-5.062061880778401e-13
-5.758789001220066e-10
-3.915552326816396e-10
-8.153531183552332e-10
-1.9540244977633847e-09
-4.694257427217963e-09
-1.154862516727917e-08
-3.4993192343790724e-08
-1.1172481606536167e-07
-8.450866957332437e-07
-1.0020713148151117e-09
-6.56516618846581e-10
-1.343501310202555e-09
-3.1456224292014667e-09
-7.06775793446468e-09
-1.706455776684379e-08
-3.933243419851351e-08
-1.340251998271924e-07
-9.125305666657368e-08
-1.2146621486408549e-09
-7.920064604149957e-10
-1.530700899365911e-09
-3.2742946132202633e-09
-6.955673370612203e-09
-1.4018723959452473e-08
-3.172402074369529e-08
-3.569783046941666e-08
-2.1597948318685667e-08
-1.2458158948902565e-09
-9.196270411848673e-10
-1.4923102753527928e-09
-2.789612096876226e-09
-4.9880597430274065e-09
-9.169568215838808e-09
-1.2378897906728525e-08
-1.3293636413891363e-08
-3.3875551253004232e-09
0.004571330323344114
0.0034577668281130514
0.004956438287230469
0.008329228760352692
0.013709119553077187
0.021497966281565084
0.028326931262078858
0.028120357720574418
0.0045146555313024805
0.0035877663632319923
0.002517738675919645
0.004113365162474736
0.007870083488128898
0.014979327727928649
0.02802972295702233
0.05058526068923186
0.062242167582191144
0.03617728426763733
0.002549997455709274
0.0017374734486210741
0.0031604532928923845
0.006766186059202539
0.014346809850326991
0.031020289727294426
0.06789717639188098
0.152146103932445
0.12378704686279818
0.001363743881071855
0.0009321815125762356
0.0017955714324404681
0.004067340234556127
0.00921176402581736
0.021513905799530164
0.05532055205490849
0.15741830280563107
0.571202269580759
-5.759111798564476e-10
-3.9160932829851447e-10
-8.155919759000874e-10
-1.9540935605744103e-09
-4.694265282045862e-09
-1.1548597148025586e-08
-3.499300325893184e-08
-1.1172404582038276e-07
-8.450812604698932e-07
-0.0013637448077012948
-0.0009321821547398912
-0.0017955726084135648
-0.00406734278321963
-0.009211769454953611
-0.021513917794774073
-0.05532057584647987
-0.15741835805054905
-0.5712017722245459
-0.002549998471838677
-0.0017374742341367266
-0.003160454346897268
-0.006766187661938261
-0.014346812042511203
-0.03102029109872717
-0.06789717056626898
-0.15214602419873557
-0.12378694450221062
-0.0035877672559543328
-0.0025177394340545334
-0.004113365950686898
-0.007870084245340081
-0.014979327795998643
-0.028029720301908867
-0.05058524774425166
-0.062242143565661934
-0.036177247613537133
-0.0045713306203865045
-0.003457767068560713
-0.004956438550223652
-0.008329229081240896
-0.013709119867712616
-0.02149796627411149
-0.028326930575154563
-0.02812035490106979
-0.0045146513533325106
0.007958191479723098
0.005927255205406823
0.008410829467230485
0.01374895963895284
0.021817995283250013
0.03222882176851982
0.041171868583603555
0.03704488251189986
0.003721067171937875
0.006365147824432427
0.004388762364143872
0.007037103153628266
0.012996263620991044
0.023510894654513947
0.041178562461901436
0.06473433918642968
0.07662390418790466
0.026437922460480934
0.004668205726218844
0.0031521040506703457
0.005506738897835817
0.01122057147400568
0.022502768331278844
0.04476403022487219
0.08672489378686166
0.13526461223400688
0.09997313360665672
0.002549996905759855
0.0017374731964761025
0.003160452432178218
0.006766183624526079
0.014346803606436254
0.031020274499683254
0.06789713546201526
0.15214601028366204
0.12378690865495479
-1.0022107033158534e-09
-6.566871629809512e-10
-1.3434458753791567e-09
-3.1456291738063413e-09
-7.067563242979524e-09
-1.7064493471052877e-08
-3.933200799083325e-08
-1.3402346394492115e-07
-9.125203434545703e-08
-0.0025499984719008495
-0.0017374742343303495
-0.0031604543472596447
-0.006766187662154977
-0.014346812042255408
-0.03102029109876092
-0.06789717056638267
-0.15214602419846557
-0.12378694450159777
-0.004668207396861135
-0.003152105308405595
-0.005506740597528648
-0.011220574044312315
-0.022502771670453114
-0.04476403283847219
-0.08672488338892492
-0.13526456639044682
-0.09997305439965487
-0.006365149337856479
-0.004388763630323922
-0.007037104477397804
-0.01299626489932848
-0.023510894996029208
-0.04117855888931388
-0.06473432626768982
-0.07662387822366412
-0.026437905051828636
-0.007958192022591959
-0.00592725563856078
-0.008410829937716358
-0.01374896020923444
-0.021817995856359573
-0.03222882198750199
-0.04117186776155535
-0.03704488012144225
-0.0037210648355667786
0.009376258418619443
0.006950662907939886
0.009737044593592259
0.015130062808353273
0.022571574170726194
0.031107462489892157
0.03681807958901118
0.030551444256495586
-0.0019241490904065017
0.008125266365968997
0.00562561614203716
0.008619630187993721
0.014779114836692031
0.024569818466446236
0.038497170840628314
0.05319840407683074
0.05360669033095178
0.010901891427209875
0.006365147612410027
0.004388762372812494
0.0070371027302158495
0.012996262326574026
0.02351089167674303
0.0411785566948879
0.06473432940868662
0.07662389059868957
0.026437915814000235
0.0035877654498150946
0.002517738258879021
0.004113363837387141
0.007870080019042547
0.014979319791001089
0.028029705093473467
0.050585226953193896
0.06224211280528813
0.03617723795862293
-1.2145198041713101e-09
-7.917553140890377e-10
-1.5310000281432146e-09
-3.2742707087307643e-09
-6.9556163745376764e-09
-1.401861062649834e-08
-3.1723474389067086e-08
-3.5697162510672786e-08
-2.159775430027322e-08
-0.0035877672561284157
-0.0025177394339461756
-0.00411336595073486
-0.007870084245592324
-0.014979327795519026
-0.02802972030166373
-0.050585247744127315
-0.062242143565514496
-0.03617724761327423
-0.006365149337835163
-0.004388763630331027
-0.007037104477479517
-0.012996264899417298
-0.023510894995904863
-0.0411785588892819
-0.0647343262679776
-0.07662387822357175
-0.026437905051732713
-0.008125267876614828
-0.0056256174031297235
-0.008619631515713877
-0.01477911610719218
-0.024569818871938764
-0.03849716849967422
-0.053198396183393726
-0.05360667718355927
-0.010901881392580748
-0.009376259087140681
-0.006950663444484917
-0.00973704517993923
-0.015130063513780101
-0.022571574922558568
-0.031107463002904012
-0.03681807940197501
-0.03055144313145064
0.0019241502542044486
0.00914390079923777
0.007385391326984347
0.009823328471121329
0.014163050443244174
0.019523118811676454
0.024621522789864514
0.0264205675907192
0.019102514614210975
-0.004575588150284915
0.009376258491425205
0.006950662888979053
0.009737044622859514
0.015130063158288465
0.022571575211678407
0.031107464728599155
0.03681808313019275
0.030551448076678867
-0.0019241480885341389
0.007958190613102545
0.005927254534402238
0.00841082844232588
0.013748958074451423
0.021817993232200905
0.03222881954469159
0.04117186662881167
0.037044880270439506
0.0037210672236653863
0.004571328886441961
0.0034577658155132696
0.004956436556621924
0.008329225572373034
0.013709113823498598
0.02149795713540925
0.028326917360640635
0.028120343020494154
0.004514649791974357
-1.245993849763316e-09
-9.196427230850901e-10
-1.492410778292097e-09
-2.789783591639061e-09
-4.98795317549483e-09
-9.169375335404961e-09
-1.2378642985644284e-08
-1.329340850592109e-08
-3.3877941146842616e-09
-0.004571330620509073
-0.0034577670685873585
-0.004956438550726361
-0.008329229080871414
-0.01370911986774992
-0.021497966274115043
-0.028326930575046205
-0.028120354901082223
-0.004514651353296095
-0.007958192022687882
-0.0059272556381202435
-0.008410829937581354
-0.013748960209319705
-0.021817995856334704
-0.03222882198781818
-0.04117186776145232
-0.03704488012144047
-0.003721064835549015
-0.009376259087641614
-0.006950663444321492
-0.009737045179740278
-0.015130063513950631
-0.022571574922622517
-0.031107463002999935
-0.03681807940181159
-0.030551443131287215
0.0019241502542932665
-0.009143901150601152
-0.007385391630670313
-0.00982332878106007
-0.014163050806779154
-0.01952311919868066
-0.024621523084000785
-0.026420567616668222
-0.019102514289720318
0.00457558859583429
SCALARS strain11 float
LOOKUP_TABLE default
-1.0527588483515908e-10
-1.0527583358966577e-10
-1.0527618665671511e-10
-1.0527623801062863e-10
5.156497614222156e-10
5.156496228764246e-10
5.156500267569804e-10
5.156501651350589e-10
-8.266419343608061e-11
6.882663546317819e-12
5.158076819907918e-11
7.286218340405283e-11
7.939788912262324e-11
7.286216797153605e-11
5.1580737361997704e-11
6.882627911641728e-12
-8.266420372414279e-11
-1.2197714731660743e-09
-1.944508925881574e-09
-2.467761461298192e-09
-2.7923833476360883e-09
-2.9027235549897883e-09
-2.7923832712303283e-09
-2.467761309816514e-09
-1.944508783869724e-09
-1.2197714331014159e-09
-8.266445365307234e-11
6.8826086873819575e-12
5.158086641000832e-11
7.286237970775e-11
7.93981283922989e-11
7.28623951995591e-11
5.158089734026342e-11
6.882644361868597e-12
-8.266444335484576e-11
-1.2197713490266196e-09
-1.9445086618461577e-09
-2.467761151318015e-09
-2.7923830901126613e-09
-2.902723366457195e-09
-2.792383166742038e-09
-2.4677613028318803e-09
-1.9445088042950766e-09
-1.2197713890709492e-09
2.921701563275486e-10
1.1181988624549033e-10
-6.663706905288199e-11
-2.0907565186682145e-10
-2.632689402666209e-10
-2.0907557576811092e-10
-6.663694161423398e-11
1.1181997469182365e-10
2.921701698428063e-10
2.331360345962354e-09
4.261549704746097e-09
6.361843577371777e-09
8.00378591907843e-09
8.648728567005502e-09
8.003785522848277e-09
6.361842898886528e-09
4.261549216458708e-09
2.3313602545302293e-09
2.9217057094678813e-10
1.118200675427283e-10
-6.663715347750288e-11
-2.09076001905728e-10
-2.6326944131937846e-10
-2.0907607817257458e-10
-6.663728106353462e-11
1.118199792666486e-10
2.921705573146399e-10
2.3313601770792307e-09
4.261549034317825e-09
6.361842603090764e-09
8.003785170355516e-09
8.6487281729302e-09
8.003785566787264e-09
6.361843281847064e-09
4.2615495228237485e-09
2.331360268480862e-09
4.79348149477895e-11
5.6075829076078455e-11
5.182740927029317e-11
4.1559274752589644e-11
2.381845725528051e-11
-1.7241117743687718e-12
-2.6604776605913425e-11
-2.6642378404216063e-11
4.589482716561594e-11
4.793482996737772e-11
5.6075832154196185e-11
5.1827411475966964e-11
4.155927786458869e-11
2.3818462171459735e-11
-1.7241064753306537e-12
-2.6604775389574113e-11
-2.664239066417094e-11
4.589477994861133e-11
4.793457760915768e-11
5.6075615620387615e-11
5.1827157244110043e-11
4.155895126054269e-11
2.381805459784024e-11
-1.724568641917664e-12
-2.66052113506558e-11
-2.664264939038468e-11
4.5894891213165215e-11
4.7934562516724626e-11
5.607561260156219e-11
5.182715524511229e-11
4.1558948045205624e-11
2.3818049681661015e-11
-1.7245740409056699e-12
-2.660521284482192e-11
-2.6642637359128698e-11
4.589493821332939e-11
-8.733157038701269e-10
-1.4343998196556277e-09
-1.8224483932628244e-09
-2.060266710856326e-09
-2.1406561001375472e-09
-2.0602666635935815e-09
-1.8224482844495838e-09
-1.4343996942981396e-09
-8.733156653657032e-10
2.3085796139598203e-12
-6.989146810127203e-11
-1.0643593608231918e-10
-1.2267102576079137e-10
-1.2737898495554024e-10
-1.2267102082089522e-10
-1.0643592541478624e-10
-6.989145393549302e-11
2.3085705820475038e-12
4.795516134842328e-10
7.703665253894741e-10
9.698110619921617e-10
1.0944012674838944e-09
1.1369401843216084e-09
1.0944012426802286e-09
9.698110056051784e-10
7.703664604584695e-10
4.795515900010914e-10
7.258527786528461e-10
1.2129814080035512e-09
1.552288529973532e-09
1.756914645804931e-09
1.8257320754290117e-09
1.7569146042380596e-09
1.5522884344502384e-09
1.212981298660915e-09
7.258527486903262e-10
8.047008309800021e-10
1.3552246631121133e-09
1.740827983842494e-09
1.9727020478790657e-09
2.0502747608782564e-09
1.9727020004772566e-09
1.7408278750424757e-09
1.3552245390808904e-09
8.047007987667967e-10
7.25852631441908e-10
1.2129811415837372e-09
1.5522881771377226e-09
1.7569142420861583e-09
1.8257316554658413e-09
1.7569142003812206e-09
1.5522880815098205e-09
1.2129810323736617e-09
7.258526012511127e-10
4.795513224293126e-10
7.70366002369499e-10
9.698103773820172e-10
1.0944004925681793e-09
1.1369393792311916e-09
1.0944004677204678e-09
9.698103210636436e-10
7.703659374960927e-10
4.795512988597738e-10
2.3082396005352323e-12
-6.989206426677723e-11
-1.0643668617912189e-10
-1.226718713351479e-10
-1.2737986229532634e-10
-1.2267186624617395e-10
-1.0643667601811465e-10
-6.989204997902548e-11
2.3082304076866558e-12
-8.733158457379812e-10
-1.4344000373244604e-09
-1.8224486672254668e-09
-2.060267019984388e-09
-2.1406564211698105e-09
-2.0602669726606574e-09
-1.8224485585799388e-09
-1.4343999119229267e-09
-8.733158073724709e-10
1.8676271730390083e-09
3.748621044000547e-09
6.116694232869292e-09
8.193327117998698e-09
8.760737737585286e-09
8.19332669915954e-09
6.116693393581614e-09
3.748620487076384e-09
1.8676270963503393e-09
5.569259216141607e-10
1.573343618777563e-09
4.0509102937422435e-09
7.818291157415694e-09
9.651731115392585e-09
7.81829013254225e-09
4.050909036933391e-09
1.5733431849323696e-09
5.569258961853846e-10
-7.710051601271506e-10
-1.2454957934425007e-09
-7.730900949723635e-10
4.511974792131811e-09
8.617893200662754e-09
4.511972764760146e-09
-7.730912873423374e-10
-1.2454957581161446e-09
-7.710051380636364e-10
-1.8006072698349527e-09
-3.8969269641934275e-09
-7.54009262272093e-09
-1.2215484833139823e-08
-1.4424463709584629e-08
-1.2215483593084012e-08
-7.54009098635238e-09
-3.89692623679372e-09
-1.8006071908597183e-09
-2.1718982353121817e-09
-5.0340021630681935e-09
-1.0760164396732988e-08
-2.5519673249734434e-08
-3.488232314367607e-08
-2.5519668345940924e-08
-1.0760160316977257e-08
-5.034001110190613e-09
-2.1718981348935795e-09
-1.8006066605459426e-09
-3.896925124890182e-09
-7.54008783328748e-09
-1.2215463756543934e-08
-1.442443560085726e-08
-1.2215462516379702e-08
-7.54008619699008e-09
-3.896924397736113e-09
-1.8006065814783816e-09
-7.710041090905532e-10
-1.2454934485749348e-09
-7.730844604922577e-10
4.511979225158362e-09
8.617897658431984e-09
4.511977197868859e-09
-7.730856529164417e-10
-1.2454934132155444e-09
-7.71004087054144e-10
5.56926651775196e-10
1.5733450763806577e-09
4.050911760190903e-09
7.818291207959844e-09
9.651729550792288e-09
7.818290182913606e-09
4.050910503282948e-09
1.573344642293213e-09
5.569266261897188e-10
1.8676273795930747e-09
3.748621386772758e-09
6.1166945979540446e-09
8.193327301035742e-09
8.76073782801283e-09
8.19332688220336e-09
6.116693758901842e-09
3.748620830014613e-09
1.867627303009438e-09
-6.279648957270177e-13
4.2269871295270685e-12
-2.861348429651937e-13
-7.492517919638277e-12
-1.7974277031633555e-11
-3.177635980442016e-11
-4.427570246876402e-11
-4.0321484891679064e-11
1.1368664076951513e-11
-1.942738985057557e-12
2.035625689550142e-12
9.835623543511017e-13
-2.1465190922328103e-12
-7.896681899482593e-12
-1.7150601636233844e-11
-2.8132996507138574e-11
-3.0659869047693447e-11
-9.99879847768761e-14
2.5409214510408893e-12
4.86386187165263e-13
2.6119637568883876e-12
4.859566015311622e-12
7.231418643994863e-12
9.565058172391499e-12
8.61977725779222e-12
4.582604735676836e-12
-5.579636430078257e-12
5.754374681968136e-12
5.261351991661136e-13
3.969850147379485e-12
1.0852063907767367e-11
2.180428152823697e-11
3.781808392420139e-11
5.4980095178091014e-11
5.6664318512906586e-11
7.012219419674819e-12
6.850445279155103e-12
6.734250438881505e-13
4.583751956446504e-12
1.3218644587016787e-11
2.804624004775078e-11
5.016225747919386e-11
7.812172327887689e-11
8.378278139153913e-11
1.8506115110209547e-11
5.754362842141599e-12
5.261253549492006e-13
3.969836369118048e-12
1.0852039847372984e-11
2.18042395259907e-11
3.781802070759144e-11
5.498000733908032e-11
5.666424783520692e-11
7.012199995091756e-12
2.540899406161404e-12
4.863702366878333e-13
2.6119428978550285e-12
4.859530908337057e-12
7.2313627982656175e-12
9.564977450151626e-12
8.619683372660346e-12
4.5825239516035575e-12
-5.579626868770348e-12
-1.9427604319317815e-12
2.035613212754829e-12
9.835443294899842e-13
-2.1465455891174663e-12
-7.896718486223716e-12
-1.7150647149008166e-11
-2.813304330570891e-11
-3.0659899442623726e-11
-9.997257216536786e-14
-6.279680822649653e-13
4.226983815934179e-12
-2.8613917469168595e-13
-7.492523342343205e-12
-1.7974283445367032e-11
-3.177636653155583e-11
-4.427570912813705e-11
-4.0321489392812146e-11
1.1368664613970402e-11
-4.496846745629036e-10
-3.5941812691009053e-10
-4.672136316830842e-10
-6.700128054367566e-10
-9.144573105897177e-10
-1.1268671080907493e-09
-1.1572431398825114e-09
-7.637867283337576e-10
3.0533863737144484e-10
-6.598012077882199e-10
-5.172539540496791e-10
-7.004936023376635e-10
-1.0434449932716114e-09
-1.4846260324776086e-09
-1.929805683404339e-09
-2.1320496424770858e-09
-1.5959540360849288e-09
3.0451189523566136e-10
-7.638434503406098e-10
-5.909545272683221e-10
-8.407002384388195e-10
-1.316746368422767e-09
-1.9797560013103436e-09
-2.7642419136931546e-09
-3.3373230139595322e-09
-2.845520874551516e-09
4.134460928863692e-11
-8.198135498707474e-10
-6.252740102842856e-10
-9.254169265101979e-10
-1.5073686743199115e-09
-2.373588571087063e-09
-3.522457373716535e-09
-4.575780255192124e-09
-4.212620391047514e-09
-4.31362919567848e-10
-8.38093330332755e-10
-6.360849390068223e-10
-9.549172311039541e-10
-1.5792358527727296e-09
-2.5268914847431998e-09
-3.864116459550881e-09
-5.1200550860769405e-09
-4.889979176807873e-09
-7.310353472960845e-10
-8.198135354085069e-10
-6.252740004841144e-10
-9.254169048363188e-10
-1.5073686274789895e-09
-2.373588476071989e-09
-3.522457180260986e-09
-4.5757799394385704e-09
-4.212620016020289e-09
-4.3136276179949124e-10
-7.638434175333297e-10
-5.909545043696334e-10
-8.407001923144874e-10
-1.3167462754456544e-09
-1.979755824055147e-09
-2.7642415983495646e-09
-3.3373225330108366e-09
-2.845520368783061e-09
4.134474639616603e-11
-6.598011636611915e-10
-5.172539219030846e-10
-7.004935500096621e-10
-1.0434449026509445e-09
-1.4846258854005017e-09
-1.9298054600383626e-09
-2.132049349810262e-09
-1.5959537625813783e-09
3.0451192459721144e-10
-4.496846576730666e-10
-3.594181135506869e-10
-4.672136138970863e-10
-6.700127792973198e-10
-9.144572751617177e-10
-1.1268670652122474e-09
-1.1572430980289194e-09
-7.63786703637665e-10
3.053386211914215e-10
-6.28152152688799e-13
4.2268388581037175e-12
-2.8631668569237614e-13
-7.492771914325972e-12
-1.797462061021982e-11
-3.177678022922353e-11
-4.427612942419141e-11
-4.0321760494177244e-11
1.13687645875751e-11
-1.9427997401897648e-12
2.0355823722852193e-12
9.835044206856413e-13
-2.146615865747034e-12
-7.896836921758533e-12
-1.715082089918257e-11
-2.8133249373578383e-11
-3.066005943867713e-11
-9.997502771388195e-14
2.5409878508006575e-12
4.864366872695783e-13
2.6120232601058993e-12
4.859636595178985e-12
7.231493386182129e-12
9.565120436936419e-12
8.619808319337429e-12
4.582588841950614e-12
-5.57969390465186e-12
5.754531637596779e-12
5.26262651366654e-13
3.9700064681569335e-12
1.0852285937549216e-11
2.180458571216789e-11
3.7818460262633923e-11
5.4980468139403184e-11
5.6664556298348286e-11
7.0121136256832235e-12
6.850641881796798e-12
6.735886330337096e-13
4.583956398393326e-12
1.3218945532174026e-11
2.804667426513729e-11
5.0162821528541894e-11
7.812233203109947e-11
8.37831947456017e-11
1.8506020934130593e-11
5.7545435667852914e-12
5.262725413233461e-13
3.970020113434197e-12
1.085230998693217e-11
2.1804627683920977e-11
3.781852353006585e-11
5.498055594749718e-11
5.6664626813841145e-11
7.012132842743214e-12
2.541009797424321e-12
4.864524437764631e-13
2.6120439556618995e-12
4.859671651331573e-12
7.231549118408959e-12
9.56520129639563e-12
8.619902024051284e-12
4.582669607389167e-12
-5.5797034134437255e-12
-1.942778461028064e-12
2.035594965971079e-12
9.83522315103685e-13
-2.1465894789766612e-12
-7.896800397697848e-12
-1.7150775569367365e-11
-2.813320249199882e-11
-3.066002909965103e-11
-9.999068765901079e-14
-6.281488136849209e-13
4.226842429194623e-12
-2.863124369751127e-13
-7.4927665136439e-12
-1.7974614150746563e-11
-3.177677331065842e-11
-4.4276122939307166e-11
-4.0321756042172073e-11
1.1368763903172479e-11
-4.496846427381817e-10
-3.5941808023688107e-10
-4.672135704426021e-10
-6.700127193273871e-10
-9.144571965892474e-10
-1.1268669713271156e-09
-1.1572430026801146e-09
-7.637866353871382e-10
3.053386367886862e-10
-6.598011549740216e-10
-5.172538834630354e-10
-7.00493497253062e-10
-1.0434448265992443e-09
-1.4846257807902386e-09
-1.92980532947501e-09
-2.132049209602592e-09
-1.595953657042767e-09
3.0451195971519743e-10
-7.63843413814855e-10
-5.90954460244299e-10
-8.407001294680308e-10
-1.3167461800697445e-09
-1.9797556870407914e-09
-2.7642414166050933e-09
-3.3373223295043948e-09
-2.845520209854269e-09
4.134479698436177e-11
-8.198135350730818e-10
-6.252739535839001e-10
-9.254168359810105e-10
-1.5073685191688865e-09
-2.373588313155366e-09
-3.522456951067423e-09
-4.575779672025187e-09
-4.212619874723335e-09
-4.313628081948739e-10
-8.380933316083866e-10
-6.360848914594748e-10
-9.549171601039584e-10
-1.579235739150036e-09
-2.5268913130750323e-09
-3.8641162030659165e-09
-5.120054795215991e-09
-4.8899791044932825e-09
-7.310355343938041e-10
-8.198135497640213e-10
-6.252739634196467e-10
-9.254168573940034e-10
-1.5073685660047263e-09
-2.373588408253449e-09
-3.5224571445856523e-09
-4.57577998780754e-09
-4.212620249930131e-09
-4.313629660208289e-10
-7.63843446593336e-10
-5.909544831294352e-10
-8.407001755652579e-10
-1.3167462731874646e-09
-1.9797558642350017e-09
-2.764241731940213e-09
-3.3373228105140767e-09
-2.8455207156023954e-09
4.13446599395131e-11
-6.598011988283054e-10
-5.172539156028536e-10
-7.004935496606845e-10
-1.0434449167709837e-09
-1.4846259279672954e-09
-1.929805552859621e-09
-2.1320495024168e-09
-1.5959539307258886e-09
3.045119304942548e-10
-4.4968465981605997e-10
-3.5941809392832163e-10
-4.672135884505225e-10
-6.700127454820705e-10
-9.144572319393204e-10
-1.1268670140074117e-09
-1.1572430446099395e-09
-7.63786660037491e-10
3.0533865282979613e-10
-3.9945341691433284e-10
-2.994395478558273e-10
-3.9042408341328507e-10
-5.700799608801375e-10
-7.96615801472908e-10
-1.0071676322007491e-09
-1.0657051922742354e-09
-7.371677118774971e-10
2.281745240443982e-10
-6.242390042055049e-10
-4.601707716372477e-10
-6.18787264143104e-10
-9.344588288604053e-10
-1.3579439349347539e-09
-1.8109424580930105e-09
-2.0588821958510383e-09
-1.6149415022253188e-09
2.334953322559479e-10
-7.405580736789537e-10
-5.348698645313765e-10
-7.527357515463127e-10
-1.193751754471702e-09
-1.838098634855063e-09
-2.6466473201014804e-09
-3.342288163787072e-09
-3.045466014132091e-09
-2.6049682257029457e-10
-8.031178844009024e-10
-5.700427018235526e-10
-8.324550643556045e-10
-1.373582078335078e-09
-2.2159024794604984e-09
-3.420711603422988e-09
-4.743576173993938e-09
-4.908177396003216e-09
-9.989199148655346e-10
-8.234082424668385e-10
-5.808668256490585e-10
-8.600898801915618e-10
-1.4398630208920389e-09
-2.367993796656946e-09
-3.7384807642002165e-09
-5.5227601594054254e-09
-5.758447641502677e-09
-1.5689085274046306e-09
-8.031178742297308e-10
-5.700426960146007e-10
-8.324550499577384e-10
-1.3735820440319377e-09
-2.2159024028226514e-09
-3.420711441433019e-09
-4.7435758232409824e-09
-4.908176959572878e-09
-9.98919659537617e-10
-7.405580410614089e-10
-5.34869844439755e-10
-7.527357113986451e-10
-1.1937516704934676e-09
-1.8380984683080568e-09
-2.6466470004346342e-09
-3.342287621250611e-09
-3.0454653360009016e-09
-2.6049657261087184e-10
-6.242389486570843e-10
-4.6017073302440374e-10
-6.187872057401823e-10
-9.344587302979575e-10
-1.3579437729786662e-09
-1.8109422075542173e-09
-2.058881854767811e-09
-1.6149411651993794e-09
2.334953908435228e-10
-3.994533987912159e-10
-2.9943953442696696e-10
-3.9042406638114657e-10
-5.700799370971464e-10
-7.966157705426529e-10
-1.0071675965237214e-09
-1.0657051591450828e-09
-7.371676951960302e-10
2.2817451178613738e-10
-8.742568966335694e-11
-4.577135333822132e-11
-6.710345457632439e-11
-1.398321447256104e-10
-2.578688615009837e-10
-4.042018667217213e-10
-5.1200339256574e-10
-4.3808341312274774e-10
-4.869334861538899e-12
-1.9999796134798856e-10
-1.259530290699843e-10
-1.701211336888476e-10
-3.1496709533821614e-10
-5.607021674486779e-10
-8.960548196125263e-10
-1.2118170415749934e-09
-1.1616643577197413e-09
-2.507529533422463e-10
-2.706844385493842e-10
-1.7221388087817514e-10
-2.371392789048203e-10
-4.484670342690258e-10
-8.372202438836291e-10
-1.4789521027609725e-09
-2.3161961882249636e-09
-2.7744970006186767e-09
-1.0093500871655186e-09
-3.076499122696538e-10
-1.950343624767387e-10
-2.7566764151200135e-10
-5.393091872455384e-10
-1.0557729619617125e-09
-2.017194218878872e-09
-3.776916143187936e-09
-5.8364780754286945e-09
-4.32566143789901e-09
-3.192993584360111e-10
-2.0193083526641713e-10
-2.88635319307899e-10
-5.726524960046495e-10
-1.141430358154774e-09
-2.2533935977754865e-09
-4.445413319277e-09
-8.96302575847508e-09
-6.039159579785463e-09
-3.076499056492443e-10
-1.950343584634966e-10
-2.756676341428147e-10
-5.393091697831071e-10
-1.0557729190577997e-09
-2.0171941079107796e-09
-3.776915828098456e-09
-5.8364769694628575e-09
-4.325660628403175e-09
-2.7068441879149366e-10
-1.7221386813202335e-10
-2.3713925894872404e-10
-4.4846699153451954e-10
-8.372201484568972e-10
-1.4789518829694753e-09
-2.316195657272525e-09
-2.774496011384144e-09
-1.009349163714953e-09
-1.9999793381264151e-10
-1.2595300967292982e-10
-1.7012110794243415e-10
-3.1496704827028933e-10
-5.607020787456936e-10
-8.960546565536017e-10
-1.211816769619819e-09
-1.161664009360501e-09
-2.507527937104171e-10
-8.74256923027116e-11
-4.5771357481906496e-11
-6.710345880810099e-11
-1.3983214768683758e-10
-2.578688623005828e-10
-4.04201864658349e-10
-5.120033872802544e-10
-4.3808340398326223e-10
-4.86933742550763e-12
1.9255930235457353e-10
1.405110402055842e-10
1.8141661037103556e-10
2.452343967493739e-10
3.080090211948403e-10
3.4612121596940416e-10
3.043685923974647e-10
1.6967549595369217e-10
-1.7249380582783655e-10
2.7972626707135293e-10
1.9605748011183253e-10
2.6557578795745893e-10
3.7206765421482024e-10
4.797642033947452e-10
5.333349195307515e-10
4.773966031653776e-10
1.1092886826218399e-10
-3.4773123412779576e-10
3.16036040710057e-10
2.1238259748416165e-10
3.0605740465482125e-10
4.4991131286805893e-10
6.041031152420086e-10
6.745687117888036e-10
3.9215996874233277e-10
-1.9819135310634789e-10
-1.5331727672750079e-09
3.3568795974273785e-10
2.1836861564487463e-10
3.299379131755135e-10
5.038717873404155e-10
7.00465516124431e-10
7.970116168724075e-10
2.454509531093493e-10
-2.709964760068211e-09
-4.564510643672338e-09
3.4229239508868915e-10
2.201586721723941e-10
3.383976279140705e-10
5.236980922499628e-10
7.394787470162541e-10
8.375436346491573e-10
1.6657340668782517e-10
-4.315568487135257e-09
-2.499232895174389e-08
3.356879569212711e-10
2.1836861463690543e-10
3.299379087336727e-10
5.038717769083578e-10
7.004654961327594e-10
7.970115912937065e-10
2.454509693452768e-10
-2.7099641093944417e-09
-4.564505294737203e-09
3.160360307760546e-10
2.1238259324984394e-10
3.060573923728435e-10
4.499112873842257e-10
6.041030717485608e-10
6.745686570010185e-10
3.9216001370961787e-10
-1.9819065209002228e-10
-1.5331720124627727e-09
2.7972624609034683e-10
1.9605746789253523e-10
2.6557576753464754e-10
3.7206762138467024e-10
4.797641570163032e-10
5.333348688138067e-10
4.773965889911283e-10
1.1092894561323273e-10
-3.4773102496910306e-10
1.9255929200383092e-10
1.4051103267122614e-10
1.8141660109433072e-10
2.4523438486296056e-10
3.0800900707395404e-10
3.461211997605817e-10
3.0436858296405876e-10
1.6967548952810023e-10
-1.7249377881764993e-10
3.67804936459004e-10
2.7971271759563306e-10
3.6351036705030445e-10
5.489596916710879e-10
7.971314684591179e-10
1.0480405339325752e-09
1.15390579369577e-09
8.474150758350757e-10
-1.7360931326824996e-10
5.969741819895554e-10
4.4949877303764404e-10
5.979319182140535e-10
9.294110129836683e-10
1.4047733089975683e-09
1.9564149943766717e-09
2.3446110113799974e-09
1.9759516655191318e-09
5.3157240759818704e-11
7.247652555750355e-10
5.380598722359132e-10
7.43953371967251e-10
1.2121836531580376e-09
1.942336419478012e-09
2.962882324935014e-09
4.035596329964478e-09
4.171570620795418e-09
9.006819022490102e-10
7.928512963425909e-10
5.808583890408147e-10
8.302966208631362e-10
1.4066772155623414e-09
2.3673368994196704e-09
3.8808204106029954e-09
6.0823568176389804e-09
7.829733566570514e-09
4.382346638438832e-09
8.147277211268068e-10
5.941238451749885e-10
8.599103241356995e-10
1.479131879252077e-09
2.5327611454509295e-09
4.289987774086787e-09
6.995594886136225e-09
1.1247723308122208e-08
6.197456894281423e-09
7.928512847873675e-10
5.808583818351054e-10
8.302966050761362e-10
1.406677178092992e-09
2.3673368150018258e-09
3.8808202146791925e-09
6.0823563724164405e-09
7.829732311239734e-09
4.382345775442702e-09
7.247652196345805e-10
5.380598480819217e-10
7.4395332821207e-10
1.2121835619164956e-09
1.9423362326140736e-09
2.9628819453998793e-09
4.035595562245155e-09
4.171569393537851e-09
9.006809233974076e-10
5.969741251955727e-10
4.4949873169311885e-10
5.979318580679379e-10
9.294109090789837e-10
1.4047731317576182e-09
1.9564147028626596e-09
2.3446105780853754e-09
1.9759511733010864e-09
5.315707476465445e-11
3.6780492262992057e-10
2.797127076269023e-10
3.63510354145334e-10
5.489596724726626e-10
7.971314424238662e-10
1.048040502668589e-09
1.1539057631636204e-09
8.474150548786335e-10
-1.7360929736774748e-10
4.278726156205069e-10
3.3159745683622216e-10
4.3366744976851746e-10
6.680174726913246e-10
9.973672354179783e-10
1.3417038463873944e-09
1.5379983351497062e-09
1.1417597740757325e-09
-1.1537687941654136e-10
7.064363090015095e-10
5.450259086360004e-10
7.26124812589598e-10
1.1482359472775014e-09
1.7819859309240602e-09
2.5790227071995676e-09
3.179138773051589e-09
3.0111194058892998e-09
2.1682919023532448e-10
8.681832636447011e-10
6.633135452573035e-10
9.15387617904438e-10
1.5143846721186035e-09
2.497025199746943e-09
3.969350581666457e-09
5.912006181023013e-09
6.479389862844815e-09
3.564112501602181e-09
9.550221239774823e-10
7.22484200340024e-10
1.0284461344389105e-09
1.768202246949166e-09
3.0621347485455682e-09
5.272305700145846e-09
8.999431893268224e-09
1.5208793750540586e-08
1.1086768477164977e-08
9.827470589296129e-10
7.408207943915893e-10
1.0672744647580647e-09
1.8618809481125348e-09
3.289050442702485e-09
5.826754581256958e-09
1.0709776408830343e-08
2.0110217277764106e-08
5.3072585938664864e-08
9.550221089623693e-10
7.224841903747565e-10
1.0284461137951956e-09
1.7682021983776803e-09
3.062134634875472e-09
5.272305428630978e-09
8.99943116500201e-09
1.5208791586049196e-08
1.1086757276079296e-08
8.681832177290501e-10
6.633135124782211e-10
9.153875609974861e-10
1.514384553568382e-09
2.497024951786607e-09
3.9693500509260185e-09
5.912005007932441e-09
6.479387109829773e-09
3.564110497251866e-09
7.064362394055569e-10
5.450258557132222e-10
7.261247365031862e-10
1.148235815018885e-09
1.7819856990202793e-09
2.579022306795156e-09
3.1791381193882314e-09
3.011118578438938e-09
2.1682865760362663e-10
4.278726006922018e-10
3.3159744588513874e-10
4.336674353809821e-10
6.68017450470905e-10
9.973672038195257e-10
1.341703810297723e-09
1.5379982899795764e-09
1.1417597545464782e-09
-1.1537690952754256e-10
3.6780479710429647e-10
2.7971259497956713e-10
3.6351020062992966e-10
5.489594096472329e-10
7.971309940114002e-10
1.0480398349935979e-09
1.1539048845710726e-09
8.47414371436971e-10
-1.7360944634178466e-10
5.969739283158931e-10
4.4949854773916205e-10
5.979316152528146e-10
9.294104955168413e-10
1.4047724132568385e-09
1.956413513505582e-09
2.344608997785323e-09
1.9759492051061075e-09
5.3156773137068964e-11
7.247649229972897e-10
5.380595764401495e-10
7.439529667619356e-10
1.212182938311358e-09
1.942335103266739e-09
2.962879913245866e-09
4.035591834635266e-09
4.171564861422845e-09
9.00675463844005e-10
7.928509198059527e-10
5.808580542645948e-10
8.30296152082916e-10
1.4066763612914976e-09
2.3673352522336614e-09
3.8808170917068325e-09
6.082349668561474e-09
7.829715720165686e-09
4.3823286439158935e-09
8.147273309173628e-10
5.941234983954647e-10
8.599098337993378e-10
1.4791309753925364e-09
2.5327593594057273e-09
4.289984113441629e-09
6.9955860153736205e-09
1.124770019294629e-08
6.197346031508299e-09
7.928509082109187e-10
5.808580470478741e-10
8.302961363450438e-10
1.4066763238009724e-09
2.3673351677014673e-09
3.880816895719502e-09
6.082349223277948e-09
7.829714464633312e-09
4.382327780868941e-09
7.247648870695402e-10
5.380595523340154e-10
7.439529228432773e-10
1.21218284707151e-09
1.942334916439223e-09
2.9628795336743088e-09
4.035591066821922e-09
4.171563634134785e-09
9.006744848153724e-10
5.969738713626683e-10
4.494985063446619e-10
5.979315549910791e-10
9.294103915833576e-10
1.4047722360727925e-09
1.956413221867903e-09
2.3446085643958334e-09
1.975948712904579e-09
5.315660723296075e-11
3.6780478333365833e-10
2.797125850404825e-10
3.635101878668372e-10
5.4895939060085e-10
7.971309678961038e-10
1.0480398036652373e-09
1.1539048541287085e-09
8.474143503839671e-10
-1.7360943037860173e-10
1.925590504283403e-10
1.405108465467474e-10
1.8141636292645365e-10
2.452339897610542e-10
3.080083862377672e-10
3.461203214755068e-10
3.0436757645090117e-10
1.6967466352189886e-10
-1.724936909854155e-10
2.797258139129613e-10
1.9605713170515847e-10
2.655753383413591e-10
3.720669098524306e-10
4.797630016701394e-10
5.333331683036855e-10
4.773943567035584e-10
1.1092707911684115e-10
-3.4773177236810583e-10
3.1603546249318e-10
2.1238215544053637e-10
3.0605681806332945e-10
4.49910301795323e-10
6.041013959413085e-10
6.745659136002158e-10
3.921561418762762e-10
-1.9819572503302382e-10
-1.533172141553982e-09
3.3568731724707154e-10
2.183681286432816e-10
3.2993724815300594e-10
5.038705981756143e-10
7.004633850268052e-10
7.970079153502864e-10
2.4544468294626317e-10
-2.7099712456470223e-09
-4.564514448902632e-09
3.422917319974167e-10
2.201581709592823e-10
3.383969367622906e-10
5.236968344704107e-10
7.394764715012048e-10
8.375394488122317e-10
1.6656662849809422e-10
-4.315581980778377e-09
-2.499228990332851e-08
3.3568731426297446e-10
2.1836812754129174e-10
3.299372437348821e-10
5.038705877486387e-10
7.004633649317955e-10
7.97007889913887e-10
2.454446990924052e-10
-2.7099705948309513e-09
-4.564509100217372e-09
3.160354526108466e-10
2.1238215109525735e-10
3.060568058423381e-10
4.499102762521974e-10
6.041013523157236e-10
6.74565858639636e-10
3.9215618680968e-10
-1.9819502404888546e-10
-1.5331713867358177e-09
2.7972579310305587e-10
1.9605711952821282e-10
2.6557531794226463e-10
3.720668771713584e-10
4.797629552239348e-10
5.33333117617234e-10
4.773943422108247e-10
1.1092715640436242e-10
-3.4773156321788346e-10
1.9255903986668647e-10
1.4051083905050583e-10
1.8141635336006354e-10
2.4523397771878677e-10
3.080083718898761e-10
3.4612030512014763e-10
3.043675671064337e-10
1.696746572606313e-10
-1.7249366393118316e-10
-8.742593178603084e-11
-4.577150159270401e-11
-6.710365867738336e-11
-1.3983244410262934e-10
-2.578692749801169e-10
-4.0420237733012254e-10
-5.12003915739028e-10
-4.3808374946089637e-10
-4.869181170798751e-12
-1.9999835990240124e-10
-1.2595327412000409e-10
-1.7012147885138548e-10
-3.149676148133583e-10
-5.607029020210608e-10
-8.960557564174134e-10
-1.2118180204994408e-09
-1.1616650157830261e-09
-2.50752484252012e-10
-2.7068490954374857e-10
-1.7221415628246761e-10
-2.3713969167922207e-10
-4.484676882174246e-10
-8.372212246359736e-10
-1.478953403405474e-09
-2.3161975890937915e-09
-2.7744977739292643e-09
-1.0093496336081745e-09
-3.0765042250705465e-10
-1.9503465041881285e-10
-2.756680941901253e-10
-5.393099360717917e-10
-1.0557741324968711e-09
-2.01719588809282e-09
-3.776917792662628e-09
-5.836478028008402e-09
-4.3256578900760994e-09
-3.1929988133994264e-10
-2.0193112681346351e-10
-2.8863578609250964e-10
-5.7265327761616e-10
-1.1414316170151403e-09
-2.2533953551723404e-09
-4.44541550278733e-09
-8.963022907357098e-09
-6.0391546973774404e-09
-3.0765041580702404e-10
-1.9503464655973074e-10
-2.7566808681924457e-10
-5.393099185026343e-10
-1.055774089509949e-09
-2.017195777168773e-09
-3.776917477441011e-09
-5.836476922084917e-09
-4.325657080490479e-09
-2.706848896926844e-10
-1.7221414361085472e-10
-2.3713967175192495e-10
-4.4846764530842955e-10
-8.372211290787987e-10
-1.4789531836817394e-09
-2.3161970584954127e-09
-2.774496784984417e-09
-1.0093487101982664e-09
-1.999983323213144e-10
-1.259532546484107e-10
-1.701214529914696e-10
-3.149675676759748e-10
-5.607028134146382e-10
-8.960555936532563e-10
-1.2118177486408283e-09
-1.1616646672747081e-09
-2.507523250098179e-10
-8.742593443893804e-11
-4.577150573130699e-11
-6.710366279565755e-11
-1.3983244695374224e-10
-2.5786927580173885e-10
-4.042023752803028e-10
-5.120039107330633e-10
-4.38083740299388e-10
-4.8691835255503446e-12
-3.9945347717564483e-10
-2.994396001804406e-10
-3.904241490176809e-10
-5.700800478755034e-10
-7.966159098016457e-10
-1.0071677538058812e-09
-1.0657053042875664e-09
-7.371677737261488e-10
2.2817456895069693e-10
-6.242390837673097e-10
-4.6017083974886103e-10
-6.187873534610342e-10
-9.344589515412693e-10
-1.3579440927505445e-09
-1.810942639634194e-09
-2.058882366783981e-09
-1.6149415966542458e-09
2.334954089547813e-10
-7.405581618398369e-10
-5.348699393108332e-10
-7.527358546149758e-10
-1.1937519025737188e-09
-1.8380988332555902e-09
-2.6466475548295567e-09
-3.3422883780033984e-09
-3.0454660986778376e-09
-2.6049668571179315e-10
-8.031179772407957e-10
-5.700427797505838e-10
-8.324551759996291e-10
-1.3735822440960377e-09
-2.2159027100228666e-09
-3.4207118850241734e-09
-4.743576397971472e-09
-4.9081773107442675e-09
-9.989194555026266e-10
-8.234083368280029e-10
-5.808669044265108e-10
-8.600899947629323e-10
-1.4398631934343443e-09
-2.3679940396994977e-09
-3.7384810671517145e-09
-5.522760387919668e-09
-5.7584473006718655e-09
-1.5689076512015628e-09
-8.031179670069436e-10
-5.700427741381434e-10
-8.324551617660875e-10
-1.3735822098674363e-09
-2.215902633551038e-09
-3.4207117230596154e-09
-4.743576047076215e-09
-4.908176874473172e-09
-9.989192001882616e-10
-7.405581292222921e-10
-5.348699192463168e-10
-7.527358145316827e-10
-1.1937518185768496e-09
-1.8380986667407712e-09
-2.646647235205062e-09
-3.342287835585522e-09
-3.045465420595776e-09
-2.6049643584385e-10
-6.242390285729488e-10
-4.60170801107218e-10
-6.187872950547243e-10
-9.344588528280496e-10
-1.357943930745329e-09
-1.8109423891513049e-09
-2.058882025651626e-09
-1.6149412597045394e-09
2.33495467486452e-10
-3.994534589034501e-10
-2.994395868583064e-10
-3.904241319211679e-10
-5.700800238756719e-10
-7.966158788663084e-10
-1.0071677181864517e-09
-1.0657052713108797e-09
-7.371677570633167e-10
2.2817455670598864e-10
SCALARS strain22 float
LOOKUP_TABLE default
-1.0527588477516201e-10
-1.0527623795775194e-10
-1.0527618682343088e-10
-1.0527583364269549e-10
5.156497612458607e-10
5.156501650243656e-10
5.156500266281487e-10
5.156496229022409e-10
-1.21977138906814e-09
-1.944508804065946e-09
-2.4677613027409363e-09
-2.792383166704149e-09
-2.9027233663599177e-09
-2.79238309016765e-09
-2.4677611513104337e-09
-1.9445086618919074e-09
-1.2197713489314405e-09
-8.266444340171051e-11
6.882644381360281e-12
5.158089739249326e-11
7.286239529606295e-11
7.939812842665046e-11
7.286237975162863e-11
5.15808664603588e-11
6.882608734802568e-12
-8.266445368978013e-11
-1.219771433030907e-09
-1.944508783760602e-09
-2.467761309824335e-09
-2.79238327114449e-09
-2.9027235550268675e-09
-2.792383347719009e-09
-2.4677614612431024e-09
-1.944508925937981e-09
-1.2197714731535202e-09
-8.266420382656594e-11
6.88262785345619e-12
5.1580737300534876e-11
7.286216781363223e-11
7.939788928130398e-11
7.286218337580792e-11
5.1580768264034367e-11
6.882663503976098e-12
-8.266419351643128e-11
2.331360268387776e-09
4.2615495226374434e-09
6.3618432816894355e-09
8.003785566764847e-09
8.648728173007018e-09
8.003785170450573e-09
6.361842603295644e-09
4.261549034324639e-09
2.3313601770007925e-09
2.9217055743252635e-10
1.1181997927558877e-10
-6.663728093471778e-11
-2.0907607811266354e-10
-2.632694412289799e-10
-2.090760019553274e-10
-6.663715344914547e-11
1.1182006771886648e-10
2.9217057093597357e-10
2.3313602545393085e-09
4.2615492164513376e-09
6.361842898797317e-09
8.003785522737947e-09
8.648728567114576e-09
8.003785919073754e-09
6.361843577227766e-09
4.261549704781102e-09
2.3313603459628997e-09
2.9217016968249207e-10
1.1181997450895553e-10
-6.663694156075344e-11
-2.090755758316053e-10
-2.6326894034468564e-10
-2.0907565199074304e-10
-6.663706906006688e-11
1.1181988605576488e-10
2.9217015618066115e-10
4.793481489666891e-11
5.607582915056607e-11
5.182740935674926e-11
4.1559274677408025e-11
2.3818457217340216e-11
-1.7241118358845396e-12
-2.660477679050705e-11
-2.6642378510637812e-11
4.589482711407432e-11
4.7934562525320687e-11
5.607561265464485e-11
5.1827155214160844e-11
4.1558947994783175e-11
2.3818049735583265e-11
-1.7245739851793392e-12
-2.6605212830301592e-11
-2.6642637398184857e-11
4.5894938286215585e-11
4.793457754427694e-11
5.607561560736531e-11
5.182715724508446e-11
4.1558951320935976e-11
2.3818054776234975e-11
-1.7245685919303125e-12
-2.6605211428670514e-11
-2.6642649487507265e-11
4.5894891233649515e-11
4.7934829930629395e-11
5.607583207533113e-11
5.18274114010062e-11
4.1559278039140345e-11
2.3818462260617397e-11
-1.7241064296421598e-12
-2.6604775360678213e-11
-2.6642390606521416e-11
4.5894780088102105e-11
-8.733157038877525e-10
2.308579837505381e-12
4.795516134096906e-10
7.25852778686696e-10
8.047008309884838e-10
7.258526314298676e-10
4.795513223545222e-10
2.308239712639712e-12
-8.733158458566965e-10
-1.4343998195476294e-09
-6.98914680852694e-11
7.703665253868403e-10
1.212981408093694e-09
1.3552246631017195e-09
1.2129811417395896e-09
7.703660023773432e-10
-6.989206423826845e-11
-1.4344000373024707e-09
-1.8224483932169523e-09
-1.0643593598620907e-10
9.698110620313336e-10
1.5522885300798586e-09
1.7408279837906914e-09
1.5522881771040448e-09
9.6981037738444e-10
-1.0643668640797712e-10
-1.8224486672158814e-09
-2.060266710787647e-09
-1.2267102575512022e-10
1.0944012675355654e-09
1.7569146457980843e-09
1.9727020478196506e-09
1.7569142421329553e-09
1.0944004925275113e-09
-1.2267187130772272e-10
-2.0602670199481034e-09
-2.1406561001506332e-09
-1.2737898491679375e-10
1.1369401843202345e-09
1.8257320755133916e-09
2.050274760830702e-09
1.8257316555898636e-09
1.1369393793512455e-09
-1.2737986247944083e-10
-2.1406564213467304e-09
-2.0602666635361247e-09
-1.2267102076139943e-10
1.0944012426845688e-09
1.7569146041609208e-09
1.972702000580766e-09
1.7569142004684766e-09
1.0944004676707492e-09
-1.2267186628447985e-10
-2.060266972697405e-09
-1.822448284506489e-09
-1.0643592543667344e-10
9.698110056273981e-10
1.5522884345212477e-09
1.740827875092319e-09
1.5522880815628055e-09
9.698103209750964e-10
-1.064366758710469e-10
-1.8224485584767356e-09
-1.4343996942571123e-09
-6.98914538030763e-11
7.703664605637414e-10
1.2129812987209485e-09
1.3552245391488934e-09
1.2129810323957309e-09
7.703659375513185e-10
-6.989204997659936e-11
-1.4343999119702943e-09
-8.733156653552576e-10
2.3085705880495263e-12
4.795515900164124e-10
7.258527486140733e-10
8.047007987513098e-10
7.258526013503164e-10
4.795512989521665e-10
2.308230455468744e-12
-8.733158073179308e-10
1.867627173071414e-09
5.569259215749871e-10
-7.71005160138847e-10
-1.8006072699852713e-09
-2.171898235383326e-09
-1.8006066606669674e-09
-7.710041090795997e-10
5.56926651836988e-10
1.8676273796891815e-09
3.748621044021186e-09
1.5733436189624246e-09
-1.2454957934291103e-09
-3.896926964150341e-09
-5.03400216307291e-09
-3.896925124919313e-09
-1.2454934485483674e-09
1.5733450763320576e-09
3.748621386876074e-09
6.116694232950003e-09
4.050910293881546e-09
-7.73090094953608e-10
-7.540092622710379e-09
-1.0760164396769075e-08
-7.540087833310504e-09
-7.730844604251022e-10
4.050911760168753e-09
6.116694598206192e-09
8.193327117905824e-09
7.818291157504295e-09
4.511974792164374e-09
-1.2215484833255959e-08
-2.5519673249688933e-08
-1.2215463756489125e-08
4.5119792251992055e-09
7.818291207923187e-09
8.193327300922685e-09
8.760737737559134e-09
9.651731115416851e-09
8.617893200702902e-09
-1.442446370951139e-08
-3.488232314353934e-08
-1.4424435600821695e-08
8.617897658449259e-09
9.651729550714828e-09
8.760737827915892e-09
8.19332669921671e-09
7.8182901325727e-09
4.511972764838149e-09
-1.2215483592938375e-08
-2.551966834588916e-08
-1.221546251633794e-08
4.5119771978075515e-09
7.818290182966397e-09
8.193326882216566e-09
6.116693393552508e-09
4.050909036958065e-09
-7.730912873391023e-10
-7.540090986301834e-09
-1.0760160316955176e-08
-7.540086196968846e-09
-7.730856528890099e-10
4.050910503200625e-09
6.116693758781025e-09
3.7486204871784e-09
1.573343184864056e-09
-1.2454957580462048e-09
-3.89692623673901e-09
-5.0340011101304075e-09
-3.896924397539031e-09
-1.2454934132014955e-09
1.5733446422154662e-09
3.748620830005281e-09
1.867627096384416e-09
5.569258960980046e-10
-7.710051380477529e-10
-1.8006071907656679e-09
-2.1718981347481967e-09
-1.8006065814669764e-09
-7.710040870013931e-10
5.569266263354267e-10
1.867627302984462e-09
-4.4968465977047487e-10
-3.594180938599072e-10
-4.672135884728233e-10
-6.700127455413793e-10
-9.14457231956965e-10
-1.1268670141568336e-09
-1.1572430446474873e-09
-7.637866601104542e-10
3.0533865285208203e-10
-6.598011988490263e-10
-5.17253915660939e-10
-7.004935497331327e-10
-1.0434449168215327e-09
-1.4846259280485034e-09
-1.9298055529188737e-09
-2.132049502419223e-09
-1.5959539307490083e-09
3.045119304545278e-10
-7.638434465937856e-10
-5.909544831652075e-10
-8.407001755660313e-10
-1.3167462732032707e-09
-1.9797558642496887e-09
-2.764241732014827e-09
-3.3373228105703523e-09
-2.845520715579029e-09
4.134465994188618e-11
-8.198135497015768e-10
-6.252739634673225e-10
-9.254168574032151e-10
-1.5073685660280422e-09
-2.3735884082166834e-09
-3.522457144538608e-09
-4.575779987860558e-09
-4.212620249860476e-09
-4.3136296600793314e-10
-8.380933315350565e-10
-6.360848914542205e-10
-9.549171601233682e-10
-1.5792357391969012e-09
-2.5268913130753367e-09
-3.864116203048747e-09
-5.120054795206818e-09
-4.8899791044261684e-09
-7.310355344105503e-10
-8.198135350004734e-10
-6.252739535135511e-10
-9.254168358639308e-10
-1.5073685191401372e-09
-2.37358831303267e-09
-3.522456951118077e-09
-4.575779672070288e-09
-4.212619874758534e-09
-4.3136280822521446e-10
-7.638434138147277e-10
-5.909544602789893e-10
-8.407001294792408e-10
-1.3167461799802295e-09
-1.9797556870686665e-09
-2.764241416628112e-09
-3.3373223294628447e-09
-2.845520209773777e-09
4.134479693776565e-11
-6.598011548436976e-10
-5.172538834825879e-10
-7.004934972226573e-10
-1.0434448265069495e-09
-1.4846257807861834e-09
-1.9298053294920673e-09
-2.1320492096561355e-09
-1.5959536570246415e-09
3.04511959803336e-10
-4.4968464276563664e-10
-3.594180802814355e-10
-4.672135703435331e-10
-6.700127193611758e-10
-9.14457196480315e-10
-1.1268669713323948e-09
-1.1572430026647087e-09
-7.637866353530708e-10
3.053386365928942e-10
-6.281488114234091e-13
4.226842329027187e-12
-2.8631234282210667e-13
-7.49276649014039e-12
-1.797461412807106e-11
-3.177677324944705e-11
-4.427612289439291e-11
-4.032175604480416e-11
1.1368763873443608e-11
-1.9427783310680635e-12
2.0355949512174857e-12
9.835223677438048e-13
-2.1465893998799967e-12
-7.89680031939693e-12
-1.715077552488821e-11
-2.81332025203463e-11
-3.0660028945093985e-11
-9.999059872551441e-14
2.5410099382336222e-12
4.864525204312905e-13
2.6120439646483897e-12
4.859671733374655e-12
7.231549123630123e-12
9.565201222591267e-12
8.619902129467182e-12
4.582669617024167e-12
-5.579703392648405e-12
5.754543623687046e-12
5.262725072071089e-13
3.9700201950802324e-12
1.085230997302561e-11
2.1804627722738908e-11
3.7818523661574335e-11
5.4980555998110705e-11
5.6664626909380506e-11
7.0121329281446495e-12
6.850641897300231e-12
6.735885826638903e-13
4.583956401730689e-12
1.3218945620453533e-11
2.804667424380461e-11
5.0162821599326324e-11
7.812233206461094e-11
8.37831947203639e-11
1.8506020931477566e-11
5.75453168037856e-12
5.262626170254237e-13
3.970006510260427e-12
1.0852285966110108e-11
2.18045858211539e-11
3.781846031359156e-11
5.498046825790839e-11
5.66645562927003e-11
7.012113557268769e-12
2.5409878252126525e-12
4.864366025216158e-13
2.6120232470364456e-12
4.859636620083739e-12
7.231493308989634e-12
9.565120528220762e-12
8.619808373802309e-12
4.5825889563364575e-12
-5.579693837388841e-12
-1.9427996946005325e-12
2.035582499823235e-12
9.835043669420626e-13
-2.1466158899718455e-12
-7.896836941964901e-12
-1.7150820902496256e-11
-2.8133249360598265e-11
-3.066005922892067e-11
-9.997500738509121e-14
-6.281520225699799e-13
4.226838896882772e-12
-2.863167219898886e-13
-7.49277198531544e-12
-1.7974620584005638e-11
-3.177678024954984e-11
-4.427612940379148e-11
-4.032176040869309e-11
1.136876466897629e-11
-4.4968465756551824e-10
-3.5941811340840024e-10
-4.672136136783761e-10
-6.700127793722148e-10
-9.144572751321801e-10
-1.126867065259077e-09
-1.1572430980790482e-09
-7.637867036018555e-10
3.053386212152724e-10
-6.598011636803018e-10
-5.172539218557232e-10
-7.004935498592923e-10
-1.043444902743469e-09
-1.4846258852484522e-09
-1.929805460046921e-09
-2.1320493497189696e-09
-1.5959537624600002e-09
3.0451192460755947e-10
-7.638434175840917e-10
-5.90954504432551e-10
-8.40700192284775e-10
-1.3167462752365185e-09
-1.979755824048107e-09
-2.7642415982532816e-09
-3.337322533070603e-09
-2.845520368781364e-09
4.1344746271415713e-11
-8.198135351774888e-10
-6.252740002456731e-10
-9.254169048766124e-10
-1.5073686274119014e-09
-2.3735884758848345e-09
-3.5224571803021464e-09
-4.5757799393372276e-09
-4.2126200158344636e-09
-4.3136276183841133e-10
-8.380933304237662e-10
-6.360849390687706e-10
-9.549172312508492e-10
-1.5792358527161316e-09
-2.5268914846297263e-09
-3.8641164595816075e-09
-5.120055086124082e-09
-4.8899791768125205e-09
-7.310353472943713e-10
-8.198135498790606e-10
-6.252740101930031e-10
-9.254169264216016e-10
-1.5073686743023827e-09
-2.3735885710735443e-09
-3.522457373723493e-09
-4.575780255138602e-09
-4.212620390955008e-09
-4.313629196151468e-10
-7.638434503543795e-10
-5.909545273134688e-10
-8.407002383710242e-10
-1.316746368489891e-09
-1.9797560012290177e-09
-2.7642419136349583e-09
-3.3373230141763884e-09
-2.8455208746002437e-09
4.1344609277965464e-11
-6.598012076841217e-10
-5.172539540245779e-10
-7.004936023558222e-10
-1.0434449930336125e-09
-1.4846260324963264e-09
-1.9298056834753296e-09
-2.132049642483274e-09
-1.5959540361878098e-09
3.0451189526883295e-10
-4.4968467459177136e-10
-3.594181270136709e-10
-4.672136317799321e-10
-6.700128055302739e-10
-9.144573105878094e-10
-1.1268671080757087e-09
-1.1572431400530003e-09
-7.637867283526587e-10
3.0533863750346783e-10
-6.279681863433115e-13
4.226983752445585e-12
-2.8613922214124743e-13
-7.492523466475718e-12
-1.797428353122838e-11
-3.177636685460046e-11
-4.4275709123564394e-11
-4.032148943328444e-11
1.13686647022405e-11
-1.9427604221627785e-12
2.035613304791907e-12
9.83544272474079e-13
-2.1465456370707808e-12
-7.89671857609689e-12
-1.7150647043787483e-11
-2.8133043476376122e-11
-3.0659899426687264e-11
-9.997245368498e-14
2.540899314261638e-12
4.86370280566456e-13
2.611942979992409e-12
4.859530857257e-12
7.231362732858792e-12
9.564977469990726e-12
8.619683376296632e-12
4.582523968008203e-12
-5.5796269520575096e-12
5.754362709556128e-12
5.261253231556865e-13
3.969836461196485e-12
1.0852039852319524e-11
2.1804239562823398e-11
3.781802069886634e-11
5.498000734855981e-11
5.6664247828096473e-11
7.0121999873394195e-12
6.850445300513113e-12
6.73425083563455e-13
4.583751939700026e-12
1.3218644497951148e-11
2.804624005276701e-11
5.0162257391054044e-11
7.81217232487183e-11
8.378278131063446e-11
1.8506115065465073e-11
5.754374678098585e-12
5.261352124307819e-13
3.969850125469125e-12
1.0852063870315938e-11
2.180428145820786e-11
3.7818084036105694e-11
5.498009508447402e-11
5.66643184310521e-11
7.0122193670131926e-12
2.54092142354706e-12
4.863861977730272e-13
2.6119637196619513e-12
4.859565962236405e-12
7.231418535286787e-12
9.565058174386659e-12
8.619777129863775e-12
4.582604633609366e-12
-5.579636497774718e-12
-1.942739075238442e-12
2.035625754071884e-12
9.835622875215257e-13
-2.1465191242844047e-12
-7.896681954816012e-12
-1.715060165826001e-11
-2.813299663387257e-11
-3.065986914310377e-11
-9.998805343948438e-14
-6.279649780141178e-13
4.2269871632900996e-12
-2.8613482286801353e-13
-7.492517952354924e-12
-1.79742770949228e-11
-3.1776359851056603e-11
-4.427570261787325e-11
-4.032148508057734e-11
1.1368663892774787e-11
-3.994534169061446e-10
-2.994395477337561e-10
-3.9042408341097393e-10
-5.700799609338579e-10
-7.966158015332963e-10
-1.007167632166235e-09
-1.0657051922576984e-09
-7.371677119840909e-10
2.2817452408433117e-10
-8.742568971877804e-11
-4.577135334975056e-11
-6.710345460068817e-11
-1.3983214474187608e-10
-2.578688614304417e-10
-4.042018667365642e-10
-5.120033924301684e-10
-4.3808341326626357e-10
-4.869334845365863e-12
1.925593024049141e-10
1.4051104018391042e-10
1.8141661041487944e-10
2.4523439681718286e-10
3.0800902129564384e-10
3.461212160679644e-10
3.043685923347578e-10
1.696754959722872e-10
-1.7249380579171854e-10
3.6780493653470425e-10
2.797127175831509e-10
3.635103669748259e-10
5.489596916886406e-10
7.971314684929429e-10
1.0480405340014396e-09
1.1539057936478002e-09
8.474150758692449e-10
-1.7360931332158657e-10
4.2787261565507106e-10
3.315974568119324e-10
4.336674498223578e-10
6.680174727135057e-10
9.973672353758746e-10
1.3417038463510338e-09
1.5379983351306664e-09
1.1417597739160116e-09
-1.1537687935440975e-10
3.6780479710518156e-10
2.797125948951401e-10
3.6351020072317276e-10
5.489594096859251e-10
7.971309939802353e-10
1.0480398350188335e-09
1.1539048846177653e-09
8.474143714196631e-10
-1.736094463567434e-10
1.92559050368689e-10
1.4051084649636218e-10
1.8141636279079933e-10
2.4523398970465866e-10
3.0800838620114297e-10
3.461203214900255e-10
3.043675764439694e-10
1.696746635711558e-10
-1.724936910299178e-10
-8.742593190158963e-11
-4.577150166019533e-11
-6.710365868515224e-11
-1.3983244408399462e-10
-2.5786927494877667e-10
-4.042023773004764e-10
-5.12003915754263e-10
-4.3808374952494827e-10
-4.8691810326893674e-12
-3.994534770472631e-10
-2.9943960015430664e-10
-3.904241489887486e-10
-5.700800477418682e-10
-7.966159100340917e-10
-1.0071677537850826e-09
-1.0657053043646175e-09
-7.371677738950078e-10
2.2817456894480244e-10
-6.24239004084079e-10
-4.6017077158768136e-10
-6.187872640678901e-10
-9.344588289750277e-10
-1.3579439349618713e-09
-1.8109424581025942e-09
-2.058882195796858e-09
-1.6149415021262767e-09
2.3349533238598485e-10
-1.999979613560693e-10
-1.259530290373719e-10
-1.701211337028311e-10
-3.149670954408676e-10
-5.607021674714229e-10
-8.960548194409136e-10
-1.2118170414583303e-09
-1.1616643577288386e-09
-2.507529532521796e-10
2.7972626700680307e-10
1.9605748011150828e-10
2.6557578799636123e-10
3.720676542587088e-10
4.797642034043273e-10
5.333349195968961e-10
4.773966032915624e-10
1.1092886835131766e-10
-3.477312340046319e-10
5.969741819547112e-10
4.4949877306327837e-10
5.979319182944256e-10
9.294110129873079e-10
1.4047733089817427e-09
1.9564149945311196e-09
2.344611011396627e-09
1.9759516655283565e-09
5.3157240761165354e-11
7.064363089618964e-10
5.450259085926919e-10
7.261248125672552e-10
1.1482359472933125e-09
1.781985930944727e-09
2.5790227071427527e-09
3.179138773002773e-09
3.0111194059266445e-09
2.1682919021967092e-10
5.969739283094494e-10
4.494985478317285e-10
5.97931615293899e-10
9.294104955215893e-10
1.4047724133277311e-09
1.9564135134679287e-09
2.3446089977719393e-09
1.975949205130281e-09
5.31567732357847e-11
2.7972581395383727e-10
1.9605713166836713e-10
2.6557533834925536e-10
3.720669099548405e-10
4.79763001656974e-10
5.333331684079351e-10
4.773943566224782e-10
1.1092707912697576e-10
-3.47731772337118e-10
-1.9999835990463131e-10
-1.2595327409022062e-10
-1.701214788354639e-10
-3.149676148753505e-10
-5.607029019607709e-10
-8.960557565690902e-10
-1.2118180204846781e-09
-1.1616650156672026e-09
-2.507524843998358e-10
-6.242390839044769e-10
-4.601708396727546e-10
-6.187873533537274e-10
-9.344589515149285e-10
-1.3579440926739542e-09
-1.8109426396363364e-09
-2.0588823667893645e-09
-1.6149415965997677e-09
2.3349540903772435e-10
-7.405580736583523e-10
-5.348698645666665e-10
-7.527357515637108e-10
-1.193751754512837e-09
-1.838098634852296e-09
-2.64664732004892e-09
-3.342288163772843e-09
-3.045466014118138e-09
-2.604968225591327e-10
-2.706844385447321e-10
-1.7221388081381305e-10
-2.37139278903716e-10
-4.4846703431567547e-10
-8.372202438943808e-10
-1.4789521027118446e-09
-2.3161961880699565e-09
-2.7744970004831514e-09
-1.00935008701087e-09
3.1603604081314275e-10
2.123825974778792e-10
3.060574047174934e-10
4.4991131294217597e-10
6.041031153126382e-10
6.745687118523526e-10
3.9215996875927177e-10
-1.981913530147277e-10
-1.5331727671669516e-09
7.247652557200337e-10
5.380598722423586e-10
7.439533720192575e-10
1.212183653191646e-09
1.942336419514375e-09
2.9628823249945744e-09
4.035596329995236e-09
4.171570620979138e-09
9.006819023172659e-10
8.681832636608733e-10
6.633135452838121e-10
9.153876179779547e-10
1.5143846721808636e-09
2.497025199744736e-09
3.969350581739498e-09
5.912006181042078e-09
6.479389862856882e-09
3.5641125016798078e-09
7.247649230422502e-10
5.380595765265816e-10
7.439529666389388e-10
1.2121829383994859e-09
1.942335103312224e-09
2.962879913224806e-09
4.035591834616972e-09
4.171564861496193e-09
9.006754638649558e-10
3.1603546254130617e-10
2.123821553836644e-10
3.060568181061253e-10
4.499103017969724e-10
6.041013959641883e-10
6.745659135338445e-10
3.921561419000692e-10
-1.9819572497536933e-10
-1.5331721415437763e-09
-2.706849094786561e-10
-1.7221415618904997e-10
-2.371396917082437e-10
-4.4846768815608005e-10
-8.372212245817288e-10
-1.4789534034123905e-09
-2.316197589107344e-09
-2.7744977740326023e-09
-1.0093496335361767e-09
-7.405581618466967e-10
-5.348699394104766e-10
-7.527358546897331e-10
-1.193751902518376e-09
-1.8380988332957167e-09
-2.64664755485032e-09
-3.342288378012719e-09
-3.045466098663289e-09
-2.6049668580122554e-10
-8.031178843768083e-10
-5.70042701723458e-10
-8.32455064385816e-10
-1.3735820783188442e-09
-2.2159024795110854e-09
-3.4207116033543278e-09
-4.743576173981311e-09
-4.908177395939703e-09
-9.989199148459958e-10
-3.0764991229569636e-10
-1.950343624206298e-10
-2.7566764144037495e-10
-5.393091872262613e-10
-1.0557729619928422e-09
-2.017194218790369e-09
-3.776916143236481e-09
-5.836478075359191e-09
-4.325661437887775e-09
3.3568795976869354e-10
2.183686156878785e-10
3.2993791320025694e-10
5.038717873913045e-10
7.004655162413687e-10
7.970116169358878e-10
2.454509531949046e-10
-2.709964760053709e-09
-4.564510643552617e-09
7.928512963887129e-10
5.808583890188323e-10
8.302966208931794e-10
1.4066772155782613e-09
2.3673368994729524e-09
3.880820410676055e-09
6.082356817743662e-09
7.829733566664445e-09
4.3823466386156386e-09
9.550221240483983e-10
7.22484200386957e-10
1.028446134516031e-09
1.768202247031892e-09
3.0621347486090068e-09
5.272305700204086e-09
8.999431893326598e-09
1.5208793750585982e-08
1.108676847724739e-08
7.928509198508454e-10
5.808580542604423e-10
8.302961521653363e-10
1.406676361307817e-09
2.367335252262866e-09
3.880817091747134e-09
6.08234966858129e-09
7.8297157201099e-09
4.3823286439803475e-09
3.356873170811478e-10
2.1836812863853897e-10
3.299372482157087e-10
5.038705981572377e-10
7.004633850048965e-10
7.970079155142899e-10
2.454446829979421e-10
-2.7099712454683045e-09
-4.564514448973492e-09
-3.0765042247495673e-10
-1.9503465047957878e-10
-2.756680941065974e-10
-5.393099360055945e-10
-1.0557741323868772e-09
-2.017195888085162e-09
-3.77691779257697e-09
-5.8364780279762594e-09
-4.325657890103656e-09
-8.031179772033178e-10
-5.700427796564134e-10
-8.324551760008887e-10
-1.3735822441405838e-09
-2.2159027100424088e-09
-3.420711885029842e-09
-4.74357639797728e-09
-4.908177310838387e-09
-9.989194555160356e-10
-8.234082423374854e-10
-5.808668256714024e-10
-8.600898801505084e-10
-1.4398630209541647e-09
-2.367993796589739e-09
-3.738480764226236e-09
-5.522760159424088e-09
-5.758447641441118e-09
-1.5689085273528252e-09
-3.1929935841752063e-10
-2.0193083526401283e-10
-2.8863531934571356e-10
-5.726524959932325e-10
-1.1414303581074257e-09
-2.2533935977645305e-09
-4.445413319224731e-09
-8.963025758420801e-09
-6.0391595797820746e-09
3.4229239511452365e-10
2.2015867214740664e-10
3.383976278926539e-10
5.236980922503812e-10
7.394787470776197e-10
8.375436346879576e-10
1.6657340677940632e-10
-4.315568487098009e-09
-2.4992328951737524e-08
8.147277212137309e-10
5.94123845261257e-10
8.599103241362309e-10
1.4791318793037763e-09
2.5327611454720594e-09
4.289987774140485e-09
6.995594886205632e-09
1.1247723308197593e-08
6.197456894350492e-09
9.827470590045149e-10
7.408207944370009e-10
1.067274464828094e-09
1.8618809481890424e-09
3.289050442755574e-09
5.826754581337056e-09
1.0709776408892489e-08
2.0110217277810732e-08
5.307258593878708e-08
8.147273310441551e-10
5.941234984082207e-10
8.599098337473818e-10
1.4791309754219408e-09
2.532759359412817e-09
4.289984113466981e-09
6.9955860153126275e-09
1.1247700193038896e-08
6.19734603154187e-09
3.422917320111989e-10
2.2015817103297127e-10
3.3839693671506644e-10
5.236968344468424e-10
7.394764715686422e-10
8.37539448885937e-10
1.6656662851170408e-10
-4.3155819808263715e-09
-2.4992289903215964e-08
-3.192998814385782e-10
-2.0193112678316647e-10
-2.886357861449222e-10
-5.726532775851478e-10
-1.1414316168418733e-09
-2.253395355139972e-09
-4.445415502739795e-09
-8.963022907340577e-09
-6.0391546974499734e-09
-8.23408336678078e-10
-5.808669046069288e-10
-8.600899947697085e-10
-1.4398631935214336e-09
-2.3679940396953155e-09
-3.738481067071366e-09
-5.522760388095788e-09
-5.758447300606686e-09
-1.5689076511015219e-09
-8.031178741855507e-10
-5.70042696032146e-10
-8.324550499894056e-10
-1.3735820439949458e-09
-2.2159024028271794e-09
-3.420711441381521e-09
-4.7435758231713065e-09
-4.908176959522412e-09
-9.989196595186279e-10
-3.076499056825342e-10
-1.9503435850095422e-10
-2.756676341131156e-10
-5.393091696949963e-10
-1.0557729190587633e-09
-2.0171941078571275e-09
-3.776915828062551e-09
-5.836476969336004e-09
-4.325660628356159e-09
3.356879569787101e-10
2.1836861465685785e-10
3.299379087728422e-10
5.038717770027449e-10
7.004654961753964e-10
7.970115913474807e-10
2.454509693929067e-10
-2.7099641093742547e-09
-4.564505294775131e-09
7.928512848230785e-10
5.808583818766646e-10
8.302966051045225e-10
1.4066771781234802e-09
2.3673368150577746e-09
3.880820214671463e-09
6.082356372488157e-09
7.829732311166684e-09
4.382345775505243e-09
9.550221090353812e-10
7.224841904698696e-10
1.0284461138868034e-09
1.7682021983845225e-09
3.0621346349387983e-09
5.272305428685453e-09
8.999431165000237e-09
1.520879158606423e-08
1.1086757276142201e-08
7.92850908314614e-10
5.808580471181778e-10
8.30296136388666e-10
1.406676323858147e-09
2.367335167857002e-09
3.8808168957724764e-09
6.082349223383833e-09
7.829714464752432e-09
4.382327781027542e-09
3.3568731429666636e-10
2.1836812759879072e-10
3.299372437840737e-10
5.038705877654355e-10
7.004633649652583e-10
7.970078899345715e-10
2.45444699235974e-10
-2.709970594730296e-09
-4.564509100097215e-09
-3.076504158615621e-10
-1.9503464656132637e-10
-2.756680867801971e-10
-5.393099184717904e-10
-1.0557740894417685e-09
-2.0171957771357778e-09
-3.776917477388098e-09
-5.836476921929049e-09
-4.32565708056391e-09
-8.031179670199425e-10
-5.70042773950651e-10
-8.324551616059633e-10
-1.3735822097929268e-09
-2.2159026333489678e-09
-3.4207117230319363e-09
-4.7435760471627935e-09
-4.908176874416563e-09
-9.989192001810618e-10
-7.40558041024788e-10
-5.348698443541352e-10
-7.52735711369451e-10
-1.193751670490237e-09
-1.838098468200942e-09
-2.6466470002929733e-09
-3.342287621228272e-09
-3.0454653359064144e-09
-2.6049657255231986e-10
-2.7068441871103545e-10
-1.7221386809372324e-10
-2.3713925894344084e-10
-4.4846699148696245e-10
-8.372201484113138e-10
-1.4789518829590317e-09
-2.3161956573052052e-09
-2.7744960113326993e-09
-1.009349163700821e-09
3.160360308388492e-10
2.1238259324137692e-10
3.060573924105365e-10
4.4991128742742436e-10
6.041030717638074e-10
6.745686570390457e-10
3.9216001364156407e-10
-1.9819065202384948e-10
-1.533172012386697e-09
7.247652197547244e-10
5.380598480915054e-10
7.439533282487141e-10
1.2121835619243472e-09
1.9423362326337473e-09
2.962881945429929e-09
4.035595562227073e-09
4.171569393527971e-09
9.006809233115165e-10
8.681832178003035e-10
6.633135125986371e-10
9.153875610966086e-10
1.5143845537165313e-09
2.4970249518756184e-09
3.969350050956152e-09
5.91200500789865e-09
6.479387109810776e-09
3.5641104972763442e-09
7.247648870731177e-10
5.38059552375065e-10
7.439529228710375e-10
1.21218284715331e-09
1.942334916452855e-09
2.962879533704729e-09
4.035591066914414e-09
4.171563634130232e-09
9.006744849642451e-10
3.1603545259490516e-10
2.1238215114373757e-10
3.060568058080316e-10
4.4991027629148685e-10
6.04101352436578e-10
6.745658587577425e-10
3.9215618682426317e-10
-1.9819502392283803e-10
-1.533171386758016e-09
-2.70684889637442e-10
-1.722141434853193e-10
-2.3713967174312623e-10
-4.4846764532479366e-10
-8.372211290759979e-10
-1.478953183629632e-09
-2.3161970583227094e-09
-2.7744967848248713e-09
-1.0093487102132855e-09
-7.405581292125873e-10
-5.348699192001299e-10
-7.527358144962182e-10
-1.1937518185217924e-09
-1.8380986666204926e-09
-2.6466472351101945e-09
-3.3422878354652167e-09
-3.045465420442005e-09
-2.6049643579375473e-10
-6.242389485770562e-10
-4.60170732912645e-10
-6.187872056987025e-10
-9.344587302534056e-10
-1.3579437729969093e-09
-1.8109422075399819e-09
-2.058881854756027e-09
-1.614941165196805e-09
2.3349539089071926e-10
-1.999979337162543e-10
-1.2595300966527013e-10
-1.7012110792932664e-10
-3.1496704824890506e-10
-5.607020787984074e-10
-8.960546564900023e-10
-1.2118167695807629e-09
-1.1616640093859633e-09
-2.50752793746186e-10
2.797262461086788e-10
1.9605746792028218e-10
2.655757675809531e-10
3.720676214677572e-10
4.797641569978223e-10
5.333348688246775e-10
4.7739658903212e-10
1.109289456597666e-10
-3.4773102495129055e-10
5.969741251637875e-10
4.494987316214271e-10
5.979318580405053e-10
9.294109091297362e-10
1.4047731317686792e-09
1.9564147029312726e-09
2.3446105780743077e-09
1.9759511733024694e-09
5.3157074829283724e-11
7.064362394430122e-10
5.45025855673885e-10
7.261247365278337e-10
1.1482358149853732e-09
1.7819856990970788e-09
2.5790223068358784e-09
3.1791381193408005e-09
3.0111185784854767e-09
2.1682865762268146e-10
5.969738715181121e-10
4.49498506380636e-10
5.979315550565355e-10
9.294103916680079e-10
1.4047722361447903e-09
1.9564132218962786e-09
2.3446085644894306e-09
1.975948712951735e-09
5.3156607325767106e-11
2.797257930514497e-10
1.9605711948051428e-10
2.6557531794115124e-10
3.7206687718242606e-10
4.797629552552816e-10
5.33333117674015e-10
4.773943423962554e-10
1.109271564693722e-10
-3.4773156326803377e-10
-1.9999833226144225e-10
-1.2595325470218736e-10
-1.7012145305190094e-10
-3.1496756767941586e-10
-5.607028132668657e-10
-8.960555936037032e-10
-1.2118177485961481e-09
-1.1616646673179622e-09
-2.507523248936288e-10
-6.242390283939676e-10
-4.601708010019212e-10
-6.187872949878559e-10
-9.34458852788728e-10
-1.3579439307023221e-09
-1.8109423890839616e-09
-2.058882025748054e-09
-1.6149412596708922e-09
2.3349546753496947e-10
-3.9945339885876926e-10
-2.994395343831082e-10
-3.9042406631499114e-10
-5.700799371287993e-10
-7.966157704928905e-10
-1.0071675965970757e-09
-1.0657051591985087e-09
-7.371676952268328e-10
2.2817451187825552e-10
-8.742569229425285e-11
-4.577135741890842e-11
-6.710345880508013e-11
-1.3983214767037007e-10
-2.578688622593048e-10
-4.0420186466066843e-10
-5.120033872431537e-10
-4.380834040361687e-10
-4.869337404930685e-12
1.9255929200761113e-10
1.4051103272202827e-10
1.8141660110908928e-10
2.4523438489514615e-10
3.080090070231784e-10
3.4612119972839443e-10
3.043685830292803e-10
1.6967548957976924e-10
-1.7249377876539197e-10
3.6780492277486247e-10
2.7971270762019387e-10
3.6351035412120347e-10
5.489596725887326e-10
7.971314423953582e-10
1.0480405027105867e-09
1.1539057632178934e-09
8.474150549485237e-10
-1.7360929737083782e-10
4.2787260070043306e-10
3.3159744589524275e-10
4.3366743539789627e-10
6.680174505602026e-10
9.973672038944989e-10
1.3417038103347296e-09
1.537998290048433e-09
1.1417597546386832e-09
-1.1537690950398007e-10
3.678047833403403e-10
2.7971258491653447e-10
3.635101878882314e-10
5.489593905718557e-10
7.971309678993232e-10
1.0480398037606377e-09
1.153904854218312e-09
8.474143505244058e-10
-1.73609430405141e-10
1.9255903995772266e-10
1.4051083904842133e-10
1.8141635349966516e-10
2.452339777930378e-10
3.080083719637566e-10
3.461203051665624e-10
3.043675671603758e-10
1.6967465720423083e-10
-1.7249366400791574e-10
-8.742593447682787e-11
-4.5771505736964906e-11
-6.710366289213659e-11
-1.3983244699615014e-10
-2.578692757512345e-10
-4.042023752237501e-10
-5.120039105791895e-10
-4.3808374029551846e-10
-4.86918358851037e-12
-3.9945345899506366e-10
-2.994395868160565e-10
-3.9042413192192063e-10
-5.700800239376401e-10
-7.966158789749619e-10
-1.0071677182246617e-09
-1.0657052713007153e-09
-7.371677571649607e-10
2.281745567720572e-10
SCALARS strain33 float
LOOKUP_TABLE default
-4.993876364365594e-11
-4.993875373916734e-11
-4.9938743828643626e-11
-4.993875383572909e-11
1.7422712891316198e-10
1.7422701371861344e-10
1.7422689854164085e-10
1.7422701372623674e-10
-3.7873208350205664e-11
-6.637827638350569e-11
-8.369196788401495e-11
-9.618079918992654e-11
-1.0066619531779445e-10
-9.618079719304636e-11
-8.369196385568508e-11
-6.637827195757325e-11
-3.7873209929260366e-11
-3.787313235628899e-11
-6.637822807719024e-11
-8.369194987821208e-11
-9.618080277004364e-11
-1.0066620672917865e-10
-9.618080078282493e-11
-8.369194570803065e-11
-6.63782235786512e-11
-3.7873133938520066e-11
-3.787313391617957e-11
-6.637822365896051e-11
-8.36919458138833e-11
-9.618080070844485e-11
-1.0066620667178431e-10
-9.618080281870833e-11
-8.369194981518753e-11
-6.637822816162884e-11
-3.787313233344557e-11
-3.7873209971585544e-11
-6.637827209561315e-11
-8.369196390801583e-11
-9.618079718727595e-11
-1.0066619545575246e-10
-9.618079920342612e-11
-8.369196794804535e-11
-6.63782764428774e-11
-3.78732083748755e-11
8.550066053543423e-11
1.1872727461678172e-10
1.3296005767384382e-10
1.5473081805219508e-10
1.4048080688332573e-10
1.5473081639374428e-10
1.3296005228258499e-10
1.187272684653373e-10
8.550065315092158e-11
8.550040839220173e-11
1.1872700785566638e-10
1.3295979295585136e-10
1.5473058137166816e-10
1.404805603245707e-10
1.5473057966336152e-10
1.3295978749614168e-10
1.187270016397151e-10
8.550040080405708e-11
8.550040084087654e-11
1.1872700166536432e-10
1.3295978751882628e-10
1.5473057963800347e-10
1.4048056037278686e-10
1.5473058134980412e-10
1.329597929284816e-10
1.1872700783282296e-10
8.550040833571522e-11
8.550065315417736e-11
1.187272683903484e-10
1.3296005229494637e-10
1.5473081641595242e-10
1.4048080690533783e-10
1.54730818041091e-10
1.3296005769107564e-10
1.1872727461545823e-10
8.550066070785837e-11
7.595320414904378e-12
2.6064004273860498e-11
2.955729958101029e-11
2.3502045067732115e-11
1.0373384481530554e-11
-5.776597935898277e-12
-1.5618476661076612e-11
-5.123550945859083e-12
3.773825736391272e-11
7.595301190988714e-12
2.6063954901262914e-11
2.955724064895768e-11
2.3501992761753556e-11
1.0373353414373752e-11
-5.776596961333932e-12
-1.5618447440610454e-11
-5.1235253466175925e-12
3.77382245092517e-11
7.595282062390726e-12
2.6063905444067915e-11
2.955718186873573e-11
2.35019405371431e-11
1.0373322398303624e-11
-5.776595968928955e-12
-1.5618418300506546e-11
-5.1234997645285195e-12
3.773819168947785e-11
7.595301160654346e-12
2.6063954853484962e-11
2.955724070544419e-11
2.3501992716225535e-11
1.0373353432902598e-11
-5.7765969592163496e-12
-1.5618447549771825e-11
-5.123525397492509e-12
3.7738224481405493e-11
1.9736225115628158e-10
6.095924643354206e-11
-3.344193671663291e-11
-1.0432121332192438e-10
-1.2979990436926982e-10
-1.0432119993975672e-10
-3.344190983363358e-11
6.095927905026623e-11
1.9736222400675804e-10
6.095924644203886e-11
-2.8727592097193503e-10
-5.453154893733254e-10
-7.255769370892254e-10
-7.894964434030807e-10
-7.255769005728674e-10
-5.453154114587086e-10
-2.8727583494819535e-10
6.095921576832887e-11
-3.34419367774737e-11
-5.453154893480865e-10
-9.232087103570753e-10
-1.1851108597125233e-09
-1.277680829018036e-09
-1.1851108063062754e-09
-9.232085951815056e-10
-5.45315362298028e-10
-3.344197110693819e-11
-1.0432121326339308e-10
-7.255769370053691e-10
-1.1851108598014088e-09
-1.5019205879499177e-09
-1.6138843715415326e-09
-1.5019205233062955e-09
-1.1851107198047297e-09
-7.255767831433232e-10
-1.043212493958797e-10
-1.2979990434716135e-10
-7.89496443400662e-10
-1.2776808289048272e-09
-1.6138843715696927e-09
-1.7326756662666409e-09
-1.613884303012251e-09
-1.2776806803529631e-09
-7.894962799294165e-10
-1.297999410127179e-10
-1.0432119988851123e-10
-7.255769005332487e-10
-1.1851108063214426e-09
-1.5019205233156922e-09
-1.6138843030372533e-09
-1.5019204586681128e-09
-1.1851106663970657e-09
-7.255767464907583e-10
-1.0432123604202809e-10
-3.3441909803934485e-11
-5.453154115020264e-10
-9.232085951547578e-10
-1.1851107197463903e-09
-1.277680680359942e-09
-1.1851106663538802e-09
-9.232084799613078e-10
-5.453152844002857e-10
-3.344194417876818e-11
6.095927902437879e-11
-2.8727583497156817e-10
-5.453153623374945e-10
-7.255767830560721e-10
-7.894962799976667e-10
-7.255767465568931e-10
-5.453152843254953e-10
-2.872757488718867e-10
6.095924831858742e-11
1.9736222398312052e-10
6.095921577605804e-11
-3.344197107808613e-11
-1.043212494302507e-10
-1.2979994103822608e-10
-1.043212359791028e-10
-3.344194415805558e-11
6.095924836385074e-11
1.973621968662607e-10
-5.199280512042907e-10
-4.986093536809045e-10
-5.503328627345839e-10
-5.139060289964031e-10
-7.382175965760873e-10
-5.139059797126381e-10
-5.503328695937508e-10
-4.986093516060973e-10
-5.199280029959134e-10
-4.98609353702795e-10
-2.95876650350671e-10
-1.6740723377140366e-10
-3.363391096003155e-10
9.068765121667e-10
-3.363393911277562e-10
-1.6740720255045744e-10
-2.958767097893552e-10
-4.986092813313206e-10
-5.503328627483746e-10
-1.674072337982705e-10
-1.315895252696027e-09
-2.330784777452612e-11
-6.546124510652537e-09
-2.3306511032709724e-11
-1.3158956632698901e-09
-1.6740716695704774e-10
-5.503327351391289e-10
-5.1390602901206e-10
-3.363391095952333e-10
-2.330784777807307e-11
-2.0433710622532254e-08
1.4683531212738804e-08
-2.0433716334200937e-08
-2.3301834901138804e-11
-3.363393364739876e-10
-5.139059128177611e-10
-7.382175965632718e-10
9.068765121626989e-10
-6.5461245106700355e-09
1.4683531212748622e-08
-4.976432847867491e-07
1.4683661701774998e-08
-6.546139804031634e-09
9.068772479109552e-10
-7.382172584005302e-10
-5.139059796925343e-10
-3.3633939111973586e-10
-2.3306511041788858e-11
-2.0433716334204908e-08
1.468366170173796e-08
-2.0433722045903078e-08
-2.33004981816629e-11
-3.3633961797344975e-10
-5.139058635113777e-10
-5.503328695960272e-10
-1.6740720254823398e-10
-1.3158956632887895e-09
-2.330183490405048e-11
-6.546139804024465e-09
-2.3300498153499056e-11
-1.315896073853547e-09
-1.6740713577030047e-10
-5.503327419615822e-10
-4.986093516039532e-10
-2.95876709784273e-10
-1.6740716697576187e-10
-3.363393364517265e-10
9.068772479098941e-10
-3.363396179782143e-10
-1.6740713573189282e-10
-2.9587676921967493e-10
-4.986092792794362e-10
-5.199280029560235e-10
-4.98609281333597e-10
-5.503327351237235e-10
-5.139059128385399e-10
-7.382172583990301e-10
-5.139058634932062e-10
-5.503327419789199e-10
-4.986092792547135e-10
-5.199279547361054e-10
4.786420751146292e-12
-3.0197963677703082e-12
-4.348809951561713e-12
-3.851754643669e-12
-1.2635755159559295e-12
4.683049499170024e-12
1.2859660266529619e-11
1.6382600591465055e-11
3.1726039570092307e-12
-2.9783689747546103e-12
-5.633560746900922e-12
-1.2751661660195262e-11
-1.8424847118309044e-11
-2.144534706295909e-11
-1.9375652182261118e-11
-1.0462728467862511e-11
7.862716590228887e-13
7.89243646391597e-12
-8.019536395590008e-12
-1.0814720576909903e-11
-2.2000225618526574e-11
-3.653301150936685e-11
-5.109484447033025e-11
-5.933593945028847e-11
-5.1246944264491826e-11
-2.227630262641643e-11
4.3910480917978754e-12
-1.1716056794415249e-11
-1.5515902461134775e-11
-3.096073468625177e-11
-5.363519418322411e-11
-8.00342792259486e-11
-1.0037254919877934e-10
-9.05748137101819e-11
-4.689002536969394e-11
5.736711935005873e-13
-1.3069587440800659e-11
-1.7443097807872166e-11
-3.4715193630733044e-11
-6.087645830025908e-11
-9.294299190479985e-11
-1.177459722629283e-10
-1.096729824521233e-10
-5.8180924711707895e-11
-1.188603259325707e-11
-1.1716056017871325e-11
-1.5515901915387477e-11
-3.096073337299336e-11
-5.363519152252157e-11
-8.003427414641113e-11
-1.0037254036053316e-10
-9.057480321273053e-11
-4.689001639056236e-11
5.736758272869695e-13
-8.019533752847213e-12
-1.0814717052657273e-11
-2.2000219806451187e-11
-3.6533002298439414e-11
-5.10948311188146e-11
-5.933592351291358e-11
-5.1246930354543236e-11
-2.227629648333645e-11
4.3910476522142456e-12
-2.9783669287200564e-12
-5.6335567837131714e-12
-1.2751655716988588e-11
-1.8424839406471106e-11
-2.144533837150108e-11
-1.9375644432200818e-11
-1.0462724145744549e-11
7.862717309677497e-13
7.892436293238831e-12
4.786417648623425e-12
-3.019797042643809e-12
-4.3488117976964916e-12
-3.851757492955486e-12
-1.2635789756355328e-12
4.683045785671704e-12
1.2859656780618464e-11
1.6382597690906606e-11
3.172605458004553e-12
4.786407423162276e-12
-3.019930640756596e-12
-4.348974317961021e-12
-3.8518968026908455e-12
-1.26364540313563e-12
4.6830978832272184e-12
1.2859826087946241e-11
1.6382770662313625e-11
3.172541526234095e-12
-2.9784305938074846e-12
-5.633775412975374e-12
-1.2751949612169115e-11
-1.8425135580726127e-11
-2.1445554223368718e-11
-1.9375688455176534e-11
-1.046256158828998e-11
7.86500619545949e-13
7.892404821438509e-12
-8.019652378977678e-12
-1.081501772204997e-11
-2.2000634528922877e-11
-3.653346873529009e-11
-5.109525079640256e-11
-5.933615025585145e-11
-5.124684788985071e-11
-2.2276010447430533e-11
4.391082605346451e-12
-1.1716213734565688e-11
-1.5516265134239184e-11
-3.0961241400816106e-11
-5.363579570821117e-11
-8.003487017325439e-11
-1.0037292833284411e-10
-9.057476391531192e-11
-4.6889633102595076e-11
5.73803541048637e-13
-1.306975960445671e-11
-1.7443485598653365e-11
-3.4715738705624165e-11
-6.08771178504139e-11
-9.294366090749371e-11
-1.177464181324211e-10
-1.0967294017660137e-10
-5.8180476880797416e-11
-1.1885859413094894e-11
-1.171621293687241e-11
-1.551626461098458e-11
-3.0961240142389844e-11
-5.3635793056045134e-11
-8.003486509862706e-11
-1.0037291955234176e-10
-9.057475344471414e-11
-4.6889624103452347e-11
5.738081537783095e-13
-8.019649640678978e-12
-1.081501417430541e-11
-2.2000628716688672e-11
-3.653345950766022e-11
-5.109523746034526e-11
-5.933613426106361e-11
-5.1246833986704854e-11
-2.2276004396703614e-11
4.391082163036434e-12
-2.9784285727868725e-12
-5.633771492642196e-12
-1.2751943558159943e-11
-1.8425127878867296e-11
-2.1445545632707628e-11
-1.9375680638121222e-11
-1.0462557270010135e-11
7.865006586153437e-13
7.892404634455985e-12
4.786404341524065e-12
-3.0199313192299867e-12
-4.348976162163505e-12
-3.851899666032784e-12
-1.263648888199752e-12
4.683094196304557e-12
1.2859822540836956e-11
1.638276772745034e-11
3.172543024370681e-12
4.786404356955947e-12
-3.0199313203681872e-12
-4.3489761890303315e-12
-3.851899666085724e-12
-1.2636488735090242e-12
4.683094181904997e-12
1.2859822535966516e-11
1.6382767714109573e-11
3.172543020188456e-12
-2.9784285545227245e-12
-5.633771490180507e-12
-1.2751943639183939e-11
-1.8425127828230608e-11
-2.1445545622199125e-11
-1.9375680620809987e-11
-1.0462557212888351e-11
7.865006685150412e-13
7.892404624979804e-12
-8.019649742137643e-12
-1.0815014164564531e-11
-2.200062871938859e-11
-3.6533459462608657e-11
-5.1095237482659287e-11
-5.933613422607056e-11
-5.1246833974317e-11
-2.2276004355728395e-11
4.391082147419264e-12
-1.17162129518146e-11
-1.5516264583548655e-11
-3.0961240172036e-11
-5.363579306467428e-11
-8.003486507247492e-11
-1.0037291955643134e-10
-9.057475342028253e-11
-4.68896241393189e-11
5.738081649882612e-13
-1.3069759621407709e-11
-1.744348562271605e-11
-3.471573871452959e-11
-6.087711780275548e-11
-9.294366089612204e-11
-1.1774641813936734e-10
-1.0967294016440624e-10
-5.8180476897761856e-11
-1.1885859441856584e-11
-1.1716213765025787e-11
-1.5516265115723573e-11
-3.0961241463258316e-11
-5.3635795733992737e-11
-8.003487023377754e-11
-1.0037292836262261e-10
-9.057476394445515e-11
-4.6889633087163195e-11
5.738035604774552e-13
-8.019652375563076e-12
-1.081501772212938e-11
-2.2000634539775487e-11
-3.653346873039318e-11
-5.109525086622984e-11
-5.933615027888016e-11
-5.1246847873862964e-11
-2.227601048499115e-11
4.39108259714082e-12
-2.9784305867135837e-12
-5.6337754536329555e-12
-1.2751949604625228e-11
-1.8425135567676526e-11
-2.1445554286419733e-11
-1.93756884234128e-11
-1.0462561567643552e-11
7.865006237017044e-13
7.892404790918853e-12
4.786407430520875e-12
-3.019930629586349e-12
-4.348974328998919e-12
-3.85189683818682e-12
-1.2636454342905606e-12
4.6830978475459555e-12
1.2859826110763191e-11
1.6382770660275452e-11
3.1725414818442747e-12
4.786417671255086e-12
-3.019796979804552e-12
-4.348811893411215e-12
-3.851757568526707e-12
-1.2635790126932242e-12
4.683045711079865e-12
1.2859656718414482e-11
1.6382597712585355e-11
3.1726054415932895e-12
-2.9783669591867727e-12
-5.6335568209296816e-12
-1.275165573345279e-11
-1.8424839399668373e-11
-2.1445338372268704e-11
-1.937564442703921e-11
-1.0462724140212365e-11
7.862716651638776e-13
7.892436269495439e-12
-8.019533785524156e-12
-1.0814717014871662e-11
-2.2000219761029045e-11
-3.653300224211172e-11
-5.1094831134828816e-11
-5.933592355155946e-11
-5.1246930371378015e-11
-2.2276296492786162e-11
4.39104767810169e-12
-1.1716056009089976e-11
-1.551590190872371e-11
-3.0960733409164314e-11
-5.363519155523822e-11
-8.003427420224913e-11
-1.0037254042230039e-10
-9.0574803218223e-11
-4.689001640914415e-11
5.736758065743669e-13
-1.3069587489267652e-11
-1.744309776598374e-11
-3.471519364177549e-11
-6.087645828189856e-11
-9.294299194342422e-11
-1.177459722733359e-10
-1.0967298247329747e-10
-5.8180924735227535e-11
-1.1886032633291371e-11
-1.1716056822559242e-11
-1.551590244298974e-11
-3.0960734692842745e-11
-5.36351941417592e-11
-8.003427923473657e-11
-1.0037254917559181e-10
-9.057481371343768e-11
-4.6890025322260093e-11
5.736712271436771e-13
-8.019536481682967e-12
-1.0814720610261825e-11
-2.2000225652196133e-11
-3.653301153062208e-11
-5.109484449756765e-11
-5.933593948250219e-11
-5.124694426128898e-11
-2.2276302605505305e-11
4.3910481162824216e-12
-2.978368949449501e-12
-5.633560769850221e-12
-1.2751661671471388e-11
-1.8424847145837615e-11
-2.144534703302177e-11
-1.9375652191207903e-11
-1.0462728476332841e-11
7.862716947041516e-13
7.892436486229994e-12
4.7864207833864835e-12
-3.0197963563353634e-12
-4.348809973928677e-12
-3.851754671568148e-12
-1.2635755542577006e-12
4.683049465288706e-12
1.28596603431861e-11
1.6382600611820315e-11
3.1726039074578033e-12
4.4668021748244034e-11
-2.951000871605728e-10
-3.422924958783042e-10
-2.6314412262448333e-10
-6.881186771828737e-11
2.315038775475164e-10
5.199509744561746e-10
5.079280959166847e-10
-1.8535527245740067e-10
-7.705185575908829e-11
-4.695027957280792e-10
-6.191582867765878e-10
-5.947547148240949e-10
-3.808747754608881e-10
3.865092501150727e-11
5.247688267576174e-10
6.524800020093133e-10
-9.336761890435027e-11
-2.0199308814496678e-10
-6.661037620813831e-10
-8.98435368900956e-10
-9.915326279471438e-10
-8.585221781678825e-10
-3.883524233414253e-10
3.3195751134972263e-10
7.743628862288878e-10
6.352697797137085e-12
-2.9709788041001627e-10
-8.25500395258895e-10
-1.1341659165036036e-09
-1.343751951959139e-09
-1.3113075912688933e-09
-8.068371639415655e-10
1.7046663504847706e-10
8.815124627958506e-10
1.2192130467405594e-10
-3.324043092142634e-10
-8.871929292501291e-10
-1.2281418198066065e-09
-1.4880386884150416e-09
-1.5091721362451229e-09
-9.560083660366074e-10
7.075257141139229e-11
9.699902697054067e-10
1.1119585605994886e-10
-2.970978595652501e-10
-8.255003623505533e-10
-1.1341658662512564e-09
-1.343751876940025e-09
-1.311307493448817e-09
-8.068370828405431e-10
1.7046667825621003e-10
8.81512438651547e-10
1.219212963414752e-10
-2.0199304485615687e-10
-6.661036925332019e-10
-8.984352669140599e-10
-9.915324796254808e-10
-8.585219934744659e-10
-3.8835225524768396e-10
3.319575796210017e-10
7.743628450560456e-10
6.3526518535406305e-12
-7.705182072289392e-11
-4.695027390146971e-10
-6.191582024530285e-10
-5.947546058311246e-10
-3.8087465909709e-10
3.86510135724018e-11
5.247688476148508e-10
6.524799550376836e-10
-9.336764564406869e-11
4.4668006147114755e-11
-2.9510007058413804e-10
-3.4229248564934905e-10
-2.631441228286712e-10
-6.881188200794495e-11
2.31503845456085e-10
5.199509269473671e-10
5.079280521224873e-10
-1.8535524581011472e-10
-7.705185571244854e-11
-4.695027956875275e-10
-6.191582867718497e-10
-5.947547147694613e-10
-3.8087477542020405e-10
3.865092506201161e-11
5.247688267346417e-10
6.524800020055017e-10
-9.336761890657374e-11
-3.3359826001712416e-10
-7.435590565630983e-10
-1.1395227060208961e-09
-1.3178560363481088e-09
-1.2164028694131243e-09
-7.533335698304804e-10
-4.76829459530144e-11
3.773733270395868e-10
-7.647428347842795e-13
-5.829416669384137e-10
-1.0536444136806043e-09
-1.6658302482948725e-09
-2.1773019019695324e-09
-2.432792805150893e-09
-2.1989819435076335e-09
-1.3050079719265223e-09
-1.9643406708643543e-10
9.866850510289206e-11
-7.675823276579036e-10
-1.31156104274536e-09
-2.1095362201181556e-09
-2.9363077000150227e-09
-3.6262794686926997e-09
-3.7207786117555695e-09
-2.589043755985053e-09
-4.504854516188495e-10
2.1902738558226407e-10
-8.355450399177897e-10
-1.4125177897959224e-09
-2.2864245644324226e-09
-3.2478454179777225e-09
-4.144254270989354e-09
-4.487196182459581e-09
-2.8871367846409057e-09
-7.913832924994654e-10
5.700019137816993e-10
-7.675822873746313e-10
-1.3115609866620115e-09
-2.1095361244220143e-09
-2.936307535932406e-09
-3.6262792069853006e-09
-3.7207782568795225e-09
-2.5890435446619263e-09
-4.504853345569374e-10
2.1902730991336982e-10
-5.82941581634705e-10
-1.0536443007553365e-09
-1.665830056255298e-09
-2.177301581313299e-09
-2.432792323217945e-09
-2.1989813462017043e-09
-1.3050074586314914e-09
-1.9643392457218914e-10
9.866845858378965e-11
-3.3359818742833287e-10
-7.435589689528659e-10
-1.1395225481519542e-09
-1.3178558005870759e-09
-1.2164025673558284e-09
-7.533332452665133e-10
-4.7682687466563926e-11
3.7737343637179386e-10
-7.647746662294977e-13
-7.705187172756517e-11
-4.695027711562358e-10
-6.191582695446024e-10
-5.94754712521727e-10
-3.808747953475541e-10
3.865087502354025e-11
5.247687451348757e-10
6.524799162658886e-10
-9.33675988523805e-11
-2.0199308812875404e-10
-6.661037620773332e-10
-8.984353688840683e-10
-9.915326279533642e-10
-8.585221781218515e-10
-3.8835242334653395e-10
3.3195751138397453e-10
7.743628862099884e-10
6.352697804733912e-12
-5.82941666942596e-10
-1.0536444137432318e-09
-1.6658302483091927e-09
-2.1773019019368687e-09
-2.432792805152084e-09
-2.198981943480846e-09
-1.3050079719210696e-09
-1.9643406708108853e-10
9.866850509256884e-11
-9.399741101681413e-10
-1.4803427618302543e-09
-2.442805404188265e-09
-3.581879202698157e-09
-4.7284595657155295e-09
-5.4680988497272444e-09
-5.18142009809077e-09
-3.4275308262188183e-09
-1.5118818683074625e-09
-1.201533996062981e-09
-1.833593615182554e-09
-3.095733835085072e-09
-4.824357251752845e-09
-6.997949640966316e-09
-9.359037154248326e-09
-1.028357802623443e-08
-7.404084244770888e-09
-1.3567457258834708e-09
-1.2973848079193794e-09
-1.9719331236180608e-09
-3.3557130108213603e-09
-5.336383551425068e-09
-7.990167655419567e-09
-1.1311525028363679e-08
-1.3819943386846888e-08
-6.776657569696634e-09
-3.18908516424581e-09
-1.2015339394745627e-09
-1.8335935365061104e-09
-3.095733691775647e-09
-4.824356977380318e-09
-6.997949129701782e-09
-9.359036229555375e-09
-1.028357659386884e-08
-7.4040839840559464e-09
-1.3567453862010773e-09
-9.39973988839539e-10
-1.4803426057604369e-09
-2.442805120122399e-09
-3.581878676921328e-09
-4.728458650900915e-09
-5.468097385568009e-09
-5.181418236576838e-09
-3.427529296851757e-09
-1.511881726822626e-09
-5.829415601076538e-10
-1.0536442930080026e-09
-1.6658300171307403e-09
-2.177301517921803e-09
-2.432792238246432e-09
-2.1989812055756797e-09
-1.3050071801542163e-09
-1.9643347860145441e-10
9.866870075630616e-11
-2.019931029511027e-10
-6.661037285313874e-10
-8.984353455688776e-10
-9.915326223042103e-10
-8.585222015430801e-10
-3.8835249144348304e-10
3.3195740201754207e-10
7.743627763252247e-10
6.3527398164034255e-12
-2.9709788040087096e-10
-8.255003952420867e-10
-1.134165916524422e-09
-1.343751951957167e-09
-1.3113075912383207e-09
-8.06837163943339e-10
1.7046663506079874e-10
8.815124627891935e-10
1.219213046729045e-10
-7.675823276412409e-10
-1.3115610427762105e-09
-2.109536220094968e-09
-2.936307700008286e-09
-3.626279468649223e-09
-3.7207786117492168e-09
-2.589043755967371e-09
-4.5048545162266114e-10
2.1902738558750508e-10
-1.2015339960210397e-09
-1.8335936152168985e-09
-3.0957338350995643e-09
-4.824357251742363e-09
-6.9979496409784925e-09
-9.359037154224953e-09
-1.0283578026246526e-08
-7.404084244785234e-09
-1.3567457259028997e-09
-1.5173574479302637e-09
-2.2628529036823694e-09
-3.9219126508657535e-09
-6.501262921444061e-09
-1.0370035991531316e-08
-1.624718698781918e-08
-2.4067280536997166e-08
-2.8379483947289114e-08
-2.441544400445274e-08
-1.6329288776063126e-09
-2.430603373786699e-09
-4.25177086987915e-09
-7.193852455708964e-09
-1.189433732765412e-08
-1.9736356085388842e-08
-3.404794709121103e-08
-5.200736680253124e-08
-1.3502030848553597e-08
-1.5173573795959468e-09
-2.2628528072464508e-09
-3.921912466879517e-09
-6.501262544245202e-09
-1.0370035198698975e-08
-1.624718527937694e-08
-2.406727642719979e-08
-2.8379475642428375e-08
-2.4415443703510033e-08
-1.2015338491101762e-09
-1.8335934246854264e-09
-3.0957334746859996e-09
-4.8243565428403856e-09
-6.997948289678853e-09
-9.359034607295957e-09
-1.028357350496073e-08
-7.404077993344806e-09
-1.356738981758864e-09
-7.675821963268084e-10
-1.3115608938156067e-09
-2.1095359278624735e-09
-2.9363071860663602e-09
-3.626278638606354e-09
-3.720777384477012e-09
-2.5890422673845227e-09
-4.5048422614457807e-10
2.1902768846435829e-10
-2.970978941125609e-10
-8.255003549093291e-10
-1.1341658879120594e-09
-1.3437519426125143e-09
-1.3113076200592785e-09
-8.068372514251268e-10
1.7046651418992509e-10
8.815124125318038e-10
1.2192140038754814e-10
-3.32404309166478e-10
-8.871929291768979e-10
-1.2281418197875437e-09
-1.4880386883693771e-09
-1.5091721362498974e-09
-9.560083660615837e-10
7.075257142797891e-11
9.69990269685388e-10
1.1119585604880384e-10
-8.355450399211394e-10
-1.4125177897639767e-09
-2.2864245644625353e-09
-3.247845417952436e-09
-4.1442542709741295e-09
-4.487196182475899e-09
-2.8871367846238418e-09
-7.913832924927962e-10
5.700019137777553e-10
-1.2973848079555107e-09
-1.971933123594397e-09
-3.3557130108464967e-09
-5.336383551423043e-09
-7.990167655412776e-09
-1.1311525028336471e-08
-1.3819943386852711e-08
-6.776657569677679e-09
-3.1890851642319554e-09
-1.6329288775710164e-09
-2.4306033738290217e-09
-4.251770869852865e-09
-7.193852455717034e-09
-1.1894337327660899e-08
-1.9736356085387022e-08
-3.4047947091236176e-08
-5.2007366802542874e-08
-1.3502030848568274e-08
-1.7556298506017565e-09
-2.6099850771357296e-09
-4.609485529544224e-09
-7.973923638677815e-09
-1.3673202132160987e-08
-2.466466119786714e-08
-4.8586018853148494e-08
-1.3041847382220032e-07
-3.917394245645305e-07
-1.6329288050058478e-09
-2.430603270368151e-09
-4.2517706693061915e-09
-7.193852030814945e-09
-1.1894336390260015e-08
-1.9736353754314103e-08
-3.404794084096338e-08
-5.200734178031086e-08
-1.3501934892813393e-08
-1.2973846516488664e-09
-1.971932919754235e-09
-3.355712619898603e-09
-5.33638276738479e-09
-7.990166104773657e-09
-1.131152196505515e-08
-1.3819937052621593e-08
-6.7766466672057165e-09
-3.1890873817316163e-09
-8.355448997481199e-10
-1.4125176296734233e-09
-2.286424248041281e-09
-3.2478448507018443e-09
-4.144253326448884e-09
-4.487194700227992e-09
-2.8871348520674515e-09
-7.913818787366499e-10
5.700026243391157e-10
-3.3240432242497305e-10
-8.871928862964795e-10
-1.2281417889514727e-09
-1.4880386775377566e-09
-1.509172166343993e-09
-9.560084761831047e-10
7.07524963452904e-11
9.699902315067919e-10
1.1119604053123496e-10
-2.9709785954993735e-10
-8.255003623570516e-10
-1.1341658662447977e-09
-1.3437518769566215e-09
-1.3113074934451244e-09
-8.068370828542809e-10
1.7046667827225072e-10
8.815124386580983e-10
1.2192129635276456e-10
-7.675822874004658e-10
-1.3115609866516618e-09
-2.109536124484602e-09
-2.936307535921249e-09
-3.626279207031358e-09
-3.7207782568782784e-09
-2.5890435446553353e-09
-4.504853345561698e-10
2.1902730990662002e-10
-1.2015339394070119e-09
-1.8335935364566649e-09
-3.095733691752142e-09
-4.824356977331693e-09
-6.997949129743499e-09
-9.359036229517417e-09
-1.0283576593877284e-08
-7.404083984025665e-09
-1.356745386183475e-09
-1.517357379599229e-09
-2.2628528072574887e-09
-3.921912466921207e-09
-6.501262544286309e-09
-1.0370035198674676e-08
-1.6247185279370083e-08
-2.4067276427195847e-08
-2.8379475642398093e-08
-2.4415443703497063e-08
-1.6329288049955911e-09
-2.430603270368476e-09
-4.251770669313342e-09
-7.1938520308281584e-09
-1.1894336390261234e-08
-1.9736353754329925e-08
-3.4047940840951736e-08
-5.200734178032036e-08
-1.3501934892809979e-08
-1.517357311226478e-09
-2.262852710779086e-09
-3.921912282971313e-09
-6.501262167080753e-09
-1.0370034405871822e-08
-1.624718357091278e-08
-2.4067272317404216e-08
-2.8379467337484044e-08
-2.441544340257204e-08
-1.2015337924850708e-09
-1.8335933459952054e-09
-3.0957333312674266e-09
-4.824356268473338e-09
-6.9979477784222335e-09
-9.35903368258453e-09
-1.02835720725863e-08
-7.404077732611468e-09
-1.3567386420636855e-09
-7.675821560697014e-10
-1.3115608376581032e-09
-2.1095358322616234e-09
-2.936307021969569e-09
-3.6262783769440328e-09
-3.720777029610256e-09
-2.589042056071137e-09
-4.5048410906281366e-10
2.1902761277521465e-10
-2.9709787328375603e-10
-8.255003220190927e-10
-1.1341658376178767e-09
-1.3437518676015397e-09
-1.3113075222451578e-09
-8.068371703285248e-10
1.7046655737538374e-10
8.815123884178081e-10
1.2192139206432447e-10
-2.0199304485819504e-10
-6.661036925569188e-10
-8.98435266914404e-10
-9.915324795702913e-10
-8.585219934422786e-10
-3.8835225526248056e-10
3.3195757964400394e-10
7.743628450660776e-10
6.352651838638145e-12
-5.829415816482575e-10
-1.053644300736093e-09
-1.665830056186106e-09
-2.1773015812927054e-09
-2.4327923231884577e-09
-2.198981346199269e-09
-1.30500745863795e-09
-1.9643392453338444e-10
9.86684585813015e-11
-9.3997398884433e-10
-1.4803426058090883e-09
-2.442805120082562e-09
-3.5818786769159017e-09
-4.728458650880136e-09
-5.468097385568168e-09
-5.181418236570961e-09
-3.427529296826505e-09
-1.511881726829667e-09
-1.2015338490757655e-09
-1.833593424678412e-09
-3.09573347465458e-09
-4.824356542823273e-09
-6.997948289662892e-09
-9.359034607278328e-09
-1.0283573504946622e-08
-7.4040779933570876e-09
-1.3567389817750634e-09
-1.2973846516855552e-09
-1.971932919788079e-09
-3.35571261991457e-09
-5.336382767374023e-09
-7.99016610477848e-09
-1.1311521965056796e-08
-1.3819937052606606e-08
-6.776646667175051e-09
-3.189087381706068e-09
-1.201533792475674e-09
-1.833593345959008e-09
-3.095733331347114e-09
-4.824356268445796e-09
-6.997947778395287e-09
-9.359033682600676e-09
-1.0283572072568592e-08
-7.404077732599636e-09
-1.3567386420649296e-09
-9.399738674759172e-10
-1.480342449802269e-09
-2.442804836039407e-09
-3.5818781511297553e-09
-4.728457736083653e-09
-5.468095921441278e-09
-5.181416375051735e-09
-3.4275277674816253e-09
-1.5118815853349307e-09
-5.829414747916102e-10
-1.0536441799770409e-09
-1.6658298250277442e-09
-2.1773011972626313e-09
-2.432791756313299e-09
-2.198980608252863e-09
-1.3050066668582325e-09
-1.9643333606894398e-10
9.866865423598614e-11
-2.0199305962634683e-10
-6.661036590559716e-10
-8.984352436055661e-10
-9.915324739385016e-10
-8.585220168187469e-10
-3.883523233094812e-10
3.3195747030115605e-10
7.743627351904725e-10
6.3526938660042374e-12
-7.705182068326866e-11
-4.695027390080532e-10
-6.191582024161296e-10
-5.947546058605325e-10
-3.808746590430652e-10
3.865101357001952e-11
5.247688476250152e-10
6.524799550220399e-10
-9.336764562561925e-11
-3.3359818743590323e-10
-7.435589690172933e-10
-1.139522548081227e-09
-1.3178558006083046e-09
-1.2164025673615988e-09
-7.533332452373965e-10
-4.7682687488427964e-11
3.7737343637645254e-10
-7.647746378009544e-13
-5.829415600890456e-10
-1.0536442929135849e-09
-1.6658300171299727e-09
-2.1773015179088064e-09
-2.4327922382523877e-09
-2.198981205539019e-09
-1.3050071801283289e-09
-1.964334785906018e-10
9.866870073600383e-11
-7.675821963709732e-10
-1.3115608937867811e-09
-2.1095359278646837e-09
-2.9363071860291834e-09
-3.6262786386153403e-09
-3.720777384512667e-09
-2.589042267389552e-09
-4.504842261198288e-10
2.1902768844948227e-10
-8.355448997035026e-10
-1.4125176296894636e-09
-2.2864242480494702e-09
-3.247844850689e-09
-4.14425332642538e-09
-4.487194700203592e-09
-2.8871348520457157e-09
-7.913818787481133e-10
5.70002624328469e-10
-7.67582156065281e-10
-1.3115608376849303e-09
-2.10953583228628e-09
-2.9363070219275084e-09
-3.62627837692377e-09
-3.7207770295902977e-09
-2.589042056107983e-09
-4.5048410904907584e-10
2.1902761276735313e-10
-5.829414748384352e-10
-1.0536441799798467e-09
-1.6658298250009833e-09
-2.177301197282378e-09
-2.4327917563221927e-09
-2.1989806082544775e-09
-1.3050066668534679e-09
-1.9643333609287266e-10
9.866865423119511e-11
-3.335981149044984e-10
-7.435588814208782e-10
-1.1395223901646395e-09
-1.3178555648581243e-09
-1.2164022652767214e-09
-7.533329206451067e-10
-4.7682428967619715e-11
3.773735457465643e-10
-7.648064283238934e-13
-7.705183663970179e-11
-4.695027144470623e-10
-6.191581852219696e-10
-5.947546035561794e-10
-3.808746789643801e-10
3.865096359147574e-11
5.247687661078879e-10
6.524798693429632e-10
-9.336762558262273e-11
4.4668006137426816e-11
-2.95100070523284e-10
-3.4229248567730114e-10
-2.631441228929928e-10
-6.88118820234033e-11
2.3150384543247395e-10
5.19950926927303e-10
5.07928052154251e-10
-1.8535524581620277e-10
-7.705187171210682e-11
-4.695027711378128e-10
-6.191582695525963e-10
-5.947547124890898e-10
-3.8087479534953934e-10
3.8650875051915857e-11
5.247687451737862e-10
6.524799163119196e-10
-9.3367598866833e-11
-2.0199310293193858e-10
-6.661037285452841e-10
-8.984353456037913e-10
-9.915326222393594e-10
-8.585222015709793e-10
-3.883524914004167e-10
3.319574020476382e-10
7.7436277634198e-10
6.352739820453302e-12
-2.9709789410203916e-10
-8.255003548918458e-10
-1.1341658878649431e-09
-1.343751942616154e-09
-1.3113076200419143e-09
-8.06837251389194e-10
1.7046651419794543e-10
8.815124125663204e-10
1.2192140040910777e-10
-3.3240432241169845e-10
-8.871928862812064e-10
-1.2281417889444317e-09
-1.4880386775138864e-09
-1.5091721663204041e-09
-9.560084761658724e-10
7.075249633632107e-11
9.699902315050678e-10
1.1119604052440183e-10
-2.9709787327609303e-10
-8.255003219562932e-10
-1.1341658375980376e-09
-1.3437518676559086e-09
-1.3113075222222615e-09
-8.06837170330735e-10
1.7046655739154354e-10
8.815123884342988e-10
1.2192139209780874e-10
-2.0199305963550537e-10
-6.66103659043372e-10
-8.984352436268478e-10
-9.915324739427897e-10
-8.585220168392345e-10
-3.883523233074695e-10
3.3195747031997606e-10
7.743627351835903e-10
6.352693863463139e-12
-7.705183668110052e-11
-4.695027144063518e-10
-6.191581852183962e-10
-5.947546035583234e-10
-3.808746789446072e-10
3.8650963623133596e-11
5.247687660985176e-10
6.52479869342778e-10
-9.33676255926283e-11
4.466799055281468e-11
-2.9510005390235354e-10
-3.4229247542902304e-10
-2.6314412311390956e-10
-6.881189628526761e-11
2.3150381332526657e-10
5.199508794040431e-10
5.079280084054757e-10
-1.8535521923413836e-10
SCALARS strain23 float
LOOKUP_TABLE default
-3.987758679105692e-10
-3.9877650690596453e-10
3.987762559412725e-10
3.987756165143007e-10
-1.1208314742949305e-09
-1.1208318239294317e-09
1.1208313035985745e-09
1.120830953793449e-09
-2.306094061409708e-09
-4.028063622887401e-09
-5.341012334737877e-09
-6.1579988980718975e-09
-6.435561997205868e-09
-6.15799871994339e-09
-5.341011971688412e-09
-4.028063265338687e-09
-2.3060940020234206e-09
-1.5889335248544602e-10
-1.0516486139763271e-10
-7.560942726338136e-11
-3.950503602790127e-11
2.644042709766044e-17
3.9505076456002986e-11
7.560946016846069e-11
1.0516487248410285e-10
1.588933321636433e-10
2.3060936943831452e-09
4.028062796416761e-09
5.341011366609486e-09
6.157998024418323e-09
6.43556127037259e-09
6.157998202555939e-09
5.3410117295947555e-09
4.02806315380794e-09
2.3060937539669235e-09
1.5889285746995516e-10
1.051645730579957e-10
7.560926994888206e-11
3.950498282327039e-11
2.6352605332025686e-17
-3.950494228998108e-11
-7.560923677001257e-11
-1.051645619692624e-10
-1.5889287769524906e-10
-3.20348024686537e-09
-6.561509043242721e-09
-1.0342762965009019e-08
-1.3373924284778532e-08
-1.4726020169549902e-08
-1.337392353513973e-08
-1.0342761831248113e-08
-6.561508184771838e-09
-3.2034801071902987e-09
-3.4666752239992653e-10
-2.7555102717111735e-10
-2.2545827615469495e-10
-1.4723444049969903e-10
1.7885269839709819e-16
1.4723460999940916e-10
2.2545840996885408e-10
2.7555107016441864e-10
3.466675068309448e-10
3.2034790514611652e-09
6.561506264758581e-09
1.0342758720826425e-08
1.3373919141748583e-08
1.472601517384602e-08
1.3373919891482174e-08
1.0342759854711805e-08
6.561507123071016e-09
3.2034791910749325e-09
3.466672844575455e-10
2.755510282370554e-10
2.2545849257428642e-10
1.4723470837642624e-10
1.79097827581364e-16
-1.4723453861177677e-10
-2.2545835842052002e-10
-2.7555098487653884e-10
-3.466672997976695e-10
-1.341210758919901e-10
-1.0643183291251379e-10
-1.1458829357154683e-10
-1.4758297496822276e-10
-2.0424471813354268e-10
-2.7649977058883807e-10
-3.473784680574806e-10
-4.013460364181973e-10
-4.688715007184026e-10
-1.3412184842375742e-10
-1.0643275012875817e-10
-1.145893615591529e-10
-1.4758416731913843e-10
-2.0424597092190027e-10
-2.765009755879938e-10
-3.4737949008163786e-10
-4.0134678278903443e-10
-4.688720272118744e-10
1.3412171962096285e-10
1.0643267400635719e-10
1.1458930213137426e-10
1.475841070728348e-10
2.0424589605453742e-10
2.765008697560975e-10
3.4737933261588363e-10
4.013465502112307e-10
4.688716932488062e-10
1.3412094716223887e-10
1.0643175703863757e-10
1.1458823453864437e-10
1.4758291509082844e-10
2.0424464329619656e-10
2.7649966462334877e-10
3.473783106251312e-10
4.01345803666143e-10
4.688711664585551e-10
-1.3655951245386458e-09
-8.25977498403556e-10
-5.443036823495479e-10
-2.717793878706965e-10
2.4790150738573357e-16
2.7177978073366983e-10
5.443040379885665e-10
8.259777226174719e-10
1.3655952496656086e-09
-2.568454604881189e-09
-1.6650854492260802e-09
-1.1118918837232434e-09
-5.602232642780263e-10
4.828542897578926e-16
5.602240255301868e-10
1.1118925636000486e-09
1.6650858787266298e-09
2.56845481035509e-09
-3.456613210480595e-09
-2.30140592966908e-09
-1.5467921058944184e-09
-7.817625363534716e-10
6.6719094249895e-16
7.817635852578456e-10
1.5467930370174482e-09
2.3014065072768807e-09
3.4566134775222635e-09
-4.0037681422034045e-09
-2.692908579437015e-09
-1.8156536566084294e-09
-9.190566342067039e-10
7.826665024836816e-16
9.190578634135311e-10
1.8156547432120594e-09
2.6929092492116023e-09
4.003768446398291e-09
-4.1891276335362765e-09
-2.8258120698592363e-09
-1.9069025949214036e-09
-9.657476859375052e-10
8.22000689270393e-16
9.657489767431657e-10
1.906903734150321e-09
2.8258127706602104e-09
4.189127950187235e-09
-4.003768035857283e-09
-2.6929085051711844e-09
-1.8156536064888183e-09
-9.190566085505723e-10
7.827123985999691e-16
9.190578379840593e-10
1.815654692933388e-09
2.692909174764626e-09
4.00376834010941e-09
-3.456612965726633e-09
-2.301405758877684e-09
-1.546791990842135e-09
-7.817624780480149e-10
6.672833286472048e-16
7.81763526799066e-10
1.5467929216647361e-09
2.3014063364716678e-09
3.456613232639837e-09
-2.5684543293894007e-09
-1.6650852579886062e-09
-1.111891754395884e-09
-5.602231987598657e-10
4.828033221972696e-16
5.602239595826036e-10
1.1118924341704497e-09
1.6650856870858226e-09
2.568454534908856e-09
-1.3655950882285404e-09
-8.25977482752015e-10
-5.44303670853491e-10
-2.717793823124564e-10
2.47909521111508e-16
2.7177977489299715e-10
5.44304026496447e-10
8.259777065922835e-10
1.3655952133691748e-09
-1.1130319694070775e-09
-6.022668792628749e-10
-3.5486192268130515e-10
-1.91403039523488e-10
8.839765886881784e-16
1.9140389203507083e-10
3.548624394995167e-10
6.022669057474379e-10
1.1130319668774665e-09
-3.1865413940015477e-09
-2.6510625396986113e-09
-2.0769924275571617e-09
-9.385759627806674e-10
1.597404960393346e-15
9.38579602474042e-10
2.076993204508919e-09
2.6510622200573084e-09
3.186541212146909e-09
-5.562825758064003e-09
-6.8888272790087725e-09
-7.518718478939545e-09
-4.9298278030281956e-09
1.0994035680151807e-14
4.929832462716514e-09
7.518719640929942e-09
6.888823645207094e-09
5.562824912930541e-09
-7.75099475990132e-09
-9.85205753778995e-09
-3.184519742188143e-08
-3.003374218453728e-08
2.1068000365910782e-14
3.0033788468875605e-08
3.184514877496287e-08
9.85205253431429e-09
7.750992885899622e-09
-7.919217651601645e-09
-1.6060671456227587e-08
-1.4985018149919055e-08
-3.3762897052928665e-07
9.39813061889667e-13
3.376282326529064e-07
1.4985050270666355e-08
1.6060658748532952e-08
7.919214940544225e-09
-7.750994413353632e-09
-9.85205527324395e-09
-3.184519918667809e-08
-3.003365160438815e-08
2.1067568974677724e-14
3.0033697887736694e-08
3.184515054003588e-08
9.852050269720712e-09
7.75099253932553e-09
-5.562824900531977e-09
-6.888826247418675e-09
-7.51871130647808e-09
-4.929830198163554e-09
1.0993856797794849e-14
4.929834857827362e-09
7.518712468298963e-09
6.8888226135368465e-09
5.562824055296632e-09
-3.186540812595115e-09
-2.651061729079637e-09
-2.076991645887272e-09
-9.385751336540496e-10
1.5973268943958556e-15
9.385787730693062e-10
2.076992422728862e-09
2.6510614093808152e-09
3.1865406305937016e-09
-1.113031953528042e-09
-6.0226683941061e-10
-3.548618309537515e-10
-1.914028749913614e-10
8.83934562949977e-16
1.9140372738870728e-10
3.548623477485108e-10
6.022668657677607e-10
1.113031950911716e-09
-1.9420281874246354e-09
-2.1565818029450274e-09
-2.4976002784972913e-09
-2.846722313751879e-09
-3.118787399259076e-09
-3.195010953763552e-09
-2.9683816475343836e-09
-2.4914150822674816e-09
-2.189078521216707e-09
-3.7536355419410445e-09
-4.080784829298095e-09
-4.646922358369711e-09
-5.325143349752125e-09
-5.992733690988677e-09
-6.455379767927626e-09
-6.4917920757255026e-09
-6.053943435219174e-09
-5.624185873084935e-09
-5.126643269428778e-09
-5.609679445439879e-09
-6.385383867505112e-09
-7.410313331448104e-09
-8.589412883241962e-09
-9.688661105073447e-09
-1.0312906421967486e-08
-1.0151932244983649e-08
-9.551433515307647e-09
-5.983673127008674e-09
-6.587396184526311e-09
-7.538507563800599e-09
-8.854583536072122e-09
-1.0500896853955518e-08
-1.2229042157046675e-08
-1.3461625580105848e-08
-1.3560471034888134e-08
-1.2874700884705424e-08
-6.2750569829499405e-09
-6.924619837470414e-09
-7.944479929651148e-09
-9.37737003669443e-09
-1.121807322188065e-08
-1.3229033182441882e-08
-1.4682346393663939e-08
-1.500049730655824e-08
-1.413540900465022e-08
-5.983672942158265e-09
-6.587395973720762e-09
-7.53850731242722e-09
-8.854583218203534e-09
-1.0500896428548798e-08
-1.222904157860581e-08
-1.3461624863926653e-08
-1.3560470226800888e-08
-1.2874700124058071e-08
-5.1266428594541116e-09
-5.609678978763252e-09
-6.385383324418476e-09
-7.410312666902846e-09
-8.589412035615575e-09
-9.688660027287417e-09
-1.0312905139579615e-08
-1.0151930898835929e-08
-9.551432244102861e-09
-3.753635109598527e-09
-4.080784354269961e-09
-4.6469218222887126e-09
-5.325142721616606e-09
-5.99273294327606e-09
-6.455378891203421e-09
-6.491791101098847e-09
-6.053942439168912e-09
-5.624184934820213e-09
-1.9420281565128165e-09
-2.156581762408135e-09
-2.49760022445381e-09
-2.846722249653058e-09
-3.118787329783104e-09
-3.1950108872480927e-09
-2.9683815954294166e-09
-2.491415052103209e-09
-2.189078497667841e-09
-2.2953999868913216e-11
-3.9898270557801164e-11
-5.087080885024701e-11
-6.50801183067262e-11
-8.26344911362096e-11
-9.803820870580551e-11
-9.919288606516655e-11
-7.470390264930292e-11
-3.521638189317138e-11
-1.2852360420890775e-11
-2.8056104585484e-11
-4.088901034286904e-11
-5.728900767921518e-11
-8.156418096842406e-11
-1.0952591531353354e-10
-1.2366524198572992e-10
-9.77227760079932e-11
-3.237081904207056e-11
-6.9676917388803435e-12
-2.0376584329301976e-11
-3.229760187977667e-11
-4.966275576863647e-11
-7.812527429908578e-11
-1.1570328313882209e-10
-1.4303727993350195e-10
-1.1952601029168013e-10
-3.897710036891812e-11
-3.3808726277836383e-12
-1.0867544503522999e-11
-1.8493034632532438e-11
-3.01325532251203e-11
-5.0366305175099746e-11
-8.097649434515509e-11
-1.0358159334896936e-10
-9.552797539402847e-11
-3.57648219290599e-11
2.80189830098903e-17
3.505711790778858e-17
4.4020145104489604e-17
5.828408026098821e-17
8.117404385595975e-17
1.1356130026552267e-16
1.2444980085540676e-16
1.442681123773142e-16
8.33781000989221e-17
3.38091628546647e-12
1.086759607476665e-11
1.8493096050970853e-11
3.01326300217926e-11
5.036640575835641e-11
8.097662173161131e-11
1.0358175286097652e-10
9.552811075083312e-11
3.5764968823320173e-11
6.96773145361488e-12
2.0376630342910998e-11
3.2297651477486495e-11
4.966280939368356e-11
7.812532942713989e-11
1.1570333586892593e-10
1.4303732674602186e-10
1.195260578576226e-10
3.897713681339741e-11
1.285238656228629e-11
2.8056125115048012e-11
4.0889030867006745e-11
5.728902590027031e-11
8.156419035609022e-11
1.0952590885943365e-10
1.2366521899513815e-10
9.772274706763025e-11
3.23708091186296e-11
2.295399436104177e-11
3.9898263225486926e-11
5.0870802935018894e-11
6.508011145171502e-11
8.263448135906711e-11
9.803819327042999e-11
9.919286281768557e-11
7.47038710973521e-11
3.521635013094464e-11
1.9420279667289966e-09
2.156581783571584e-09
2.4976003297882597e-09
2.8467223856176484e-09
3.1187874445374868e-09
3.195010902006477e-09
2.968381397126351e-09
2.491414523330451e-09
2.189077580729159e-09
3.753634841404047e-09
4.080784416593666e-09
4.646922017065196e-09
5.325142973878476e-09
5.992733181563898e-09
6.455378989431979e-09
6.491790848135184e-09
6.05394157794991e-09
5.624183283816627e-09
5.1266425168781675e-09
5.609679077431923e-09
6.385383597635346e-09
7.410313031275827e-09
8.589412413644739e-09
9.688660245782146e-09
1.0312904833545314e-08
1.0151929550939853e-08
9.551429467667879e-09
5.983672550794778e-09
6.587396096149997e-09
7.538507642572148e-09
8.854583671292264e-09
1.0500896934999148e-08
1.2229041926500784e-08
1.3461624482566837e-08
1.3560468221904527e-08
1.2874696018286869e-08
6.275056574727603e-09
6.924619968487094e-09
7.944480280773556e-09
9.377370524243344e-09
1.1218073784193595e-08
1.3229033596119173e-08
1.4682345946073406e-08
1.5000494932721306e-08
1.4135404184163484e-08
5.983672735879481e-09
6.587396307071981e-09
7.538507893947757e-09
8.854583989165398e-09
1.0500897360523169e-08
1.222904250480562e-08
1.346162519886737e-08
1.3560469030185479e-08
1.2874696778975964e-08
5.126642926998709e-09
5.609679544326965e-09
6.385384140736725e-09
7.410313695773915e-09
8.589413261317818e-09
9.688661323510274e-09
1.0312906116075963e-08
1.0151930897237869e-08
9.55143073900827e-09
3.753635273749476e-09
4.080784891721975e-09
4.6469225533855075e-09
5.325143602021857e-09
5.992733929420458e-09
6.455379866162537e-09
6.491791822758266e-09
6.05394257427522e-09
5.624184222151388e-09
1.942027997573066e-09
2.1565818243315506e-09
2.4976003836638697e-09
2.846722449901414e-09
3.118787513975792e-09
3.1950109686777374e-09
2.9683814491824814e-09
2.491414553670933e-09
2.1890776043433257e-09
2.295328226809278e-11
3.989728140715139e-11
5.0869622196898457e-11
6.507875708854283e-11
8.263300803842898e-11
9.803672025752952e-11
9.919157736236417e-11
7.470295787822973e-11
3.521585708280692e-11
1.2851837193300018e-11
2.8055282079037477e-11
4.088796487577793e-11
5.728775531571079e-11
8.156273653237706e-11
1.0952436766829539e-10
1.2366380992660776e-10
9.772176467378877e-11
3.237039507898558e-11
6.967361720848197e-12
2.037601552270951e-11
3.2296828536578246e-11
4.966178088308032e-11
7.812409152559811e-11
1.1570196172848733e-10
1.4303605275087095e-10
1.1952524687287558e-10
3.897692104467135e-11
3.3807276395956485e-12
1.0867270401881175e-11
1.8492643116659155e-11
3.013204321731172e-11
5.036567379385566e-11
8.097578186876487e-11
1.0358098511637471e-10
9.552768055218275e-11
3.576493275235594e-11
2.8024645061183225e-17
3.5030418999157203e-17
4.4045954793962483e-17
5.829191076625694e-17
8.121209209618566e-17
1.1370218897617515e-16
1.244935318264409e-16
1.4447561642423742e-16
8.346896754357228e-17
-3.380684102763904e-12
-1.086721902348972e-11
-1.8492581995165346e-11
-3.013196661644962e-11
-5.036557303523009e-11
-8.097565439409149e-11
-1.035808254173387e-10
-9.552754506965988e-11
-3.5764785661828866e-11
-6.96732188918341e-12
-2.0375969424463367e-11
-3.229677919978104e-11
-4.9661727263036024e-11
-7.812403617157149e-11
-1.1570190900686706e-10
-1.4303600568093244e-10
-1.195251990431088e-10
-3.8976884393939534e-11
-1.2851811292038343e-11
-2.8055261451866153e-11
-4.0887944522171775e-11
-5.728773704918059e-11
-8.156272675481106e-11
-1.0952437381542525e-10
-1.2366383276176898e-10
-9.772179357487056e-11
-3.2370404848266546e-11
-2.2953287810255825e-11
-3.989728863449972e-11
-5.086962795177265e-11
-6.507876363192529e-11
-8.263301756680849e-11
-9.803673540951958e-11
-9.919160052500951e-11
-7.470298930754606e-11
-3.5215888571097916e-11
-1.4465001579086854e-09
-2.1108842357325656e-09
-2.5694474195455914e-09
-2.9680835697004774e-09
-3.239436604234381e-09
-3.227635528535781e-09
-2.750333532105871e-09
-1.7930395042556318e-09
-7.255877786227945e-10
-1.0848228462506087e-09
-1.773918036755731e-09
-2.284165209016059e-09
-2.7502823542602395e-09
-3.1768812980352338e-09
-3.3869452820195286e-09
-3.0624477441090323e-09
-1.9856522452758966e-09
-5.384582689885688e-10
-7.140313182677684e-10
-1.2896080829389394e-09
-1.7637877516301938e-09
-2.237497386704023e-09
-2.7324878299413516e-09
-3.070047136681735e-09
-2.8523889255851906e-09
-1.7236074293467866e-09
-2.574390756230531e-10
-3.619330019178864e-10
-6.820291227379643e-10
-9.737363394894433e-10
-1.2846779354797976e-09
-1.6296289137470184e-09
-1.9082161885567957e-09
-1.7448892047288306e-09
-1.066894428323311e-09
-5.994202344070698e-11
3.445053949900436e-16
4.666337858346239e-16
6.033491171795083e-16
7.874413670008776e-16
1.0413152457950584e-15
1.337201114221647e-15
1.3571754688166192e-15
1.3451282705818734e-15
7.447768112745042e-16
3.6193354573615e-10
6.820298259376629e-10
9.737372087370207e-10
1.2846790127384704e-09
1.6296302596244821e-09
1.908217786429486e-09
1.74489099306664e-09
1.066895846969693e-09
5.994331972212191e-11
7.140318055648435e-10
1.2896086796676289e-09
1.7637884087808536e-09
2.237498101117313e-09
2.73248856730893e-09
3.070047846106583e-09
2.8523895776452485e-09
1.7236080680586111e-09
2.574395149164286e-10
1.0848231908245116e-09
1.7739183436658772e-09
2.284165512119864e-09
2.7502826330911244e-09
3.1768814884260057e-09
3.3869453171979716e-09
3.062447633909887e-09
1.9856521145843774e-09
5.384582967753523e-10
1.4465002438922042e-09
2.1108842896753295e-09
2.569447490259184e-09
2.9680836419086597e-09
3.2394366570387324e-09
3.2276355357157882e-09
2.750333475063549e-09
1.7930393891111376e-09
7.2558768503738e-10
-2.9582689365224928e-09
-4.012210043186389e-09
-4.771661756473663e-09
-5.5503238549428325e-09
-6.268443659067395e-09
-6.672776107329005e-09
-6.373999359736002e-09
-5.1569139589372756e-09
-3.2394667089026157e-09
-2.262800388968568e-09
-3.386487164934263e-09
-4.258021287950142e-09
-5.180294602024742e-09
-6.2307855958580444e-09
-7.153808855918115e-09
-7.339447332477919e-09
-5.957603779069375e-09
-3.182655777290268e-09
-1.5195938138968552e-09
-2.4646033645684648e-09
-3.2864800015157667e-09
-4.22592429927199e-09
-5.421184594386668e-09
-6.704436248393204e-09
-7.298635490747587e-09
-5.969494892426777e-09
-2.433362868598984e-09
-7.748467442475795e-10
-1.3035673492179006e-09
-1.8125614774146625e-09
-2.427632214713173e-09
-3.2703553267864752e-09
-4.259151068429519e-09
-4.992465606534514e-09
-3.6490771156719143e-09
-1.5508608872260968e-09
6.920646117614574e-16
8.868995893741315e-16
1.1237710155227461e-15
1.4842496668422439e-15
2.0713885793242903e-15
2.9708359253546868e-15
4.12498946675624e-15
3.317730222916867e-15
3.982012560981245e-15
7.748478305593835e-10
1.3035686879443416e-09
1.812563100983315e-09
2.4276342498358182e-09
3.2703579828798797e-09
4.259154523479677e-09
4.9924696366372985e-09
3.6490820852944325e-09
1.5508636713799773e-09
1.519594780973264e-09
2.4646044966466467e-09
3.286481233685635e-09
4.225925648166506e-09
5.421186008649337e-09
6.7044375294236785e-09
7.2986364827618965e-09
5.969495743912497e-09
2.433364275484962e-09
2.262801035732566e-09
3.386487744839462e-09
4.258021857219995e-09
5.1802951239961825e-09
6.230785926949936e-09
7.153808805029064e-09
7.339446777201368e-09
5.957602997996101e-09
3.1826552828471994e-09
2.9582690947112426e-09
4.0122101482762844e-09
4.771661889406775e-09
5.550323991084506e-09
6.2684437578086994e-09
6.672776108544524e-09
6.373999204333514e-09
5.156913634212981e-09
3.2394663838325463e-09
-4.09100132790942e-09
-5.5324491905344105e-09
-6.563762002123328e-09
-7.754332278637779e-09
-9.089304711358519e-09
-1.0250012600252247e-08
-1.0572195411825503e-08
-9.27847850840847e-09
-6.2520986095911165e-09
-3.1663772047451095e-09
-4.686551293978342e-09
-5.8749651006927325e-09
-7.299572756422923e-09
-9.225207192641909e-09
-1.1496117109393471e-08
-1.3132719064499576e-08
-1.2415504065262616e-08
-8.083431506667324e-09
-2.1412633220578682e-09
-3.4190805282535316e-09
-4.547272362635956e-09
-6.001135656809003e-09
-8.202705655474976e-09
-1.130209643453969e-08
-1.4569266554235351e-08
-1.486168749589501e-08
-9.29833736738221e-09
-1.0947362140355174e-09
-1.8102810302867363e-09
-2.511759619809618e-09
-3.4664793274716756e-09
-5.010163313320623e-09
-7.512379577482109e-09
-1.0655035177180532e-08
-1.3020961217740962e-08
-4.663369013015729e-09
9.641862694036672e-16
1.2267193180411531e-15
1.5520402116964555e-15
2.0988853855473524e-15
3.1154382658487673e-15
5.032765681966724e-15
8.735353444900656e-15
1.4763530104509997e-14
5.243496903325872e-15
1.0947377240669473e-09
1.8102828811007364e-09
2.511761860778015e-09
3.4664821963524752e-09
5.010167257209145e-09
7.512385259688008e-09
1.0655042852332798e-08
1.302096863341244e-08
4.663383839955636e-09
2.1412646585553884e-09
3.4190820884582898e-09
4.547274059619925e-09
6.00113753545415e-09
8.202707661243093e-09
1.1302098151509315e-08
1.4569266754957516e-08
1.4861685779986676e-08
9.298335149132703e-09
3.166378078139006e-09
4.686552086493304e-09
5.87496587994122e-09
7.299573462041615e-09
9.225207577768507e-09
1.149611669023763e-08
1.3132717348715757e-08
1.2415500835078754e-08
8.083427748159738e-09
4.091001537563594e-09
5.532449334978026e-09
6.563762185421007e-09
7.754332467024881e-09
9.089304843192342e-09
1.0250012563680064e-08
1.0572195049248418e-08
9.278477699847442e-09
6.252097566443466e-09
-4.7940816095683614e-09
-6.507486440803737e-09
-7.763797949928876e-09
-9.310740144680182e-09
-1.1238175678292427e-08
-1.3228260681761726e-08
-1.4237002877549934e-08
-1.2920165113273996e-08
-8.773870533788822e-09
-3.728339423942863e-09
-5.52605034866027e-09
-6.969045602355594e-09
-8.830160302981659e-09
-1.1631421971326415e-08
-1.549363014005592e-08
-1.939798255689109e-08
-1.977495022870625e-08
-1.3877359675774192e-08
-2.529806817084411e-09
-4.039498070011843e-09
-5.409464689665123e-09
-7.314877741997447e-09
-1.0513814921158989e-08
-1.592434440343325e-08
-2.3869745541457516e-08
-3.1220153558107584e-08
-2.8019898261652642e-08
-1.2950260702226256e-09
-2.1412042404045416e-09
-2.9942540277168455e-09
-4.246362687803581e-09
-6.508062405564339e-09
-1.0803750292229571e-08
-1.9381758349106168e-08
-3.135932863602352e-08
-3.780680902741328e-08
1.135621563147386e-15
1.4467304921633055e-15
1.8410983841088824e-15
2.545667051747663e-15
3.956556575592654e-15
7.009358316295372e-15
1.4166760282661062e-14
3.544760378238962e-14
7.503971267064022e-14
1.2950278469763595e-09
2.1412064214487953e-09
2.9942566830438043e-09
4.2463661509294405e-09
6.5080673754173166e-09
1.0803757960758212e-08
1.938177070105277e-08
3.1359341632220325e-08
3.7806806943441814e-08
2.529808384682437e-09
4.039499903817362e-09
5.4094666932676305e-09
7.314879984463726e-09
1.0513817344871306e-08
1.592434643185791e-08
2.3869744297258602e-08
3.122014109060311e-08
2.8019867064066e-08
3.728340437223241e-09
5.526051275453052e-09
6.969046517148967e-09
8.830161122404852e-09
1.1631422345626489e-08
1.549362924222053e-08
1.939797879960847e-08
1.977494252490832e-08
1.3877350117577833e-08
4.7940818514341064e-09
6.507486610340862e-09
7.763798166490921e-09
9.310740368072807e-09
1.1238175830567723e-08
1.3228260594908225e-08
1.4237002232677612e-08
1.2920163494637921e-08
8.773868156874215e-09
-5.032864293299601e-09
-6.844374197677203e-09
-8.189326528475725e-09
-9.879093787982527e-09
-1.2073885119151136e-08
-1.4420164010636658e-08
-1.583927651060685e-08
-1.4208880531135047e-08
-1.0235526414901767e-08
-3.919495179265479e-09
-5.817119796738918e-09
-7.35870900234109e-09
-9.402013583831372e-09
-1.257039042860411e-08
-1.7317429097103764e-08
-2.2378034483139766e-08
-2.4216478073021476e-08
-1.523812980504469e-08
-2.6621266353170966e-09
-4.255323162733599e-09
-5.7196711026588094e-09
-7.808107250829743e-09
-1.1469801406659322e-08
-1.7931272858021067e-08
-2.985999337860026e-08
-4.274392185465406e-08
-4.7702025216202384e-08
-1.3633570468472251e-09
-2.25674640281188e-09
-3.1685724846687214e-09
-4.545981409216349e-09
-7.128015271335865e-09
-1.2490504467373444e-08
-2.398889245735096e-08
-6.049280048647942e-08
-1.062726810179329e-07
1.1942710276965027e-15
1.5229564867651706e-15
1.944424035669388e-15
2.7110517749093656e-15
4.303934703089236e-15
7.867067957512677e-15
1.7505261195634003e-14
4.916204221483632e-14
2.4638150104358615e-13
1.3633589145650465e-09
2.2567486982390856e-09
3.168575286492616e-09
4.545985093370305e-09
7.128020627810971e-09
1.249051305057829e-08
2.398890633419758e-08
6.04928240650461e-08
1.0627258488124886e-07
2.662128281844419e-09
4.2553250910151345e-09
5.719673214075634e-09
7.808109621702716e-09
1.1469803993587739e-08
1.7931274900708245e-08
2.985999187032378e-08
4.2743897005468556e-08
4.770194617967139e-08
3.919496240050516e-09
5.817120769388081e-09
7.358709963858366e-09
9.402014441573072e-09
1.2570390787408074e-08
1.73174279652165e-08
2.2378029571365714e-08
2.421646566219571e-08
1.5238120884439417e-08
5.0328645462462e-09
6.844374376150297e-09
8.189326756533207e-09
9.879094024861258e-09
1.207388527405385e-08
1.4420163916514143e-08
1.5839275689904126e-08
1.4208878295675494e-08
1.0235523272773969e-08
-4.794081471392585e-09
-6.50748625365548e-09
-7.763797711643222e-09
-9.310739829269888e-09
-1.1238175228050158e-08
-1.3228260045450247e-08
-1.4237002048844874e-08
-1.2920164331343604e-08
-8.773869782463967e-09
-3.7283393123398235e-09
-5.526050187733347e-09
-6.969045384280305e-09
-8.830159988224354e-09
-1.163142146879669e-08
-1.549362924896892e-08
-1.939798113132544e-08
-1.977494828496089e-08
-1.3877358473921539e-08
-2.529806737984534e-09
-4.039497949790286e-09
-5.409464517050644e-09
-7.314877471242095e-09
-1.051381442360979e-08
-1.592434339889732e-08
-2.3869743072916655e-08
-3.1220148930915724e-08
-2.8019891254776165e-08
-1.2950260292853727e-09
-2.141204175829367e-09
-2.9942539307385974e-09
-4.2463625245192896e-09
-6.508062079009921e-09
-1.0803749495162734e-08
-1.938175628113869e-08
-3.135931955024535e-08
-3.780678752446865e-08
1.1356787750944532e-15
1.4467737040785053e-15
1.8410932167115958e-15
2.5456925338736132e-15
3.956465798310691e-15
7.009320801173051e-15
1.4166614091722683e-14
3.5447311675550415e-14
7.503907238486963e-14
1.2950278059362533e-09
2.1412063566501297e-09
2.9942565860630846e-09
4.246365987569528e-09
6.508067048788961e-09
1.0803757163533462e-08
1.9381768632932175e-08
3.1359332546223566e-08
3.7806785440274256e-08
2.5298083054405657e-09
4.039499783715723e-09
5.4094665205602264e-09
7.314879713494081e-09
1.051381684723632e-08
1.5924345427171737e-08
2.3869741828657853e-08
3.122013646326919e-08
2.8019860057241352e-08
3.7283403254376365e-09
5.526051114388556e-09
6.969046299014452e-09
8.830160807679226e-09
1.1631421842891908e-08
1.5493628351071566e-08
1.939797737399678e-08
1.977494058108354e-08
1.3877348915635142e-08
4.794081713083864e-09
6.507486423151478e-09
7.763797928262693e-09
9.310740052582389e-09
1.1238175380387486e-08
1.3228259958492111e-08
1.4237001403860506e-08
1.2920162712536812e-08
8.77386740546287e-09
-4.091000978766807e-09
-5.532448716952744e-09
-6.563761427188783e-09
-7.754331550608832e-09
-9.089303740686912e-09
-1.0250011306461936e-08
-1.0572193855145732e-08
-9.278476971340609e-09
-6.252097522242746e-09
-3.166376924748105e-09
-4.6865508871411845e-09
-5.874964578230449e-09
-7.299572046890938e-09
-9.22520613246404e-09
-1.1496115451548453e-08
-1.3132716621832421e-08
-1.2415501286301702e-08
-8.083429385030263e-09
-2.1412631277828216e-09
-3.4190802279207154e-09
-4.5472719535327006e-09
-6.001135055983811e-09
-8.202704655961633e-09
-1.130209459254178e-08
-1.4569263155671769e-08
-1.4861682061504414e-08
-9.298331854501705e-09
-1.094736113803968e-09
-1.8102808703895971e-09
-2.5117593920948324e-09
-3.466478973946891e-09
-5.010162676910451e-09
-7.512378283991039e-09
-1.0655032198125528e-08
-1.302095537132678e-08
-4.663360476334565e-09
9.640014921440739e-16
1.2266305359188272e-15
1.5520370386316257e-15
2.0987915195729818e-15
3.1153959584555674e-15
5.032705043010379e-15
8.735210381945763e-15
1.476324024760206e-14
5.243361620004641e-15
1.0947376238111814e-09
1.8102827211343126e-09
2.511761632894114e-09
3.4664818425530203e-09
5.010166620664858e-09
7.512383965907557e-09
1.06550398729929e-08
1.3020962786693697e-08
4.663375302868969e-09
2.1412644642981493e-09
3.41908178812865e-09
4.547273650647947e-09
6.001136934397969e-09
8.202706661548325e-09
1.13020963093688e-08
1.4569263356147368e-08
1.4861680345536789e-08
9.298329636114819e-09
3.166377798123261e-09
4.686551679638544e-09
5.874965357375585e-09
7.2995727525164335e-09
9.225206517420066e-09
1.1496115032182943e-08
1.3132714906150564e-08
1.2415498056053731e-08
8.083425626262796e-09
4.091001188465298e-09
5.532448861361433e-09
6.56376161041764e-09
7.754331738987741e-09
9.089303872415451e-09
1.0250011269941528e-08
1.057219349241806e-08
9.278476162626294e-09
6.252096479037868e-09
-2.9582685366690492e-09
-4.012209520620662e-09
-4.771661149393093e-09
-5.550323130856797e-09
-6.268442780062157e-09
-6.6727750611683e-09
-6.373998207950315e-09
-5.156912870926472e-09
-3.2394659250526882e-09
-2.2628000757567087e-09
-3.3864867190359233e-09
-4.258020741190229e-09
-5.1802939131717165e-09
-6.230784684825352e-09
-7.153807641559113e-09
-7.339445831930095e-09
-5.957602253826623e-09
-3.182654725963112e-09
-1.5195936008398787e-09
-2.464603039423089e-09
-3.2864795774153697e-09
-4.225923728699281e-09
-5.421183770486575e-09
-6.704435017539744e-09
-7.298633745070228e-09
-5.9694929230047385e-09
-2.433361547838575e-09
-7.748466351542358e-10
-1.3035671772491754e-09
-1.8125612431373996e-09
-2.4276318838742997e-09
-3.2703548174070724e-09
-4.259150237097016e-09
-4.992464273092804e-09
-3.649075315914347e-09
-1.5508598921454686e-09
6.920002513195365e-16
8.868636913899079e-16
1.1236790140134761e-15
1.4841326439466248e-15
2.0710375412431157e-15
2.9707370524560683e-15
4.124876208773179e-15
3.3175447446217047e-15
3.98183257516535e-15
7.748477212954685e-10
1.3035685160380058e-09
1.8125628667282405e-09
2.427633918824554e-09
3.2703574734079584e-09
4.2591536919772775e-09
4.992468303139698e-09
3.6490802852140002e-09
1.5508626761791499e-09
1.5195945677341422e-09
2.464604171576114e-09
3.2864808095009186e-09
4.2259250774941115e-09
5.421185184498667e-09
6.704436298436361e-09
7.2986347369333686e-09
5.969493774286059e-09
2.4333629544673197e-09
2.262800722418811e-09
3.386487298986399e-09
4.25802131047198e-09
5.180294435045696e-09
6.230785015964201e-09
7.153807590552827e-09
7.339445276523789e-09
5.957601472626876e-09
3.1826542313260197e-09
2.958268694838463e-09
4.0122096254353774e-09
4.771661282215442e-09
5.550323266846507e-09
6.268442878752322e-09
6.67277506224869e-09
6.373998052253854e-09
5.156912546019642e-09
3.23946559981533e-09
-1.4465001534976157e-09
-2.110884196809946e-09
-2.569447366353868e-09
-2.968083509384373e-09
-3.2394365498426366e-09
-3.227635498881978e-09
-2.7503335494522057e-09
-1.7930395844724047e-09
-7.255879003261031e-10
-1.0848228489218727e-09
-1.773918006056941e-09
-2.284165163916756e-09
-2.750282301859089e-09
-3.17688124692111e-09
-3.386945247957978e-09
-3.0624477515060387e-09
-1.9856523097720557e-09
-5.384583828099975e-10
-7.140313239541917e-10
-1.2896080616522868e-09
-1.763787715573735e-09
-2.2374973419925816e-09
-2.732487784537805e-09
-3.0700471089617877e-09
-2.852388931313661e-09
-1.7236074757259962e-09
-2.574391027601491e-10
-3.619330053158021e-10
-6.820291116983126e-10
-9.73736319120895e-10
-1.2846779087548427e-09
-1.6296288871439105e-09
-1.908216171295442e-09
-1.7448892280067981e-09
-1.066894361930943e-09
-5.994197699007528e-11
3.4451317545088526e-16
4.665340907184765e-16
6.030730208346503e-16
7.873641778148366e-16
1.0412622276536968e-15
1.3370970544869976e-15
1.3570545776108655e-15
1.3450636876283677e-15
7.446499333490672e-16
3.619335490058957e-10
6.82029814818496e-10
9.737371882838617e-10
1.2846789858231978e-09
1.629630232882719e-09
1.908217768920865e-09
1.7448910161388977e-09
1.0668957803493208e-09
5.994327296998619e-11
7.140318113147149e-10
1.2896086582346248e-09
1.7637883727469338e-09
2.237498056279624e-09
2.7324885217798106e-09
3.070047817906752e-09
2.8523895834204647e-09
1.7236081145828884e-09
2.574395418092482e-10
1.0848231932779558e-09
1.7739183130558402e-09
2.284165466932668e-09
2.7502825802687734e-09
3.1768814373719948e-09
3.3869452827620854e-09
3.062447640971045e-09
1.9856521788889747e-09
5.384584103588442e-10
1.4465002393144544e-09
2.1108842508232914e-09
2.5694474369741545e-09
2.968083581643933e-09
3.239436602541056e-09
3.2276355058492212e-09
2.7503334921883315e-09
1.7930394693684622e-09
7.255878064994694e-10
SCALARS strain13 float
LOOKUP_TABLE default
-3.9877587031653984e-10
3.9877561720954267e-10
3.987762540698988e-10
-3.9877650663479487e-10
-1.1208314745889039e-09
1.1208309540905459e-09
1.1208313041252173e-09
-1.120831823024377e-09
-1.5889287891608823e-10
-1.0516456103301305e-10
-7.560923669927208e-11
-3.9504942421714553e-11
2.5804011705155006e-17
3.950498313350613e-11
7.560926960480802e-11
1.0516457268818641e-10
1.588928575844105e-10
2.3060937535924423e-09
4.028063152721872e-09
5.341011729458403e-09
6.157998202885925e-09
6.43556127092877e-09
6.1579980236402005e-09
5.341011366575936e-09
4.0280627968054036e-09
2.306093694096848e-09
1.588933326004873e-10
1.0516487333744884e-10
7.560945977386907e-11
3.950507691699405e-11
2.7755575615628914e-17
-3.950503593415193e-11
-7.560942757306455e-11
-1.0516486162806538e-10
-1.5889335279375277e-10
-2.3060940018205297e-09
-4.028063265614423e-09
-5.341011972455215e-09
-6.157998720375622e-09
-6.43556199704607e-09
-6.157998898238988e-09
-5.341012335120842e-09
-4.028063623780611e-09
-2.3060940615871744e-09
-3.4666729889823965e-10
-2.755509835876326e-10
-2.2545835847136847e-10
-1.4723453801101204e-10
1.801672960127787e-16
1.4723470839338344e-10
2.2545849299375302e-10
2.755510283922874e-10
3.4666728496624173e-10
3.2034791911175753e-09
6.56150712292935e-09
1.0342759854266954e-08
1.3373919892134588e-08
1.4726015173358075e-08
1.3373919142354576e-08
1.0342758721302789e-08
6.561506266518054e-09
3.2034790510657597e-09
3.466675069837416e-10
2.7555107037801653e-10
2.2545841037754748e-10
1.472346097580908e-10
1.7900177867735678e-16
-1.4723444075807716e-10
-2.2545827506911635e-10
-2.7555102711834985e-10
-3.466675222438872e-10
-3.203480106753415e-09
-6.561508184010911e-09
-1.0342761830171203e-08
-1.3373923534051e-08
-1.472602016895511e-08
-1.337392428488811e-08
-1.0342762964680357e-08
-6.561509043783234e-09
-3.2034802475912772e-09
-1.3412107576350578e-10
-1.0643183394071914e-10
-1.1458829328112041e-10
-1.4758297570680902e-10
-2.0424471949874803e-10
-2.7649977069770827e-10
-3.4737846795048974e-10
-4.0134603610355105e-10
-4.688715004360494e-10
1.3412094595740068e-10
1.0643175723341544e-10
1.1458823522209408e-10
1.475829161570047e-10
2.0424464355038585e-10
2.7649966509641667e-10
3.473783101719686e-10
4.013458039216558e-10
4.688711678028229e-10
1.3412171907486482e-10
1.0643267541713027e-10
1.1458930316123397e-10
1.4758410693625074e-10
2.0424589615626078e-10
2.765008696450303e-10
3.4737933162594034e-10
4.01346550611692e-10
4.688716942913979e-10
-1.3412184855570927e-10
-1.0643275036260544e-10
-1.1458936178946645e-10
-1.4758416678421066e-10
-2.042459713727865e-10
-2.765009746500107e-10
-3.4737949097655464e-10
-4.0134678179070023e-10
-4.688720275480406e-10
-1.3655951240957535e-09
-2.5684546040580583e-09
-3.456613209855061e-09
-4.00376814238242e-09
-4.1891276342438145e-09
-4.003768035317455e-09
-3.456612966261938e-09
-2.5684543296193834e-09
-1.3655950876123504e-09
-8.259774974444037e-10
-1.6650854497014377e-09
-2.301405928946832e-09
-2.692908580208351e-09
-2.8258120695560506e-09
-2.6929085045039342e-09
-2.301405758157885e-09
-1.6650852574452875e-09
-8.259774833497754e-10
-5.443036823940105e-10
-1.1118918826023144e-09
-1.5467921053702836e-09
-1.8156536555811141e-09
-1.9069025948396674e-09
-1.8156536073883275e-09
-1.5467919910953747e-09
-1.1118917539617267e-09
-5.443036705491018e-10
-2.717793878945392e-10
-5.602232635854975e-10
-7.817625363249273e-10
-9.190566349409277e-10
-9.657476857062239e-10
-9.190566086219199e-10
-7.817624785911616e-10
-5.602231983978419e-10
-2.717793813622211e-10
2.477673014672499e-16
4.840962700147777e-16
6.665946006984003e-16
7.822247623939793e-16
8.22150507395758e-16
7.839052757613318e-16
6.664861804811517e-16
4.838523245259685e-16
2.4744204081550425e-16
2.71779780565461e-10
5.60224024912263e-10
7.817635856699999e-10
9.190578639111952e-10
9.65748977831268e-10
9.190578379174481e-10
7.817635269875573e-10
5.602239595619771e-10
2.717797758220765e-10
5.443040387170545e-10
1.1118925645383759e-09
1.5467930364017942e-09
1.8156547441472003e-09
1.9069037351493023e-09
1.8156546932168033e-09
1.5467929220726751e-09
1.111892433810699e-09
5.443040272516166e-10
8.259777231210859e-10
1.6650858781510312e-09
2.301406507368691e-09
2.692909249974243e-09
2.8258127702217046e-09
2.6929091748932425e-09
2.3014063373386854e-09
1.6650856877922348e-09
8.2597770769831e-10
1.3655952494024196e-09
2.568454810029366e-09
3.4566134776258927e-09
4.003768447422701e-09
4.189127951833736e-09
4.003768339707215e-09
3.4566132330298826e-09
2.568454535075695e-09
1.3655952135153276e-09
-1.113031968620528e-09
-3.1865413937885983e-09
-5.562825758625295e-09
-7.75099476006051e-09
-7.919217650945772e-09
-7.750994412763449e-09
-5.562824900425065e-09
-3.186540812764654e-09
-1.1130319539566936e-09
-6.022668788652989e-10
-2.651062539253072e-09
-6.888827278175901e-09
-9.852057537786032e-09
-1.6060671455741735e-08
-9.852055273050324e-09
-6.8888262479669966e-09
-2.6510617289745783e-09
-6.022668398340206e-10
-3.548619221009023e-10
-2.076992427086635e-09
-7.518718479182485e-09
-3.184519742159943e-08
-1.4985018149515222e-08
-3.184519918662636e-08
-7.518711306656566e-09
-2.076991645702129e-09
-3.5486183148870573e-10
-1.914030387363628e-10
-9.385759623930373e-10
-4.929827802612461e-09
-3.003374218433759e-08
-3.3762897052889225e-07
-3.003365160359644e-08
-4.929830197655718e-09
-9.385751333849512e-10
-1.9140287461525893e-10
8.839229261731196e-16
1.5984257103682231e-15
1.0994582523050911e-14
2.1068148853102542e-14
9.398134397445301e-13
2.106781003992364e-14
1.0994555417996599e-14
1.5975583486302347e-15
8.847631828567959e-16
1.9140389232873319e-10
9.385796025747264e-10
4.929832463136815e-09
3.0033788469158726e-08
3.376282326530538e-07
3.0033697888254946e-08
4.929834857827706e-09
9.385787735801928e-10
1.9140372736737264e-10
3.548624388316577e-10
2.0769932050287987e-09
7.518719640810245e-09
3.1845148775236885e-08
1.4985050271322064e-08
3.18451505402096e-08
7.518712468487614e-09
2.0769924232648222e-09
3.5486234762314994e-10
6.022669056721976e-10
2.6510622202265827e-09
6.888823645556522e-09
9.852052534735107e-09
1.6060658748919378e-08
9.852050270297555e-09
6.88882261391105e-09
2.651061408863887e-09
6.02266866478289e-10
1.1130319674008005e-09
3.186541213052096e-09
5.562824913327071e-09
7.750992885610479e-09
7.919214940738497e-09
7.75099253934341e-09
5.562824055452102e-09
3.1865406308355295e-09
1.1130319508125073e-09
-2.2953286542498966e-11
-3.989728797446253e-11
-5.08696290386218e-11
-6.507876326050134e-11
-8.263301737201738e-11
-9.803673582035703e-11
-9.919160086943428e-11
-7.470298967089672e-11
-3.521588749777482e-11
-1.2851811222224299e-11
-2.8055261618639e-11
-4.088794447877457e-11
-5.7287736918631635e-11
-8.156272694997274e-11
-1.0952437332176386e-10
-1.2366383259207123e-10
-9.772179322253133e-11
-3.237040407315199e-11
-6.967321603554635e-12
-2.0375968924277177e-11
-3.229677866833404e-11
-4.9661726906355744e-11
-7.81240363470926e-11
-1.1570190825934724e-10
-1.4303600518643725e-10
-1.1952519825123888e-10
-3.8976883732274453e-11
-3.3806828322012483e-12
-1.0867218122557684e-11
-1.8492582085864046e-11
-3.013196625805542e-11
-5.036557268792673e-11
-8.09756541605023e-11
-1.035808255573506e-10
-9.552754431669391e-11
-3.576478547454194e-11
2.878556767949014e-17
3.583288180064592e-17
4.447939412621782e-17
5.85198122599051e-17
8.115253261054001e-17
1.1419359381703575e-16
1.2405983358665384e-16
1.448494102440634e-16
8.361909255294453e-17
3.3807282873773298e-12
1.0867271383989408e-11
1.8492643072236248e-11
3.013204307377934e-11
5.036567411503996e-11
8.097578258424963e-11
1.0358098507059522e-10
9.552768049248678e-11
3.576493319708794e-11
6.9673619087703975e-12
2.0376015219709942e-11
3.229682894820979e-11
4.966178111646437e-11
7.81240922919247e-11
1.1570196230682554e-10
1.4303605351474909e-10
1.1952524796190848e-10
3.897692092040897e-11
1.285183680939557e-11
2.805528248953082e-11
4.08879654038765e-11
5.728775575664438e-11
8.156273714147316e-11
1.0952436838864398e-10
1.236638107182924e-10
9.772176432854343e-11
3.237039545374472e-11
2.2953282585161036e-11
3.9897281930035416e-11
5.086962161183692e-11
6.50787579479107e-11
8.26330084002444e-11
9.803671977416488e-11
9.919157858907963e-11
7.470295822903372e-11
3.5215857980370677e-11
1.942027997019636e-09
2.1565818249030463e-09
2.4976003847021998e-09
2.846722449835557e-09
3.118787514973676e-09
3.19501096898169e-09
2.9683814493875957e-09
2.4914145534495925e-09
2.189077604922802e-09
3.753635274621973e-09
4.080784892293576e-09
4.6469225537296675e-09
5.325143602685984e-09
5.992733929997525e-09
6.455379866342637e-09
6.49179182177044e-09
6.053942574487216e-09
5.624184221938782e-09
5.126642926936995e-09
5.609679545209335e-09
6.385384140845463e-09
7.410313695863568e-09
8.589413261677952e-09
9.688661323502571e-09
1.0312906117217234e-08
1.0151930898114362e-08
9.551430739645345e-09
5.98367273630762e-09
6.587396307253246e-09
7.538507893471063e-09
8.854583990016481e-09
1.0500897360584804e-08
1.222904250512192e-08
1.3461625199750679e-08
1.3560469030630224e-08
1.2874696778982344e-08
6.275056576107328e-09
6.924619969360954e-09
7.94448028085151e-09
9.377370524890367e-09
1.12180737843557e-08
1.3229033596465255e-08
1.4682345946350796e-08
1.5000494932917172e-08
1.4135404184531736e-08
5.983672551505359e-09
6.587396095671192e-09
7.538507641800633e-09
8.854583671342358e-09
1.0500896935902813e-08
1.2229041926130856e-08
1.3461624483553829e-08
1.356046822254724e-08
1.287469601846873e-08
5.1266425170543636e-09
5.609679076752682e-09
6.385383597931225e-09
7.410313031410267e-09
8.589412413371068e-09
9.688660246130873e-09
1.0312904834063963e-08
1.0151929550261327e-08
9.551429468093037e-09
3.753634841483205e-09
4.080784417684075e-09
4.6469220182422145e-09
5.325142975095556e-09
5.992733182114867e-09
6.455378989250185e-09
6.491790848183994e-09
6.053941577644634e-09
5.624183284483374e-09
1.9420279663909246e-09
2.1565817834323132e-09
2.4976003295705193e-09
2.8467223855423683e-09
3.1187874442565895e-09
3.195010902140626e-09
2.9683813973187863e-09
2.4914145238779783e-09
2.1890775811516695e-09
2.295399409283673e-11
3.989826269932065e-11
5.087080309404933e-11
6.508011168274326e-11
8.26344814786311e-11
9.803819407227903e-11
9.919286309760349e-11
7.470387137120844e-11
3.521635075025807e-11
1.2852387800939627e-11
2.8056125050144112e-11
4.0889031825133357e-11
5.728902730895227e-11
8.156419059580054e-11
1.095259088501957e-10
1.236652193137549e-10
9.772274664281676e-11
3.237080964607966e-11
6.967731811446595e-12
2.0376630423127665e-11
3.229765093608686e-11
4.966281015985133e-11
7.812532925818329e-11
1.1570333647886906e-10
1.4303732709993605e-10
1.1952605880960823e-10
3.897713713742722e-11
3.3809165048744733e-12
1.0867595723069307e-11
1.8493096458479727e-11
3.0132630494516394e-11
5.036640624966199e-11
8.097662227172717e-11
1.0358175227915753e-10
9.552811135443012e-11
3.576496957207083e-11
2.76742604526925e-17
3.526367566009103e-17
4.4072818311535755e-17
5.841139204265655e-17
8.164042358815848e-17
1.1373280789372942e-16
1.2414114874959026e-16
1.4395494345176285e-16
8.405277342193873e-17
-3.380872974157248e-12
-1.0867543789785244e-11
-1.849303468606095e-11
-3.013255365168742e-11
-5.036630381966174e-11
-8.097649382087478e-11
-1.0358159360616959e-10
-9.552797504311199e-11
-3.5764822581361294e-11
-6.9676913707055615e-12
-2.0376583910854465e-11
-3.22976015506779e-11
-4.9662754377649554e-11
-7.812527274414505e-11
-1.1570328370532831e-10
-1.4303727985582639e-10
-1.1952601026445596e-10
-3.897710019323819e-11
-1.2852359855628631e-11
-2.805610352873099e-11
-4.0889009761619147e-11
-5.728900768489295e-11
-8.156418143429219e-11
-1.0952591538251379e-10
-1.2366524191937019e-10
-9.772277513022884e-11
-3.2370819024428454e-11
-2.2954000462524493e-11
-3.989827012610553e-11
-5.087080800006416e-11
-6.508011797111586e-11
-8.263449082987484e-11
-9.803820881742857e-11
-9.919288594716427e-11
-7.470390243360069e-11
-3.521638121633912e-11
-1.942028156803931e-09
-2.1565817619651102e-09
-2.4976002248907996e-09
-2.84672224912263e-09
-3.118787330279836e-09
-3.1950108867991652e-09
-2.968381595348313e-09
-2.491415051694701e-09
-2.1890784975464508e-09
-3.7536351098774526e-09
-4.080784354556404e-09
-4.646921822353987e-09
-5.3251427217717185e-09
-5.992732943021183e-09
-6.455378891536464e-09
-6.491791100911521e-09
-6.053942438826419e-09
-5.62418493453066e-09
-5.126642858957519e-09
-5.609678978036074e-09
-6.3853833241701765e-09
-7.410312666711761e-09
-8.58941203503872e-09
-9.688660027230454e-09
-1.0312905138507933e-08
-1.0151930898629358e-08
-9.55143224413849e-09
-5.983672942278927e-09
-6.58739597242451e-09
-7.538507311959227e-09
-8.85458321809164e-09
-1.05008964279812e-08
-1.2229041577505647e-08
-1.3461624863702216e-08
-1.3560470225773384e-08
-1.287470012361052e-08
-6.275056982547617e-09
-6.924619837874336e-09
-7.94447992867554e-09
-9.377370036132027e-09
-1.1218073221817403e-08
-1.3229033181513979e-08
-1.4682346394017873e-08
-1.5000497306479673e-08
-1.4135409003349607e-08
-5.9836731260240906e-09
-6.58739618457577e-09
-7.538507563412816e-09
-8.854583536061032e-09
-1.0500896853123977e-08
-1.2229042156930393e-08
-1.3461625579899066e-08
-1.356047103445268e-08
-1.287470088469334e-08
-5.126643269924352e-09
-5.60967944516458e-09
-6.385383867409675e-09
-7.410313331571638e-09
-8.589412882234297e-09
-9.68866110335532e-09
-1.0312906421715414e-08
-1.0151932244015834e-08
-9.55143351436265e-09
-3.753635541444127e-09
-4.08078482930143e-09
-4.646922357489074e-09
-5.325143348982675e-09
-5.9927336905514755e-09
-6.455379767626029e-09
-6.4917920750129626e-09
-6.053943435425056e-09
-5.624185873232901e-09
-1.9420281880018486e-09
-2.1565818044116253e-09
-2.497600278938278e-09
-2.8467223126568773e-09
-3.1187873979882617e-09
-3.195010954155225e-09
-2.9683816473629124e-09
-2.4914150830823538e-09
-2.1890785197725953e-09
-1.446500157799074e-09
-2.110884235879658e-09
-2.5694474209707243e-09
-2.96808356969251e-09
-3.2394366038105468e-09
-3.227635527743673e-09
-2.750333531558423e-09
-1.7930395033853054e-09
-7.255877786625786e-10
-2.9582689362115788e-09
-4.012210042881378e-09
-4.771661756176751e-09
-5.550323854111496e-09
-6.2684436586454405e-09
-6.672776106783542e-09
-6.3739993590020746e-09
-5.15691395884749e-09
-3.239466708174644e-09
-4.091001327277818e-09
-5.532449191424007e-09
-6.563762002128291e-09
-7.75433227820214e-09
-9.089304710307219e-09
-1.0250012599159839e-08
-1.0572195411679601e-08
-9.278478507864993e-09
-6.252098609280891e-09
-4.794081609612536e-09
-6.507486441229742e-09
-7.763797950073679e-09
-9.31074014428831e-09
-1.1238175678449764e-08
-1.3228260681259025e-08
-1.4237002877125465e-08
-1.2920165111802951e-08
-8.773870533996782e-09
-5.0328642928546e-09
-6.8443741977177244e-09
-8.189326527834311e-09
-9.87909378812686e-09
-1.2073885119199862e-08
-1.44201640102094e-08
-1.583927650997618e-08
-1.4208880529657146e-08
-1.023552641428449e-08
-4.794081471891755e-09
-6.50748625298514e-09
-7.763797711305255e-09
-9.310739828595743e-09
-1.1238175228045076e-08
-1.3228260044330906e-08
-1.42370020487679e-08
-1.2920164331068967e-08
-8.77386978158758e-09
-4.0910009776768275e-09
-5.532448717031346e-09
-6.563761427202984e-09
-7.754331550485641e-09
-9.089303740068247e-09
-1.0250011305896383e-08
-1.0572193854900807e-08
-9.278476970899993e-09
-6.252097522476633e-09
-2.9582685368457085e-09
-4.0122095197538295e-09
-4.771661149023535e-09
-5.550323130813122e-09
-6.268442779520109e-09
-6.672775061016337e-09
-6.373998207552262e-09
-5.1569128705795594e-09
-3.239465924784364e-09
-1.4465001533809502e-09
-2.110884196279174e-09
-2.569447365947464e-09
-2.968083508841663e-09
-3.2394365493835977e-09
-3.227635499364681e-09
-2.750333548986973e-09
-1.793039583995737e-09
-7.255878999034866e-10
-1.0848228444834598e-09
-1.7739180363345042e-09
-2.2841652095966208e-09
-2.7502823540988004e-09
-3.176881298012999e-09
-3.3869452807958837e-09
-3.062447743583819e-09
-1.985652245710054e-09
-5.384582691563607e-10
-2.262800389933855e-09
-3.3864871649101624e-09
-4.2580212882632924e-09
-5.18029460156561e-09
-6.230785594370019e-09
-7.153808855343033e-09
-7.339447331762864e-09
-5.957603779039146e-09
-3.182655776239312e-09
-3.166377205164649e-09
-4.686551293120152e-09
-5.874965101034034e-09
-7.2995727561298495e-09
-9.225207192053195e-09
-1.1496117108953014e-08
-1.3132719063184981e-08
-1.2415504064313939e-08
-8.083431505794404e-09
-3.7283394239214125e-09
-5.52605034884082e-09
-6.969045601709699e-09
-8.83016030318862e-09
-1.1631421971021179e-08
-1.54936301395369e-08
-1.9397982556538618e-08
-1.9774950228148517e-08
-1.3877359675661788e-08
-3.919495178720742e-09
-5.81711979630241e-09
-7.35870900198392e-09
-9.402013583751246e-09
-1.257039042808542e-08
-1.7317429096608597e-08
-2.237803448291607e-08
-2.4216478072919766e-08
-1.5238129803831738e-08
-3.728339311923328e-09
-5.526050187918113e-09
-6.969045384354268e-09
-8.830159988566701e-09
-1.1631421468385052e-08
-1.5493629248661527e-08
-1.9397981130365527e-08
-1.9774948284838095e-08
-1.3877358473945653e-08
-3.1663769249525974e-09
-4.686550886869598e-09
-5.874964578448587e-09
-7.299572046275582e-09
-9.225206131838995e-09
-1.1496115451180788e-08
-1.3132716621941159e-08
-1.2415501285951004e-08
-8.083429384661274e-09
-2.2628000759218007e-09
-3.3864867188422836e-09
-4.258020741256191e-09
-5.18029391405946e-09
-6.230784685036105e-09
-7.153807641185677e-09
-7.3394458318640264e-09
-5.9576022538241876e-09
-3.182654726243718e-09
-1.084822849091319e-09
-1.773918005841318e-09
-2.2841651635180284e-09
-2.7502823013794697e-09
-3.1768812467573414e-09
-3.386945248052978e-09
-3.062447751200339e-09
-1.9856523090003558e-09
-5.384583824012776e-10
-7.140313178775112e-10
-1.2896080828651152e-09
-1.7637877522988336e-09
-2.2374973866973527e-09
-2.7324878296050266e-09
-3.0700471358771067e-09
-2.8523889253302204e-09
-1.7236074284547815e-09
-2.5743907407314165e-10
-1.519593813032339e-09
-2.464603364682417e-09
-3.286480001985989e-09
-4.225924298985177e-09
-5.421184593763914e-09
-6.704436248183908e-09
-7.298635490145082e-09
-5.969494891808072e-09
-2.4333628680561683e-09
-2.1412633210320716e-09
-3.419080527936589e-09
-4.547272362310801e-09
-6.0011356564827366e-09
-8.202705654782884e-09
-1.1302096434155401e-08
-1.4569266553563919e-08
-1.4861687496059016e-08
-9.29833736660376e-09
-2.529806815502458e-09
-4.039498069862649e-09
-5.4094646886881925e-09
-7.314877741842877e-09
-1.0513814920862534e-08
-1.592434440304065e-08
-2.3869745540883625e-08
-3.1220153557249804e-08
-2.801989826106525e-08
-2.6621266353984117e-09
-4.2553231614393325e-09
-5.719671102236558e-09
-7.80810725087679e-09
-1.1469801406731512e-08
-1.7931272857491486e-08
-2.9859993378223456e-08
-4.2743921853993024e-08
-4.770202521570501e-08
-2.5298067374670066e-09
-4.039497949407788e-09
-5.40946451642202e-09
-7.314877471171805e-09
-1.0513814423647417e-08
-1.5924343398351156e-08
-2.3869743072683827e-08
-3.122014893067453e-08
-2.801989125428674e-08
-2.141263126661727e-09
-3.419080226962066e-09
-4.547271953281979e-09
-6.0011350550757915e-09
-8.202704655853213e-09
-1.1302094591811307e-08
-1.4569263154996684e-08
-1.4861682061197471e-08
-9.298331854370838e-09
-1.5195935998239818e-09
-2.464603039259135e-09
-3.2864795774124184e-09
-4.225923728627071e-09
-5.421183770054866e-09
-6.7044350178854925e-09
-7.29863374476932e-09
-5.969492922666534e-09
-2.4333615477418677e-09
-7.140313234340473e-10
-1.289608061343702e-09
-1.7637877152191193e-09
-2.2374973412421766e-09
-2.732487784217613e-09
-3.070047108609422e-09
-2.852388931049387e-09
-1.7236074762409922e-09
-2.574391028044992e-10
-3.6193300109342227e-10
-6.820291211678299e-10
-9.737363396882578e-10
-1.2846779347513559e-09
-1.62962891366524e-09
-1.9082161884827068e-09
-1.7448892046143753e-09
-1.0668944277840951e-09
-5.994202299775507e-11
-7.748467445738063e-10
-1.3035673483577717e-09
-1.8125614763584786e-09
-2.427632214840208e-09
-3.2703553264166064e-09
-4.259151068031837e-09
-4.992465606098702e-09
-3.649077115372131e-09
-1.5508608863269713e-09
-1.0947362140065198e-09
-1.810281029815614e-09
-2.5117596192373746e-09
-3.466479327191149e-09
-5.010163312571753e-09
-7.512379577326268e-09
-1.0655035176512567e-08
-1.302096121758565e-08
-4.6633690130092964e-09
-1.2950260702129443e-09
-2.141204240131635e-09
-2.9942540273933914e-09
-4.246362687854426e-09
-6.508062405202438e-09
-1.0803750291821712e-08
-1.9381758348404428e-08
-3.135932863536882e-08
-3.780680902726124e-08
-1.363357046615249e-09
-2.2567464026391993e-09
-3.1685724846317563e-09
-4.545981409072395e-09
-7.1280152714401626e-09
-1.2490504466863123e-08
-2.3988892456985335e-08
-6.04928004859206e-08
-1.0627268101757895e-07
-1.295026029094577e-09
-2.141204175757131e-09
-2.9942539300862464e-09
-4.2463625237875325e-09
-6.508062078451008e-09
-1.0803749494716275e-08
-1.938175628074957e-08
-3.13593195502154e-08
-3.7806787524780994e-08
-1.0947361136907138e-09
-1.8102808691504045e-09
-2.511759391622681e-09
-3.466478973646373e-09
-5.010162676687179e-09
-7.512378283696893e-09
-1.0655032197870386e-08
-1.3020955370645964e-08
-4.663360475608367e-09
-7.748466347983363e-10
-1.3035671761322566e-09
-1.812561242726463e-09
-2.4276318828710553e-09
-3.2703548168144803e-09
-4.2591502365436386e-09
-4.992464272448715e-09
-3.649075315379684e-09
-1.5508598920729215e-09
-3.6193300616206743e-10
-6.820291111931699e-10
-9.737363186818407e-10
-1.2846779093132624e-09
-1.6296288867363685e-09
-1.9082161717182307e-09
-1.7448892270844653e-09
-1.06689436158e-09
-5.994197658034956e-11
3.4502023633919965e-16
4.659900937342698e-16
6.040361353459867e-16
7.88079454125401e-16
1.040766322950304e-15
1.3374853525052743e-15
1.3576244078591926e-15
1.3454000283644185e-15
7.45321230948004e-16
6.919107214259368e-16
8.873110579621368e-16
1.1243583104489363e-15
1.4842456690783434e-15
2.071300487897776e-15
2.97144578907671e-15
4.1250233480741305e-15
3.3182820640548227e-15
3.9824101048108185e-15
9.645875678060412e-16
1.2268696258574407e-15
1.5520625149673117e-15
2.0988121180245956e-15
3.115644678017282e-15
5.0330426675307405e-15
8.735742164367455e-15
1.4763608087789426e-14
5.243825122389079e-15
1.1361761141290283e-15
1.4470710870892467e-15
1.8415851526024096e-15
2.5458693313218372e-15
3.956904248703097e-15
7.0098278310420925e-15
1.4167174920177994e-14
3.544709556262127e-14
7.50395026064693e-14
1.1951296072579276e-15
1.5232498422335095e-15
1.9444081761355037e-15
2.7111559525172524e-15
4.304147099495892e-15
7.867621484858311e-15
1.7505799327494076e-14
4.916299843355648e-14
2.463821925343182e-13
1.1367995303782075e-15
1.4475047679582409e-15
1.841300549532132e-15
2.5463707748266118e-15
3.957107536610438e-15
7.009489017863191e-15
1.4167215577759462e-14
3.544781384656054e-14
7.503988207722967e-14
9.646688829689776e-16
1.2273710693622153e-15
1.5522658028746528e-15
2.099083168567717e-15
3.1157259931802184e-15
5.0336254261984514e-15
8.735471113824334e-15
1.476386558580539e-14
5.243432099101553e-15
6.912602001224455e-16
8.866469841314895e-16
1.1238839719984739e-15
1.4843134317141238e-15
2.071707063712458e-15
2.971283158750837e-15
4.125307951144408e-15
3.3179839084573892e-15
3.982382999756506e-15
3.448576060133268e-16
4.665864049291368e-16
6.039548201830502e-16
7.876051156749386e-16
1.041782762487009e-15
1.3381223212816096e-15
1.3572178320445105e-15
1.345698183961852e-15
7.448333399703855e-16
3.6193354590501395e-10
6.820298260076622e-10
9.737372090015597e-10
1.284679013031074e-09
1.6296302605153887e-09
1.908217786393421e-09
1.7448909935073023e-09
1.0668958478856532e-09
5.994331990684127e-11
7.748478304835972e-10
1.3035686884045519e-09
1.8125631015097725e-09
2.427634250592417e-09
3.270357982969427e-09
4.259154523329951e-09
4.992469637067512e-09
3.649082085707255e-09
1.5508636716016948e-09
1.0947377241917258e-09
1.8102828815787144e-09
2.5117618616791754e-09
3.466482196315358e-09
5.010167257603988e-09
7.512385260293928e-09
1.0655042852501318e-08
1.3020968633433642e-08
4.663383840544655e-09
1.2950278476268808e-09
2.1412064219529818e-09
2.9942566833227957e-09
4.246366151026558e-09
6.508067376025453e-09
1.0803757960952884e-08
1.9381770701397405e-08
3.135934163251341e-08
3.7806806943397556e-08
1.3633589148311174e-09
2.2567486978680934e-09
3.168575286698061e-09
4.545985093760583e-09
7.128020628510202e-09
1.249051305149461e-08
2.3988906335261034e-08
6.04928240654476e-08
1.0627258488169757e-07
1.2950278057224669e-09
2.141206356860194e-09
2.9942565861918336e-09
4.246365987705053e-09
6.508067049477311e-09
1.0803757163942314e-08
1.9381768633403734e-08
3.135933254692631e-08
3.780678544053784e-08
1.0947376243909158e-09
1.8102827220654698e-09
2.5117616329802797e-09
3.4664818425537416e-09
5.0101666210959975e-09
7.512383966800078e-09
1.0655039872788487e-08
1.3020962787036057e-08
4.663375303347013e-09
7.748477217110143e-10
1.3035685165856126e-09
1.8125628672001305e-09
2.427633919951412e-09
3.2703574736383514e-09
4.259153692383853e-09
4.992468303173579e-09
3.649080285010077e-09
1.550862676778439e-09
3.619335489678851e-10
6.820298158161618e-10
9.737371888082942e-10
1.2846789863597005e-09
1.629630233166389e-09
1.908217769032634e-09
1.744891016329758e-09
1.0668957804076205e-09
5.994327315062258e-11
7.140318054432281e-10
1.2896086797455162e-09
1.763788408729039e-09
2.237498101999736e-09
2.7324885672419747e-09
3.0700478455958488e-09
2.8523895780741384e-09
1.7236080688387946e-09
2.5743951509948036e-10
1.5195947814146144e-09
2.4646044972129015e-09
3.2864812343985986e-09
4.225925649060827e-09
5.421186008756169e-09
6.704437529548245e-09
7.298636483355587e-09
5.969495743841902e-09
2.433364275960452e-09
2.141264659127288e-09
3.419082089607846e-09
4.547274060279823e-09
6.0011375356354944e-09
8.202707661478475e-09
1.1302098152575187e-08
1.456926675532039e-08
1.4861685780539471e-08
9.298335149179925e-09
2.529808384614052e-09
4.039499904373383e-09
5.409466693459325e-09
7.314879985233355e-09
1.0513817344962408e-08
1.5924346432694223e-08
2.3869744297750966e-08
3.1220141090767964e-08
2.8019867064096415e-08
2.6621282822201966e-09
4.2553250922949815e-09
5.719673214574098e-09
7.808109621796548e-09
1.1469803994505257e-08
1.7931274901402316e-08
2.985999187068099e-08
4.274389700590882e-08
4.770194617964346e-08
2.529808306714126e-09
4.0394997842302296e-09
5.409466520867891e-09
7.314879714182812e-09
1.0513816847503347e-08
1.5924345427733677e-08
2.3869741829117487e-08
3.122013646388098e-08
2.8019860057128167e-08
2.14126446313064e-09
3.4190817889314783e-09
4.547273650993503e-09
6.001136934757098e-09
8.202706662033808e-09
1.1302096309770307e-08
1.4569263356712498e-08
1.4861680346152264e-08
9.298329636608189e-09
1.5195945670407399e-09
2.4646041723588256e-09
3.286480809960553e-09
4.225925077740492e-09
5.421185184383047e-09
6.704436299100752e-09
7.298634736963385e-09
5.969493774469971e-09
2.4333629546974744e-09
7.140318112708148e-10
1.2896086580343677e-09
1.7637883739261492e-09
2.2374980567885054e-09
2.732488522152717e-09
3.070047818043561e-09
2.8523895834815967e-09
1.7236081143346283e-09
2.574395415269083e-10
1.0848231911299994e-09
1.7739183444376565e-09
2.284165512685338e-09
2.7502826332537547e-09
3.1768814886970562e-09
3.386945317848493e-09
3.062447633347563e-09
1.985652115416058e-09
5.384582966679909e-10
2.2628010355491435e-09
3.3864877459883168e-09
4.258021857550748e-09
5.180295125235259e-09
6.230785927233639e-09
7.15380880540197e-09
7.339446777938842e-09
5.957602999023446e-09
3.1826552835236346e-09
3.1663780777034523e-09
4.6865520873524535e-09
5.8749658802094776e-09
7.2995734625011174e-09
9.22520757809693e-09
1.1496116690830446e-08
1.3132717349102004e-08
1.2415500835343029e-08
8.083427748613748e-09
3.728340437596234e-09
5.526051275969203e-09
6.969046517453959e-09
8.830161123008092e-09
1.1631422345978948e-08
1.5493629242630653e-08
1.9397978799859405e-08
1.9774942525488393e-08
1.387735011816214e-08
3.919496240886505e-09
5.817120769509385e-09
7.358709964511503e-09
9.402014442073448e-09
1.257039078760686e-08
1.7317427965324946e-08
2.2378029571669964e-08
2.421646566272157e-08
1.523812088492717e-08
3.728340325950515e-09
5.526051113501507e-09
6.969046298634855e-09
8.830160808074466e-09
1.163142184312598e-08
1.5493628351511335e-08
1.939797737436394e-08
1.9774940581459687e-08
1.3877348916012324e-08
3.1663777982774474e-09
4.6865516796653316e-09
5.874965357258112e-09
7.299572752782375e-09
9.225206517787863e-09
1.1496115032787169e-08
1.3132714906679112e-08
1.2415498056194047e-08
8.083425626504836e-09
2.2628007229736572e-09
3.386487299432547e-09
4.2580213107333825e-09
5.18029443542518e-09
6.230785016015923e-09
7.153807591353035e-09
7.339445276833829e-09
5.9576014729953355e-09
3.1826542310072706e-09
1.084823192946038e-09
1.7739183139715755e-09
2.284165466796481e-09
2.7502825808867898e-09
3.1768814378750794e-09
3.3869452835877042e-09
3.0624476410453984e-09
1.9856521790858304e-09
5.38458411024215e-10
1.446500244155777e-09
2.1108842893308253e-09
2.5694474900344027e-09
2.968083642469581e-09
3.2394366569906633e-09
3.2276355360649246e-09
2.7503334750443847e-09
1.793039389381447e-09
7.255876856922423e-10
2.9582690939087847e-09
4.012210147317152e-09
4.771661889072833e-09
5.550323991940697e-09
6.26844375801257e-09
6.672776109087472e-09
6.373999204693e-09
5.156913633749469e-09
3.239466384892661e-09
4.09100153782988e-09
5.532449336110787e-09
6.563762185629509e-09
7.754332467558049e-09
9.089304843636981e-09
1.0250012564018136e-08
1.0572195049447656e-08
9.278477699944639e-09
6.252097566847607e-09
4.794081852040142e-09
6.507486611151327e-09
7.763798167130954e-09
9.310740368541977e-09
1.123817583132227e-08
1.3228260595132715e-08
1.4237002233000954e-08
1.2920163494634096e-08
8.773868157235885e-09
5.032864545636336e-09
6.8443743758792464e-09
8.189326756573865e-09
9.879094025512926e-09
1.2073885274403403e-08
1.4420163916656304e-08
1.5839275690454862e-08
1.4208878296200671e-08
1.0235523273459217e-08
4.794081712991213e-09
6.507486423665667e-09
7.763797929636468e-09
9.310740052537701e-09
1.1238175380809162e-08
1.322825995881446e-08
1.423700140400642e-08
1.292016271287012e-08
8.773867405694044e-09
4.091001188879411e-09
5.532448862178912e-09
6.563761610134996e-09
7.754331739597605e-09
9.089303872056309e-09
1.0250011269819555e-08
1.0572193493671748e-08
9.278476163901211e-09
6.2520964792030925e-09
2.9582686950037004e-09
4.012209625490646e-09
4.771661282082246e-09
5.55032326712444e-09
6.2684428791040785e-09
6.67277506280527e-09
6.373998053297398e-09
5.156912546863896e-09
3.2394656006350196e-09
1.4465002404965947e-09
2.110884251194014e-09
2.5694474371795468e-09
2.968083581754259e-09
3.2394366018318778e-09
3.2276355064662053e-09
2.7503334928253003e-09
1.7930394689618864e-09
7.255878065807846e-10
SCALARS strain12 float
LOOKUP_TABLE default
-2.8600871230164595e-10
2.8600902602274434e-10
-2.860093397328313e-10
2.86009026027403e-10
8.306579441602987e-10
-8.306583332080371e-10
8.306587221926715e-10
-8.306583331601797e-10
-1.3573217988784657e-09
-1.6349386796592513e-09
-1.3535901725119132e-09
-7.517099464128966e-10
1.882225793411671e-16
7.517102126188348e-10
1.3535903665464091e-09
1.634938706571182e-09
1.357321754039506e-09
1.3573222042332824e-09
1.6349389708611317e-09
1.3535903736794853e-09
7.517100495752627e-10
-1.8821408006037311e-16
-7.517103158051296e-10
-1.3535905677487096e-09
-1.6349389977768742e-09
-1.3573221594095694e-09
-1.3573221594112634e-09
-1.6349389978353194e-09
-1.353590567738757e-09
-7.517103157971886e-10
-1.8820309758338025e-16
7.517100496009913e-10
1.3535903737322131e-09
1.6349389708751078e-09
1.3573222042400586e-09
1.3573217540344239e-09
1.634938706580923e-09
1.3535903665688555e-09
7.517102126428693e-10
1.8821755504612645e-16
-7.517099463897091e-10
-1.353590172478879e-09
-1.6349386796592513e-09
-1.3573217989068413e-09
2.5884403281407534e-09
3.66609518326405e-09
3.5225568578268224e-09
2.1224430670813463e-09
-5.781372559507392e-16
-2.122443819717554e-09
-3.5225572364340326e-09
-3.6660950927009815e-09
-2.588440248193125e-09
-2.588440977341109e-09
-3.6660958281326793e-09
-3.522557404708351e-09
-2.1224433819571624e-09
5.780943426477405e-16
2.1224441345532417e-09
3.5225577832425045e-09
3.6660957374819427e-09
2.588440897254144e-09
2.5884408972850606e-09
3.66609573749126e-09
3.5225577832513983e-09
2.1224441345804526e-09
5.781393735331073e-16
-2.122443381925187e-09
-3.5225574047013628e-09
-3.6660958281199738e-09
-2.5884409772822402e-09
-2.588440248152044e-09
-3.6660950926527006e-09
-3.5225572364132803e-09
-2.1224438196801785e-09
-5.781188941955017e-16
2.122443067092146e-09
3.522556857866421e-09
3.666095183307037e-09
2.588440328203434e-09
4.6432137344570564e-11
6.70265365138831e-11
5.4619576295413056e-11
2.919978419595401e-11
-1.1842851283751959e-11
-6.968072793453358e-11
-1.2594964983204124e-10
-1.2692531842123557e-10
2.7211921634661323e-11
-4.643190510677115e-11
-6.702633081955516e-11
-5.461933525567077e-11
-2.919947504502189e-11
1.1843235575400348e-11
6.968116113979358e-11
1.259500540395518e-10
1.2692555174662528e-10
-2.721203205472336e-11
4.643167284948998e-11
6.702612510743952e-11
5.4619094144354205e-11
2.919916583140933e-11
-1.1843619876789616e-11
-6.968159433658324e-11
-1.2595045828517885e-10
-1.2692578512918973e-10
2.7212142366788697e-11
-4.6431905084748295e-11
-6.702633078779142e-11
-5.4619335253129674e-11
-2.919947500309376e-11
1.1843235572012216e-11
6.968116114487578e-11
1.2595005405606895e-10
1.2692555177161276e-10
-2.7212032036088635e-11
-2.202927924202185e-09
-2.115397814170822e-09
-1.6794744067265835e-09
-9.165933237355823e-10
2.8784175534519216e-16
9.165937406666924e-10
1.679474746698927e-09
2.115397914616224e-09
2.2029279457693377e-09
-2.115397814182257e-09
-1.8836381645031977e-09
-1.4467270053486842e-09
-7.840712750372973e-10
2.778606632018823e-16
7.840716858009488e-10
1.4467273517510665e-09
1.8836383372106746e-09
2.1153978729735433e-09
-1.6794744067611e-09
-1.446727005338308e-09
-1.0840922747683572e-09
-5.805143617121663e-10
2.160052839993459e-16
5.805146855077687e-10
1.0840925628548505e-09
1.446727162907612e-09
1.679474452084986e-09
-9.165933237311354e-10
-7.840712750523322e-10
-5.805143617208484e-10
-3.085157788950698e-10
1.1724535012841643e-16
3.0851595678374133e-10
5.805145230937539e-10
7.840713646447011e-10
9.165933486843025e-10
2.8782518360880027e-16
2.7783231241356766e-16
2.159967896816356e-16
1.1725593555871527e-16
2.2482769049191292e-21
-1.172596413278595e-16
-2.1598831935216306e-16
-2.778310418641468e-16
-2.878065488839607e-16
9.16593740639905e-10
7.840716857976665e-10
5.80514685499616e-10
3.085159567844825e-10
-1.1725085501539297e-16
-3.085161346549428e-10
-5.805148468087823e-10
-7.840717753387899e-10
-9.165937655727433e-10
1.6794747466949036e-09
1.4467273517205733e-09
1.0840925628321923e-09
5.805145230810484e-10
-2.159802890827764e-16
-5.805148468195819e-10
-1.0840928509055566e-09
-1.4467275093021593e-09
-1.679474791993802e-09
2.1153979146200357e-09
1.8836383372123686e-09
1.4467271629004122e-09
7.840713646166431e-10
-2.778392880276733e-16
-7.840717753620833e-10
-1.446727509282254e-09
-1.883638509894858e-09
-2.1153979733986165e-09
2.2029279457485854e-09
2.1153978729477088e-09
1.6794744520746099e-09
9.165933486937258e-10
-2.87828025801385e-16
-9.165937655675552e-10
-1.6794747920181543e-09
-2.115397973413863e-09
-2.202927967283551e-09
4.579972197155928e-09
5.9264047122719965e-09
5.862846771646937e-09
3.68862043763405e-09
-1.3586722761232717e-15
-3.6886220342579095e-09
-5.862847453419309e-09
-5.926404395966812e-09
-4.579972141649012e-09
5.926404712253785e-09
8.610366961604026e-09
1.0257126323647733e-08
6.803129214677539e-09
-2.160342399529967e-15
-6.8031329484528744e-09
-1.0257126640997944e-08
-8.610365944320421e-09
-5.9264045885365766e-09
5.862846771654137e-09
1.0257126323656627e-08
1.689699267977898e-08
1.7048023822789738e-08
-8.083160466466846e-15
-1.7048029011273645e-08
-1.6896989450572382e-08
-1.0257123885533698e-08
-5.8628464860990015e-09
3.6886204376588257e-09
6.803129214735878e-09
1.7048023822874547e-08
2.3763850140020726e-08
-1.0965551519303148e-14
-2.3763857306685177e-08
-1.7048014352363065e-08
-6.803127343023458e-09
-3.688620156906367e-09
-1.3586535528901066e-15
-2.1603105216435204e-15
-8.083060715102417e-15
-1.0965485776642423e-14
-6.538862742231684e-21
1.0965547398289336e-14
8.083137371584143e-15
2.1603316974672018e-15
1.3586641408019472e-15
-3.6886220342659563e-09
-6.8031329484266164e-09
-1.704802901122473e-08
-2.3763857306712282e-08
1.0965465041706008e-14
2.376386447333597e-08
1.7048019540816373e-08
6.803131076780688e-09
3.6886217535139213e-09
-5.862847453450438e-09
-1.0257126641005991e-08
-1.689698945057683e-08
-1.704801435245698e-08
8.083034288749797e-15
1.7048019540767986e-08
1.6896986221353503e-08
1.025712420288391e-08
5.86284716787328e-09
-5.926404396005988e-09
-8.610365944333762e-09
-1.0257123885550215e-08
-6.803127343090373e-09
2.1602857099474566e-15
6.803131076730078e-09
1.0257124202863792e-08
8.610364927038299e-09
5.926404272245157e-09
-4.579972141658329e-09
-5.926404588556905e-09
-5.862846486128436e-09
-3.688620156951048e-09
1.3586152002474152e-15
3.6886217534953925e-09
5.862847167861633e-09
5.926404272243039e-09
4.579972086084074e-09
-4.831327444907623e-10
-3.816049599269833e-10
-5.016492770727198e-10
-7.195736145973743e-10
-9.83277384741716e-10
-1.2210365915357883e-09
-1.275402617059074e-09
-8.732045237387448e-10
3.0690138941510145e-10
-7.184910086152792e-10
-5.251346502715837e-10
-6.986574548562146e-10
-1.047701518802384e-09
-1.5049938764975313e-09
-1.9683750961207614e-09
-2.175179885465392e-09
-1.610931277677373e-09
3.440155814558461e-10
-6.577385940721237e-10
-4.895010790994996e-10
-6.490409509635268e-10
-1.0083133918531664e-09
-1.5114643230397133e-09
-2.069927094418992e-09
-2.4088406551419283e-09
-1.9301243765137067e-09
1.5370213576963417e-10
-3.8476331246359893e-10
-2.93379540681922e-10
-3.9080530686693495e-10
-6.186908064485027e-10
-9.5380169757662e-10
-1.344841267467404e-09
-1.6397502555876389e-09
-1.3712255700970224e-09
-5.7777719508588085e-11
9.232828531661325e-17
7.062984230679983e-17
9.59341045730748e-17
1.5546019197431801e-16
2.453397050404191e-16
3.643656218215406e-16
4.55138754646995e-16
4.077853777307433e-16
5.067332255301489e-17
3.8476343193590207e-10
2.933796293611894e-10
3.9080542734127807e-10
6.186909989028586e-10
9.538019967359515e-10
1.344841688115824e-09
1.6397507769203243e-09
1.3712259999230445e-09
5.7777722643033506e-11
6.577386704888951e-10
4.895011332291401e-10
6.49041022515788e-10
1.0083134937393715e-09
1.5114644561356943e-09
2.0699272471161627e-09
2.408840785398655e-09
1.9301244455464684e-09
-1.537022269180026e-10
7.184909909343135e-10
5.251346418961219e-10
6.986574411249635e-10
1.0477014853335712e-09
1.50499380802847e-09
1.968374977694544e-09
2.175179719433805e-09
1.6109311159216087e-09
-3.440156118435766e-10
4.831327285106387e-10
3.8160494515049353e-10
5.016492567346117e-10
7.195735869586892e-10
9.832773494670288e-10
1.2210365497660525e-09
1.2754025742123358e-09
8.732044933497438e-10
-3.0690137896186785e-10
4.831329479963571e-10
3.8160514230164717e-10
5.016495035231666e-10
7.195739240765317e-10
9.832777919396763e-10
1.2210370782964004e-09
1.2754031037773344e-09
8.732048364357804e-10
-3.06901504733555e-10
7.184911296753456e-10
5.251347525677528e-10
6.986575971975603e-10
1.0477017338191566e-09
1.5049941897548791e-09
1.9683755145347086e-09
2.175180356883696e-09
1.6109316359987795e-09
-3.4401563293152064e-10
6.577386693407419e-10
4.895011408456604e-10
6.490410457545604e-10
1.0083135521369993e-09
1.5114645838712274e-09
2.0699274840928996e-09
2.4088411326643756e-09
1.9301247490603963e-09
-1.5370217924868238e-10
3.847633504698614e-10
2.933795711222744e-10
3.9080535692202933e-10
6.186908972447172e-10
9.538018569955263e-10
1.34484152592352e-09
1.6397505855762168e-09
1.3712257859287466e-09
5.777762178131476e-11
-9.232126917065757e-17
-7.062506864748479e-17
-9.593713288129736e-17
-1.5543866708041816e-16
-2.453201678615312e-16
-3.643887117411594e-16
-4.551488235030013e-16
-4.077969098692532e-16
-5.069766730562294e-17
-3.8476346993390597e-10
-2.933796597679781e-10
-3.9080547738059646e-10
-6.186910897270252e-10
-9.538021561698926e-10
-1.344841946621915e-09
-1.6397511069508303e-09
-1.371226215760486e-09
-5.7777624957582435e-11
-6.577387457598427e-10
-4.895011949553956e-10
-6.49041117303857e-10
-1.0083136540431097e-09
-1.511464717008713e-09
-2.0699276368254338e-09
-2.4088412629278785e-09
-1.9301248181073457e-09
1.5370227034982872e-10
-7.184911120236025e-10
-5.251347441897499e-10
-6.98657583449792e-10
-1.0477017003715196e-09
-1.5049941213218168e-09
-1.9683753961211966e-09
-2.175180190862274e-09
-1.6109314742663086e-09
3.440156632514885e-10
-4.831329320357153e-10
-3.8160512757513235e-10
-5.01649483196917e-10
-7.195738964641046e-10
-9.832777566497426e-10
-1.2210370365486875e-09
-1.275403060974642e-09
-8.732048061170831e-10
3.0690149423500516e-10
-4.83132932056044e-10
-3.8160512753701586e-10
-5.016494832032697e-10
-7.195738964378466e-10
-9.83277756672189e-10
-1.2210370365626636e-09
-1.2754030609788772e-09
-8.73204806103954e-10
3.0690149422441725e-10
-7.184911120269906e-10
-5.251347442033024e-10
-6.986575834298867e-10
-1.0477017003655904e-09
-1.5049941213019115e-09
-1.9683753960940916e-09
-2.175180190855921e-09
-1.6109314742529678e-09
3.440156632478886e-10
-6.577387457524311e-10
-4.895011949625954e-10
-6.490411173055511e-10
-1.008313654017487e-09
-1.5114647170099836e-09
-2.069927636797905e-09
-2.4088412629338078e-09
-1.930124818106287e-09
1.5370227035935784e-10
-3.847634699592111e-10
-2.9337965976882516e-10
-3.9080547739076086e-10
-6.186910897022495e-10
-9.538021561602576e-10
-1.3448419466311265e-09
-1.6397511069692533e-09
-1.3712262156911353e-09
-5.777762495345315e-11
-9.233506158019128e-17
-7.064085373511414e-17
-9.590699951876266e-17
-1.5545341571073998e-16
-2.453388580074718e-16
-3.6437748028280217e-16
-4.55152307174151e-16
-4.078150238838972e-16
-5.0712709585062216e-17
3.8476335047759057e-10
2.933795711107336e-10
3.9080535692149993e-10
6.186908972919392e-10
9.538018570026202e-10
1.3448415259530603e-09
1.6397505855696523e-09
1.3712257859193233e-09
5.777762179444377e-11
6.577386693598002e-10
4.895011408566718e-10
6.490410457380433e-10
1.008313552160081e-09
1.5114645838792742e-09
2.0699274841193694e-09
2.4088411326889396e-09
1.9301247490828426e-09
-1.5370217920336612e-10
7.184911296838159e-10
5.251347525825758e-10
6.986575972331357e-10
1.0477017338572731e-09
1.504994189776055e-09
1.968375514549108e-09
2.1751803568972487e-09
1.6109316360286374e-09
-3.4401563291817987e-10
4.831329480293914e-10
3.816051423279052e-10
5.01649503507073e-10
7.195739240905077e-10
9.832777919633932e-10
1.2210370783065648e-09
1.2754031038103687e-09
8.732048364484859e-10
-3.069015047026383e-10
4.831327285165679e-10
3.816049451962333e-10
5.016492567308001e-10
7.19573586978171e-10
9.832773494877811e-10
1.2210365497677466e-09
1.275402574243676e-09
8.732044933730372e-10
-3.0690137894111554e-10
7.184909909643831e-10
5.251346419062863e-10
6.986574411317397e-10
1.0477014853373829e-09
1.5049938080737863e-09
1.968374977709367e-09
2.1751797194545574e-09
1.610931115930926e-09
-3.440156118128717e-10
6.577386704990595e-10
4.895011332424809e-10
6.490410225276465e-10
1.0083134937472066e-09
1.511464456159623e-09
2.0699272471407266e-09
2.408840785434654e-09
1.9301244455490095e-09
-1.5370222690106193e-10
3.8476343194828993e-10
2.933796293652128e-10
3.908054273477367e-10
6.186909989070938e-10
9.538019967596684e-10
1.3448416881553169e-09
1.639750776965217e-09
1.3712259999029275e-09
5.777772265309202e-11
9.234646012903226e-17
7.065359231654746e-17
9.595436139909561e-17
1.55453298251093e-16
2.4535039055957204e-16
3.643989555458653e-16
4.551674487152638e-16
4.0781544822755144e-16
5.0693360176173375e-17
-3.847633124499405e-10
-2.93379540694204e-10
-3.908053068519001e-10
-6.186908064253152e-10
-9.53801697556503e-10
-1.3448412674536396e-09
-1.63975025556911e-09
-1.371225570065894e-09
-5.777771948624759e-11
-6.577385940611123e-10
-4.895010790863706e-10
-6.490409509556918e-10
-1.008313391841308e-09
-1.5114643230253137e-09
-2.0699270944054396e-09
-2.408840655153575e-09
-1.930124376500366e-09
1.537021357689989e-10
-7.184910085763157e-10
-5.251346502419376e-10
-6.98657454866379e-10
-1.0477015187837494e-09
-1.5049938765237893e-09
-1.9683750961182203e-09
-2.175179885455651e-09
-1.610931277689655e-09
3.440155814700339e-10
-4.83132744484833e-10
-3.816049598905609e-10
-5.016492770896605e-10
-7.195736145867864e-10
-9.832773847506098e-10
-1.221036591527318e-09
-1.2754026170531447e-09
-8.732045237340861e-10
3.06901389416372e-10
-7.924713122798315e-10
-6.400672333760158e-10
-8.513551336386143e-10
-1.2274643628974795e-09
-1.6920035351522634e-09
-2.133865225349593e-09
-2.2897825108014778e-09
-1.6555513293477289e-09
3.965509237614357e-10
-8.126089970476202e-10
-6.023907431274483e-10
-8.438771566179616e-10
-1.3112720711288621e-09
-1.9562030973153933e-09
-2.6959802435044163e-09
-3.1909005370153414e-09
-2.64779229972888e-09
1.6675935029516384e-10
-6.897098499078745e-10
-5.136953664883452e-10
-7.289384315509976e-10
-1.191576294136875e-09
-1.8908927319126255e-09
-2.793164350207443e-09
-3.5682285478033145e-09
-3.210556621679824e-09
-3.224926918466439e-10
-3.961818163414964e-10
-2.996730086974412e-10
-4.2955779631938297e-10
-7.218661989176029e-10
-1.1881231731493037e-09
-1.863156280595021e-09
-2.454999570727942e-09
-2.437096575029136e-09
-3.912699933539876e-10
1.0798296461367124e-16
7.971650901683977e-17
1.2933997310922175e-16
2.4181024530784413e-16
4.3231246576121653e-16
7.947112224853122e-16
1.0728537929758557e-15
1.1521294320969975e-15
2.9360832339005555e-16
3.961819666356344e-10
2.9967311731734647e-10
4.2955796915031487e-10
7.21866503017254e-10
1.1881236970203351e-09
1.86315707266453e-09
2.455000716036236e-09
2.437097604714786e-09
3.912701286784065e-10
6.8970997207586e-10
5.136954621698222e-10
7.28938561186002e-10
1.1915764791807514e-09
1.8908929593562184e-09
2.7931645619440804e-09
3.5682286459742213e-09
3.2105566087538893e-09
3.224924848788019e-10
8.126090487272179e-10
6.023907913075294e-10
8.438772049018042e-10
1.3112721019426502e-09
1.9562030722470297e-09
2.6959800939179743e-09
3.190900213904883e-09
2.647791871123856e-09
-1.667595380090999e-10
7.924713427412538e-10
6.400672597763387e-10
8.513551605590155e-10
1.2274643944337867e-09
1.6920035687248377e-09
2.1338652508351202e-09
2.2897825130562795e-09
1.6555513012359759e-09
-3.965509623683504e-10
-8.126089970471967e-10
-6.023907431219426e-10
-8.438771565861978e-10
-1.311272071138603e-09
-1.956203097319205e-09
-2.6959802434938284e-09
-3.1909005370144944e-09
-2.6477922997246447e-09
1.6675935028394065e-10
-7.041896208655169e-10
-4.875532954310007e-10
-7.470344733690122e-10
-1.2808564850054578e-09
-2.1293842636875194e-09
-3.336421790232522e-09
-4.610528884355332e-09
-4.645914208026454e-09
-9.44831436980018e-10
-5.516459805190663e-10
-3.8035929001141474e-10
-6.098821297117658e-10
-1.1263426341972079e-09
-2.037610490233867e-09
-3.568808525328764e-09
-5.6103097099976454e-09
-6.640739491209804e-09
-2.2912875411335754e-09
-3.10939587101087e-10
-2.1820391653017836e-10
-3.5649146066444127e-10
-6.820735421101183e-10
-1.298207790136314e-09
-2.429241252594809e-09
-4.384054051612555e-09
-5.394318463003155e-09
-3.13536377148743e-09
1.0526843991186108e-16
6.86433920539915e-17
1.326914641058253e-16
2.8379091209199646e-16
6.028422424068317e-16
1.2149722010803068e-15
2.7494418417331468e-15
3.093817308155654e-15
1.8718279809106467e-15
3.109397436842329e-10
2.182040183856785e-10
3.5649164386051534e-10
6.820739084374684e-10
1.298208483896532e-09
2.4292425706644724e-09
4.3840558535550835e-09
5.394321128963441e-09
3.1353646082604788e-09
5.516461300684506e-10
3.8035939902963725e-10
6.098822811455866e-10
1.1263428572019247e-09
2.0376107779514774e-09
3.568808715525777e-09
5.610309437826266e-09
6.640738418743061e-09
2.29128660840694e-09
7.041897518057991e-10
4.875534047342498e-10
7.470345884680843e-10
1.280856595173104e-09
2.129384298884703e-09
3.33642158734992e-09
4.610528200243243e-09
4.645913068577828e-09
9.448305673160444e-10
8.126090550473542e-10
6.023907896464978e-10
8.43877207417492e-10
1.3112721322575359e-09
1.9562031624822966e-09
2.695980287946541e-09
3.190900520807366e-09
2.647792202223529e-09
-1.6675945118038775e-10
-6.897098499176153e-10
-5.136953664887687e-10
-7.289384315696323e-10
-1.191576294136028e-09
-1.890892731937613e-09
-2.7931643502137956e-09
-3.5682285478136907e-09
-3.210556621684906e-09
-3.224926918557495e-10
-5.516459805163135e-10
-3.8035929000887364e-10
-6.098821297215066e-10
-1.1263426342086428e-09
-2.037610490245302e-09
-3.568808525329611e-09
-5.610309710022845e-09
-6.64073949121531e-09
-2.291287541127646e-09
-4.045776819928227e-10
-2.731822387266445e-10
-4.77250566819723e-10
-9.724493413805138e-10
-1.9502396133096185e-09
-3.879549094853619e-09
-7.516158104328085e-09
-1.1722937294343435e-08
-8.664344688758337e-09
-2.2099964574981682e-10
-1.5058094431626707e-10
-2.739057858218127e-10
-5.864024159309282e-10
-1.2433894420737362e-09
-2.688423652566494e-09
-5.884419063001397e-09
-1.3185994629639984e-08
-1.072820731122182e-08
8.686927212248381e-17
5.692151320081483e-17
1.1645425444290542e-16
2.7263844948325027e-16
6.125481638203891e-16
1.4789547762078123e-15
3.408819082310327e-15
1.1615527304625097e-14
7.908622325601212e-15
2.2099978151458695e-10
1.5058103428810672e-10
2.739059518127418e-10
5.864027658916959e-10
1.2433901732382937e-09
2.688425091196686e-09
5.884422105444429e-09
1.3185995835654811e-08
1.072821041802411e-08
4.045778268180925e-10
2.731823477567255e-10
4.772507141373873e-10
9.724495641874484e-10
1.9502399027056247e-09
3.879549321388769e-09
7.516157203185403e-09
1.1722933321205376e-08
8.664337824119365e-09
5.516461117145172e-10
3.803593997483447e-10
6.098822444402609e-10
1.1263427450352807e-09
2.0376105198770555e-09
3.5688082157183164e-09
5.610308590386743e-09
6.640737240963442e-09
2.2912860323993368e-09
6.897098969618252e-10
5.136954040017403e-10
7.289384723597744e-10
1.191576343575647e-09
1.8908927816016957e-09
2.7931643691619227e-09
3.568228476535868e-09
3.210556414504459e-09
3.224924893382186e-10
-3.961818163585429e-10
-2.9967300870982906e-10
-4.2955779635961704e-10
-7.218661989343318e-10
-1.1881231731838203e-09
-1.863156280628479e-09
-2.454999570795493e-09
-2.437096575056241e-09
-3.9126999337569284e-10
-3.1093958708467575e-10
-2.1820391652827253e-10
-3.564914606591473e-10
-6.820735421171063e-10
-1.2982077901498666e-09
-2.4292412526303845e-09
-4.384054051637543e-09
-5.394318463053342e-09
-3.1353637714959e-09
-2.2099964575384023e-10
-1.5058094431669058e-10
-2.739057858105895e-10
-5.864024159550686e-10
-1.2433894420798772e-09
-2.6884236525783526e-09
-5.884419063047772e-09
-1.3185994629683818e-08
-1.0728207311292336e-08
-1.18191051396933e-10
-8.078900711686489e-11
-1.5561609597259318e-10
-3.5250261240132353e-10
-7.983524278096713e-10
-1.8645375105985927e-09
-4.794445694775608e-09
-1.3642914644209628e-08
-4.950424163762601e-08
4.9931983435710166e-17
3.395383102421025e-17
7.069699779201056e-17
1.6937273212120766e-16
4.068487081835903e-16
1.0008884543351992e-15
3.0327622824440445e-15
9.682815949560474e-15
7.324084783649082e-14
1.1819113171831454e-10
8.07890628152104e-11
1.5561619792719618e-10
3.5250283329544596e-10
7.983528983373206e-10
1.8645385502159154e-09
4.7944477567341694e-09
1.3642919432099785e-08
4.950419853342418e-08
2.2099973383213773e-10
1.5058101243846833e-10
2.739058772198441e-10
5.864025548583075e-10
1.2433896320676732e-09
2.6884237714323217e-09
5.884418558101786e-09
1.3185987719381511e-08
1.0728198439887257e-08
3.1093966450433417e-10
2.1820398226438199e-10
3.5649152903291737e-10
6.820736077604656e-10
1.2982077960342045e-09
2.429241022450028e-09
4.384052929723346e-09
5.394316381566012e-09
3.1353605947767585e-09
3.9618184212105e-10
2.9967302957436813e-10
4.2955781915793233e-10
7.218662266966837e-10
1.1881232004057652e-09
1.8631562799279827e-09
2.4549995112177364e-09
2.437096330663519e-09
3.9126963125809647e-10
1.0798399528071448e-16
7.96846245129483e-17
1.293283785185756e-16
2.4179487215615983e-16
4.3226717100523435e-16
7.946752996856703e-16
1.072802803081356e-15
1.152076616614886e-15
2.9358585468307677e-16
1.0526629006944906e-16
6.863380916659508e-17
1.326949109674378e-16
2.837606960114005e-16
6.02821490099624e-16
1.214916296905788e-15
2.7493719615149983e-15
3.09374675874839e-15
1.8717886534356035e-15
8.68522173126142e-17
5.692654328611976e-17
1.1645559530267836e-16
2.726366123151098e-16
6.125344169057891e-16
1.4789271492025337e-15
3.4087752524912095e-15
1.1615359841082905e-14
7.908510729837592e-15
4.9936192130666836e-17
3.3930657559349577e-17
7.068744054721313e-17
1.693695317594177e-16
4.068479240163696e-16
1.0008763650905467e-15
3.032731587425874e-15
9.682744904672023e-15
7.324037476858977e-14
1.7569316210626308e-21
1.703992061859237e-20
1.9778715626755445e-20
2.4070955825293105e-20
3.81661134631967e-21
7.597653926299559e-21
6.072332876751776e-21
-1.6857940883830704e-21
-4.30985914558504e-20
-4.990273432925029e-17
-3.391477569158856e-17
-7.065144164695482e-17
-1.693492029686836e-16
-4.0682865401681957e-16
-1.000870435859916e-15
-3.032750645667187e-15
-9.682795938407095e-15
-7.324083809561192e-14
-8.686111115856036e-17
-5.692103757196261e-17
-1.1643018431426073e-16
-2.726319536338999e-16
-6.125200173456857e-16
-1.4789292667849018e-15
-3.4087968518313645e-15
-1.161552035382641e-14
-7.908600515330001e-15
-1.0525104347639848e-16
-6.863931488075223e-17
-1.3265086525418059e-16
-2.8375815491255875e-16
-6.028092081218888e-16
-1.2149260377846815e-15
-2.749419818876518e-15
-3.093801392373488e-15
-1.8718259228852827e-15
-1.0794418473219353e-16
-7.969563594126261e-17
-1.2931652005731403e-16
-2.417677671018477e-16
-4.323010523231245e-16
-7.94710875069455e-16
-1.072839225498088e-15
-1.1521452262836136e-15
-2.9361338325386253e-16
3.961819666433636e-10
2.99673117301994e-10
4.2955796913316245e-10
7.218665029759612e-10
1.1881236970135589e-09
1.8631570726568007e-09
2.4550007160077544e-09
2.437097604673493e-09
3.912701286561719e-10
3.109397436722686e-10
2.1820401838652554e-10
3.564916438435747e-10
6.820739084224335e-10
1.298208483882556e-09
2.4292425706382144e-09
4.384055853525649e-09
5.3943211289281835e-09
3.135364608229774e-09
2.2099978151119882e-10
1.5058103428937727e-10
2.7390595180744784e-10
5.864027658906371e-10
1.2433901732230471e-09
2.688425091171487e-09
5.884422105429606e-09
1.3185995835621565e-08
1.0728210417955076e-08
1.1819113170497377e-10
8.078906281584568e-11
1.5561619792232574e-10
3.525028333013752e-10
7.983528983385911e-10
1.8645385502108333e-09
4.7944477567367105e-09
1.364291943210402e-08
4.950419853335515e-08
-4.9902498582775713e-17
-3.3934168941049864e-17
-7.067655567753254e-17
-1.6933954149912897e-16
-4.0682226156504576e-16
-1.0008719165132124e-15
-3.0327179116488065e-15
-9.682748446245816e-15
-7.324037899961861e-14
-1.1819121198823882e-10
-8.078911843414658e-11
-1.556162998244127e-10
-3.5250305415971047e-10
-7.983533688435822e-10
-1.864539589794063e-09
-4.79444981867812e-09
-1.3642924219977236e-08
-4.9504155429155646e-08
-2.2099986954121544e-10
-1.5058110235270975e-10
-2.739060431472457e-10
-5.864029047532185e-10
-1.2433903631655269e-09
-2.688425210009786e-09
-5.8844216005391e-09
-1.3185988925365845e-08
-1.0728201546714745e-08
-3.1093982101103535e-10
-2.182040840612251e-10
-3.5649171217626364e-10
-6.820739740518169e-10
-1.2982084897266597e-09
-2.429242340484963e-09
-4.384054731624581e-09
-5.394319047510734e-09
-3.1353614315174084e-09
-3.961819923736834e-10
-2.996731380974999e-10
-4.2955799193359533e-10
-7.218665307501715e-10
-1.1881237242846316e-09
-1.8631570719630807e-09
-2.4550006564469387e-09
-2.4370973603362514e-09
-3.91269766589821e-10
6.897099720500255e-10
5.136954621480111e-10
7.289385611965899e-10
1.1915764791699517e-09
1.8908929593185254e-09
2.7931645619288338e-09
3.5682286459538925e-09
3.2105566087388545e-09
3.2249248484513235e-10
5.516461300443102e-10
3.8035939901439066e-10
6.098822811362693e-10
1.1263428572036187e-09
2.037610777933266e-09
3.5688087155054483e-09
5.610309437800855e-09
6.640738418711509e-09
2.291286608383435e-09
4.0457782680072834e-10
2.7318234775630196e-10
4.772507141208701e-10
9.724495641544141e-10
1.9502399027068953e-09
3.879549321380299e-09
7.516157203158298e-09
1.1722933321188012e-08
8.664337824104118e-09
2.209997338403963e-10
1.5058101243190383e-10
2.739058772081974e-10
5.864025548614839e-10
1.2433896320697908e-09
2.6884237714331687e-09
5.884418558140538e-09
1.3185987719397181e-08
1.0728198439948137e-08
-8.6839487002987e-17
-5.69167337512355e-17
-1.1641642168322908e-16
-2.7261993304523827e-16
-6.125176921409838e-16
-1.4789149333992475e-15
-3.4087716550827255e-15
-1.1615368385445043e-14
-7.908510190515833e-15
-2.2099986954185072e-10
-1.50581102371768e-10
-2.739060431544455e-10
-5.864029047756649e-10
-1.2433903631699738e-09
-2.6884252100110565e-09
-5.884421600518772e-09
-1.3185988925335564e-08
-1.0728201546666782e-08
-4.0457797159254035e-10
-2.7318245675038403e-10
-4.772508614317581e-10
-9.72449786905021e-10
-1.9502401920948546e-09
-3.879549547852345e-09
-7.516156301983852e-09
-1.1722929348080023e-08
-8.664330959483357e-09
-5.516462611599282e-10
-3.80359508696687e-10
-6.098823958342712e-10
-1.1263429680192452e-09
-2.037610807527327e-09
-3.5688084058742485e-09
-5.610308318167294e-09
-6.640736168451171e-09
-2.2912850996491964e-09
-6.897100190925413e-10
-5.136954996347247e-10
-7.289386019100756e-10
-1.1915765285689132e-09
-1.8908930089876904e-09
-2.7931645808896663e-09
-3.5682285746828463e-09
-3.210556401555019e-09
-3.2249228235555356e-10
8.126090487068891e-10
6.023907912990591e-10
8.438772048730051e-10
1.3112721019346034e-09
1.956203072229242e-09
2.6959800939196683e-09
3.1909002138900597e-09
2.647791871111574e-09
-1.6675953802413473e-10
7.041897518049521e-10
4.875534047304382e-10
7.470345884469085e-10
1.2808565951455754e-09
2.129384298852939e-09
3.3364215873249324e-09
4.610528200213174e-09
4.645913068568511e-09
9.448305672859747e-10
5.516461116734361e-10
3.803593997513093e-10
6.098822444372963e-10
1.1263427450221517e-09
2.037610519866891e-09
3.568808215703917e-09
5.610308590380178e-09
6.640737240943325e-09
2.29128603236482e-09
3.1093966449120516e-10
2.1820398224934715e-10
3.564915290293175e-10
6.820736077606774e-10
1.298207796019805e-09
2.429241022457016e-09
4.384052929737322e-09
5.394316381586447e-09
3.135360594777288e-09
-1.0524325970683435e-16
-6.861187564547262e-17
-1.326866871377878e-16
-2.83763852532618e-16
-6.028137600967997e-16
-1.2149342740220407e-15
-2.749360912449966e-15
-3.093756894606026e-15
-1.8718052322030306e-15
-3.109398210270231e-10
-2.182040840703307e-10
-3.564917121688521e-10
-6.82073974042923e-10
-1.2982084897234833e-09
-2.4292423404650578e-09
-4.384054731611452e-09
-5.3943190474735705e-09
-3.1353614315251376e-09
-5.516462611817393e-10
-3.803595087051573e-10
-6.098823958181776e-10
-1.1263429679917166e-09
-2.037610807532409e-09
-3.5688084058645076e-09
-5.610308318179788e-09
-6.6407361684515945e-09
-2.2912850996491964e-09
-7.041898827054238e-10
-4.875535139756655e-10
-7.470347035036288e-10
-1.2808567052645172e-09
-2.1293843339874423e-09
-3.3364213844300484e-09
-4.610527516084991e-09
-4.645911929118191e-09
-9.448296976249658e-10
-8.126091066888354e-10
-6.023908377507694e-10
-8.43877255685241e-10
-1.3112721630548068e-09
-1.9562031373821693e-09
-2.695980138334688e-09
-3.190900197658791e-09
-2.6477917735825062e-09
1.667596389070293e-10
7.924713427103371e-10
6.400672597369516e-10
8.513551605424983e-10
1.2274643943990583e-09
1.6920035686943445e-09
2.1338652508164855e-09
2.2897825130448445e-09
1.6555513012224234e-09
-3.965509624039258e-10
8.126090550579421e-10
6.023907896342158e-10
8.438772074094452e-10
1.3112721322651592e-09
1.9562031624674735e-09
2.695980287919436e-09
3.1909005207929664e-09
2.647792202181601e-09
-1.6675945119521083e-10
6.897098969656369e-10
5.136954039928465e-10
7.28938472335634e-10
1.191576343562518e-09
1.890892781586661e-09
2.793164369175475e-09
3.568228476517657e-09
3.2105564144917533e-09
3.2249248931979565e-10
3.961818421098268e-10
2.996730295348752e-10
4.29557819149462e-10
7.218662266975307e-10
1.188123200434776e-09
1.8631562799560407e-09
2.454999511183008e-09
2.43709633068173e-09
3.912696312665668e-10
-1.0795955457515537e-16
-7.968158958728085e-17
-1.293421709281093e-16
-2.417777718513565e-16
-4.3228707793385605e-16
-7.946765334255539e-16
-1.0728175459214136e-15
-1.1520949456964893e-15
-2.9360320521001538e-16
-3.9618199238935353e-10
-2.996731381080878e-10
-4.2955799195985335e-10
-7.218665307512303e-10
-1.1881237242657852e-09
-1.8631570719651983e-09
-2.45500065643868e-09
-2.43709736032524e-09
-3.9126976658368e-10
-6.897100191211286e-10
-5.136954996400187e-10
-7.289386019327337e-10
-1.191576528568278e-09
-1.8908930089970078e-09
-2.7931645808790784e-09
-3.568228574684964e-09
-3.2105564015653953e-09
-3.224922823517419e-10
-8.126091066807886e-10
-6.023908377596632e-10
-8.438772556814294e-10
-1.3112721630514187e-09
-1.9562031374029216e-09
-2.69598013836984e-09
-3.190900197661332e-09
-2.6477917735986e-09
1.6675963888606523e-10
-7.924713731666773e-10
-6.400672860525712e-10
-8.513551874281711e-10
-1.2274644258659088e-09
-1.692003602242355e-09
-2.1338652762876133e-09
-2.2897825152810115e-09
-1.6555512731208348e-09
3.9655100102185193e-10
SCALARS disp_x float
LOOKUP_TABLE default
0.0
0.0
0.0
0.0
0.0
0.0
0.0
0.0
0.0
0.0
0.0
0.0
0.0
0.0
0.0
0.0
0.0
0.0
0.0
0.0
0.0
0.0
0.0
0.0
0.0
0.0
0.0
0.0
0.0
0.0
0.0
0.0
0.0
0.0
0.0
0.0
0.0
0.0
0.0
0.0
0.0
0.0
0.0
0.0
0.0
0.0
0.0
0.0
0.0
0.0
0.0
0.0
0.0
0.0
0.0
0.0
0.0
0.0
0.0
0.0
0.0
0.0
0.0
0.0
0.0
0.0
0.0
0.0
0.0
0.0
0.0
0.0
0.0
0.0
0.0
0.0
0.0
0.0
0.0
0.0
0.0
0.0
0.0
0.0
0.0
0.0
0.0
0.0
0.0
0.0
0.0
0.0
0.0
0.0
0.0
0.0
0.0
0.0
0.0
0.0
0.0
0.0
0.0
0.0
0.0
0.0
0.0
0.0
0.0
0.0
0.0
0.0
0.0
0.0
0.0
0.0
-3.270533920307237e-09
-4.9299880045995705e-09
-6.235072913442319e-09
-7.044290155787641e-09
-7.320258836443627e-09
-7.044290155787643e-09
-6.235072913442321e-09
-4.929988004599572e-09
-3.27053392030724e-09
-3.806204166359705e-09
-6.111652034192706e-09
-7.744275380475816e-09
-8.752164555076632e-09
-9.092908346385883e-09
-8.752164555076629e-09
-7.744275380475818e-09
-6.111652034192714e-09
-3.806204166359708e-09
-3.0825837762022416e-09
-5.059493496046944e-09
-6.460976767165105e-09
-7.306221031387028e-09
-7.591003581683378e-09
-7.306221031387029e-09
-6.460976767165103e-09
-5.0594934960469495e-09
-3.082583776202243e-09
-1.697912239680892e-09
-2.81305345372792e-09
-3.6066250623670355e-09
-4.083607568237213e-09
-4.2431024525935825e-09
-4.0836075682372134e-09
-3.606625062367037e-09
-2.8130534537279245e-09
-1.6979122396808955e-09
1.5121895573235037e-24
3.8666792546067384e-24
-1.1890721305449773e-24
-4.815965813706778e-24
-8.323504913814841e-24
-5.189107289057317e-24
-8.090658418142565e-24
-1.5047949163904672e-24
-2.9726803263624432e-24
1.6979122396808928e-09
2.813053453727921e-09
3.606625062367032e-09
4.083607568237203e-09
4.2431024525935734e-09
4.083607568237203e-09
3.6066250623670285e-09
2.8130534537279187e-09
1.6979122396808955e-09
3.082583776202241e-09
5.059493496046947e-09
6.4609767671651e-09
7.3062210313870246e-09
7.591003581683372e-09
7.306221031387023e-09
6.460976767165102e-09
5.059493496046946e-09
3.0825837762022424e-09
3.806204166359708e-09
6.11165203419271e-09
7.744275380475813e-09
8.75216455507663e-09
9.092908346385885e-09
8.752164555076629e-09
7.744275380475816e-09
6.111652034192709e-09
3.806204166359704e-09
3.2705339203072397e-09
4.92998800459957e-09
6.235072913442317e-09
7.044290155787641e-09
7.320258836443628e-09
7.044290155787642e-09
6.235072913442316e-09
4.929988004599572e-09
3.270533920307238e-09
5.310173968788118e-09
9.598423043899655e-09
1.4496710450658998e-08
1.8213842458144924e-08
1.9926536848534616e-08
1.8213842458144927e-08
1.4496710450659002e-08
9.598423043899658e-09
5.310173968788122e-09
7.607634807673815e-09
1.526183279579236e-08
2.548093649895485e-08
3.4449052442218594e-08
3.623670506312777e-08
3.444905244221861e-08
2.5480936498954854e-08
1.5261832795792368e-08
7.607634807673821e-09
7.2079659426552274e-09
1.5257635529809572e-08
3.068165270048845e-08
5.26156612916806e-08
6.327986387143038e-08
5.2615661291680613e-08
3.068165270048843e-08
1.5257635529809586e-08
7.207965942655234e-09
4.2450480537676445e-09
9.681889718220544e-09
1.998891928566642e-08
5.5166862361542794e-08
8.880481368991302e-08
5.516686236154276e-08
1.99889192856664e-08
9.681889718220547e-09
4.245048053767649e-09
3.1470333164108527e-24
1.0783236325166373e-23
2.1713734943403415e-23
3.494838088036542e-23
-8.962183083761811e-23
-5.852302833812671e-23
-5.838003886354412e-24
-1.0339757656912846e-23
-2.1888247024983474e-24
-4.245048053767632e-09
-9.681889718220527e-09
-1.9988919285666373e-08
-5.51668623615428e-08
-8.880481368991312e-08
-5.516686236154286e-08
-1.9988919285666443e-08
-9.681889718220567e-09
-4.245048053767653e-09
-7.2079659426552175e-09
-1.5257635529809552e-08
-3.0681652700488424e-08
-5.2615661291680594e-08
-6.327986387143046e-08
-5.261566129168064e-08
-3.068165270048846e-08
-1.5257635529809605e-08
-7.207965942655238e-09
-7.60763480767381e-09
-1.526183279579235e-08
-2.5480936498954844e-08
-3.4449052442218627e-08
-3.623670506312778e-08
-3.444905244221864e-08
-2.548093649895487e-08
-1.5261832795792378e-08
-7.607634807673821e-09
-5.3101739687881165e-09
-9.598423043899653e-09
-1.4496710450658998e-08
-1.8213842458144934e-08
-1.9926536848534622e-08
-1.8213842458144934e-08
-1.4496710450659017e-08
-9.598423043899668e-09
-5.310173968788123e-09
0.0
0.0
0.0
0.0
0.0
0.0
0.0
0.0
0.0
0.0
0.0
0.0
0.0
0.0
0.0
0.0
0.0
0.0
0.0
0.0
0.0
0.0
0.0
0.0
0.0
0.0
0.0
0.0
0.0
0.0
0.0
0.0
0.0
0.0
0.0
0.0
0.0
0.0
0.0
0.0
0.0
0.0
0.0
0.0
0.0
0.0
0.0
0.0
0.0
0.0
0.0
0.0
0.0
0.0
0.0
0.0
0.0
0.0
0.0
0.0
0.0
0.0
0.0
0.0
0.0
0.0
0.0
0.0
0.0
0.0
0.0
0.0
0.0
0.0
0.0
0.0
0.0
0.0
0.0
0.0
0.0
0.0
0.0
0.0
0.0
0.0
0.0
0.0
0.0
0.0
0.0
0.0
0.0
0.0
0.0
0.0
0.0
0.0
0.0
0.0
0.0
0.0
0.0
0.0
0.0
0.0
0.0
0.0
0.0
0.0
0.0
0.0
0.0
0.0
0.0
0.0
0.0
0.0
0.0
0.0
0.0
0.0
0.0
0.0
0.0
0.0
0.0
0.0
0.0
0.0
0.0
0.0
0.0
0.0
0.0
0.0
0.0
0.0
0.0
0.0
0.0
0.0
0.0
0.0
0.0
0.0
0.0
0.0
0.0
0.0
0.0
0.0
0.0
0.0
0.0
0.0
0.0
0.0
0.0
0.0
0.0
0.0
0.0
0.0
0.0
0.0
0.0
0.0
0.0
0.0
0.0
0.0
0.0
0.0
0.0
0.0
0.0
0.0
0.0
0.0
0.0
0.0
0.0
0.0
0.0
0.0
0.0
0.0
0.0
0.0
0.0
0.0
0.0
0.0
0.0
0.0
0.0
0.0
0.0
0.0
0.0
0.0
0.0
0.0
0.0
0.0
0.0
0.0
0.0
0.0
0.0
0.0
0.0
0.0
0.0
0.0
0.0
0.0
0.0
0.0
0.0
0.0
0.0
0.0
0.0
0.0
0.0
0.0
0.0
0.0
0.0
0.0
0.0
0.0
0.0
0.0
0.0
0.0
0.0
0.0
0.0
0.0
0.0
0.0
0.0
0.0
0.0
0.0
0.0
0.0
0.0
0.0
0.0
0.0
0.0
0.0
0.0
0.0
0.0
0.0
0.0
0.0
0.0
0.0
0.0
0.0
0.0
0.0
0.0
0.0
0.0
0.0
0.0
0.0
0.0
0.0
0.0
0.0
0.0
0.0
0.0
0.0
0.0
0.0
0.0
0.0
0.0
0.0
0.0
0.0
0.0
0.0
0.0
0.0
0.0
0.0
0.0
0.0
0.0
0.0
0.0
0.0
0.0
0.0
0.0
0.0
0.0
0.0
0.0
0.0
0.0
0.0
0.0
0.0
0.0
0.0
0.0
0.0
0.0
0.0
0.0
0.0
0.0
0.0
-1.1141633912940544e-09
-1.0208463327041449e-09
-1.3116324168746262e-09
-1.8096687839985406e-09
-2.3732866533408617e-09
-2.8192850148860256e-09
-2.8013709008550526e-09
-1.798592187339839e-09
6.804625158162187e-10
-1.4629403970043659e-09
-1.3334100153980834e-09
-1.8066500718135133e-09
-2.5990277862231973e-09
-3.556343874827709e-09
-4.448148592632666e-09
-4.751809037624973e-09
-3.4562241523183614e-09
5.378098918011302e-10
-1.602095522499072e-09
-1.482467206894416e-09
-2.116005830430105e-09
-3.200177783906056e-09
-4.614600504283551e-09
-6.18027904825528e-09
-7.155088636695469e-09
-5.90182361237892e-09
4.849071273909128e-11
-1.6761183087430049e-09
-1.5481311672101913e-09
-2.304990525579318e-09
-3.6191949198385048e-09
-5.463450543849783e-09
-7.748891279727572e-09
-9.596531002647196e-09
-8.20226882733395e-09
-6.257060405030193e-10
-1.7002580417363138e-09
-1.56934882240788e-09
-2.370536289224793e-09
-3.780581236781521e-09
-5.779662367591236e-09
-8.520130969920541e-09
-1.0508575794840718e-08
-9.356243945848611e-09
-9.40874624353166e-10
-1.6761183087430028e-09
-1.5481311672101944e-09
-2.3049905255793173e-09
-3.6191949198385077e-09
-5.4634505438497785e-09
-7.748891279727569e-09
-9.596531002647207e-09
-8.202268827333974e-09
-6.257060405030289e-10
-1.6020955224990751e-09
-1.4824672068944132e-09
-2.1160058304301073e-09
-3.200177783906052e-09
-4.614600504283554e-09
-6.180279048255277e-09
-7.155088636695478e-09
-5.901823612378928e-09
4.8490712739085104e-11
-1.4629403970043667e-09
-1.333410015398085e-09
-1.8066500718135098e-09
-2.5990277862232014e-09
-3.556343874827704e-09
-4.448148592632664e-09
-4.751809037624974e-09
-3.456224152318364e-09
5.378098918011268e-10
-1.1141633912940558e-09
-1.020846332704144e-09
-1.3116324168746264e-09
-1.8096687839985422e-09
-2.3732866533408604e-09
-2.819285014886022e-09
-2.8013709008550513e-09
-1.7985921873398398e-09
6.804625158162195e-10
-1.6483630256730399e-09
-1.2647762367803844e-09
-1.6935490812382377e-09
-2.4810952681338907e-09
-3.4633405060943974e-09
-4.372817334459353e-09
-4.6336834655256916e-09
-3.239599884558717e-09
8.496458559234794e-10
-2.4959684101009344e-09
-1.8845780218686452e-09
-2.6179387247062373e-09
-3.973504824995349e-09
-5.7715172216654355e-09
-7.69930167498338e-09
-8.770163569481712e-09
-7.003749992011921e-09
7.53723524192114e-10
-2.893187306099121e-09
-2.148598560332014e-09
-3.146755693510724e-09
-5.025103947121619e-09
-7.753004132145567e-09
-1.1186349016470488e-08
-1.4228729080775682e-08
-1.3173237371018316e-08
-2.0004587435595217e-09
-3.1051019679443584e-09
-2.265728257380609e-09
-3.462123541273816e-09
-5.7600049290048225e-09
-9.309626216302023e-09
-1.4482951665793895e-08
-2.0229122107804392e-08
-2.1415051236541647e-08
-4.643823311672896e-09
-3.1736326876915545e-09
-2.3008542266852875e-09
-3.571912063785072e-09
-6.027404674845503e-09
-9.952827934216273e-09
-1.5733418780494602e-08
-2.4038210403379626e-08
-2.4221404495122087e-08
-6.671152974185399e-09
-3.1051019679443613e-09
-2.2657282573806125e-09
-3.4621235412738194e-09
-5.760004929004824e-09
-9.309626216302023e-09
-1.4482951665793887e-08
-2.0229122107804402e-08
-2.1415051236541683e-08
-4.643823311672921e-09
-2.8931873060991257e-09
-2.1485985603320088e-09
-3.1467556935107266e-09
-5.025103947121623e-09
-7.753004132145563e-09
-1.1186349016470488e-08
-1.4228729080775703e-08
-1.3173237371018354e-08
-2.0004587435595473e-09
-2.4959684101009356e-09
-1.8845780218686494e-09
-2.617938724706237e-09
-3.973504824995349e-09
-5.771517221665426e-09
-7.699301674983387e-09
-8.770163569481708e-09
-7.003749992011929e-09
7.537235241921047e-10
-1.6483630256730392e-09
-1.2647762367803863e-09
-1.6935490812382365e-09
-2.4810952681338903e-09
-3.4633405060943966e-09
-4.37281733445935e-09
-4.63368346552569e-09
-3.239599884558716e-09
8.496458559234818e-10
-1.4898099335676277e-09
-1.1454027546268298e-09
-1.522779082043913e-09
-2.3289555885687726e-09
-3.4025504894384725e-09
-4.497741274872458e-09
-4.9723387161887495e-09
-3.7106782346013953e-09
6.974540672404428e-10
-2.3801569963896106e-09
-1.8111140103375094e-09
-2.4693346814627746e-09
-3.884416759506185e-09
-5.913854441906619e-09
-8.28154113288521e-09
-1.0016371714419457e-08
-8.484052481467728e-09
-7.508708863137989e-10
-2.8497848892932152e-09
-2.14327324854496e-09
-3.0489663094818962e-09
-5.035797460030806e-09
-8.129398712888069e-09
-1.2560994727144687e-08
-1.7307152111422863e-08
-1.8447920927043244e-08
-4.293319998443176e-09
-3.0958915876326968e-09
-2.295759934854928e-09
-3.3887125630875705e-09
-5.822650363020862e-09
-9.884871378313223e-09
-1.635718410181948e-08
-2.6477226092821747e-08
-3.478183975647793e-08
-2.400910723012312e-08
-3.174582536276627e-09
-2.342414720273747e-09
-3.504338335817964e-09
-6.118143043311739e-09
-1.0545031364646591e-08
-1.814341193172622e-08
-2.9668119851417222e-08
-5.425876240952136e-08
-2.5458613774537252e-08
-3.0958915876326922e-09
-2.295759934854929e-09
-3.3887125630875743e-09
-5.8226503630208705e-09
-9.884871378313226e-09
-1.6357184101819483e-08
-2.647722609282179e-08
-3.478183975647797e-08
-2.400910723012319e-08
-2.8497848892932165e-09
-2.143273248544958e-09
-3.0489663094819053e-09
-5.0357974600308085e-09
-8.12939871288806e-09
-1.2560994727144684e-08
-1.7307152111422876e-08
-1.844792092704327e-08
-4.2933199984432025e-09
-2.380156996389613e-09
-1.8111140103375145e-09
-2.469334681462774e-09
-3.8844167595061845e-09
-5.913854441906607e-09
-8.281541132885224e-09
-1.0016371714419457e-08
-8.484052481467742e-09
-7.508708863138045e-10
-1.4898099335676277e-09
-1.1454027546268321e-09
-1.522779082043914e-09
-2.3289555885687693e-09
-3.4025504894384737e-09
-4.497741274872463e-09
-4.972338716188751e-09
-3.7106782346013944e-09
6.974540672404429e-10
-8.661429866680454e-10
-6.775241661004313e-10
-9.052441219859854e-10
-1.4131698695182337e-09
-2.1312909660675656e-09
-2.8716883418860033e-09
-3.3483748078996923e-09
-2.413075153169408e-09
1.7931352197261376e-10
-1.4117299503743834e-09
-1.0999327648887537e-09
-1.4966361280706054e-09
-2.396254974726016e-09
-3.748309120782565e-09
-5.5006664030582615e-09
-6.7178690158303466e-09
-6.729977305894263e-09
-2.316787619123622e-10
-1.7161795244675352e-09
-1.3269483304892834e-09
-1.8747735135464015e-09
-3.1413968562228365e-09
-5.22877850418043e-09
-8.397936264780897e-09
-1.3026689257672832e-08
-1.3660853112632181e-08
-9.462500378678185e-09
-1.8774248628011918e-09
-1.4365153464797117e-09
-2.0983310784883655e-09
-3.6555316388063167e-09
-6.379174713538229e-09
-1.1130064603814175e-08
-1.9226201638976493e-08
-3.7137406270800166e-08
-2.3453211602084415e-08
-1.928507620043003e-09
-1.4698356976764987e-09
-2.174768610162234e-09
-3.8422807990651676e-09
-6.84291005297545e-09
-1.2165940745386183e-08
-2.3127031527661417e-08
-4.06629536701642e-08
-1.6567897677633188e-07
-1.8774248628011934e-09
-1.4365153464797082e-09
-2.0983310784883646e-09
-3.6555316388063266e-09
-6.3791747135382424e-09
-1.1130064603814165e-08
-1.922620163897653e-08
-3.7137406270800186e-08
-2.3453211602084515e-08
-1.71617952446754e-09
-1.3269483304892857e-09
-1.8747735135464077e-09
-3.141396856222832e-09
-5.228778504180434e-09
-8.397936264780907e-09
-1.302668925767283e-08
-1.3660853112632178e-08
-9.462500378678212e-09
-1.4117299503743849e-09
-1.0999327648887586e-09
-1.4966361280706035e-09
-2.396254974726024e-09
-3.748309120782561e-09
-5.500666403058258e-09
-6.717869015830347e-09
-6.729977305894278e-09
-2.316787619123678e-10
-8.661429866680503e-10
-6.775241661004331e-10
-9.052441219859873e-10
-1.413169869518236e-09
-2.131290966067563e-09
-2.871688341886009e-09
-3.348374807899694e-09
-2.413075153169412e-09
1.7931352197261306e-10
2.763967482950553e-24
2.9634848193018143e-24
1.0456887724120062e-24
-2.4369516804124224e-24
3.9686064291587945e-25
3.829797571804979e-24
3.980806697911446e-24
4.362023604537802e-25
2.9942728743623118e-24
1.14140263968853e-24
3.774011544773189e-24
-1.7484405910177614e-24
5.997059441009451e-24
2.119906934500602e-24
-2.1810426307550534e-24
5.7377138481768715e-24
6.276556015172876e-25
1.8771456098198068e-23
2.68833699079734e-24
-3.6426678585087416e-24
-3.360421238496675e-24
9.631757355920529e-26
1.809457589959748e-24
-2.8694087875873013e-24
1.2407709188295415e-24
2.3859846972282123e-23
-1.2407709188295415e-23
-7.550541399375716e-24
5.279334856777649e-24
6.631842327310427e-25
-1.4475660719677984e-23
1.2090741412963824e-23
-5.5668494199752765e-24
-3.529242171728288e-23
1.345460965105784e-23
1.2926184803674366e-23
1.2035504749693502e-24
-4.0818921651371254e-24
-5.144029434314141e-24
-1.3557592908037977e-23
-1.0013841327184083e-23
-1.3580703318260976e-23
-8.68539643180679e-24
-8.590892312583076e-24
-5.1285197978287716e-23
3.217940490374435e-25
-6.268478079503413e-25
-3.7160766558835834e-24
3.0631532058604306e-24
-3.902894552438869e-25
5.195728222598705e-24
-9.861597302063589e-24
5.790264287871194e-24
-4.948344899596275e-23
-1.9387045606711586e-24
-9.374700740911988e-25
1.8239978741647817e-24
3.3766772938993245e-24
-1.3234889800848443e-23
-6.693669335802246e-24
-1.4726051481882375e-23
7.183337444273906e-24
-2.3161057151484775e-23
3.3783770493934077e-25
-4.897686542384628e-24
-2.3317749042222733e-24
-5.946976239858779e-24
-1.50393729207529e-24
-1.4653865361291663e-24
-6.4693957663322535e-24
-5.686866711302065e-24
-7.051483009519462e-24
-1.2533453436717575e-24
-5.239010193035838e-26
-1.7577588016751838e-24
-1.4054984628745232e-24
-3.2706046912718314e-24
-2.603563842414658e-24
-5.081021536092328e-25
-3.764308728146498e-25
3.7713862156806132e-25
8.661429866680477e-10
6.775241661004362e-10
9.052441219859856e-10
1.4131698695182333e-09
2.1312909660675656e-09
2.8716883418860054e-09
3.3483748078997e-09
2.4130751531694122e-09
-1.793135219726118e-10
1.4117299503743878e-09
1.099932764888761e-09
1.4966361280706085e-09
2.3962549747260256e-09
3.748309120782564e-09
5.500666403058263e-09
6.717869015830345e-09
6.729977305894275e-09
2.3167876191238556e-10
1.7161795244675314e-09
1.3269483304892855e-09
1.8747735135464064e-09
3.141396856222828e-09
5.22877850418043e-09
8.397936264780896e-09
1.3026689257672844e-08
1.3660853112632193e-08
9.462500378678197e-09
1.8774248628011827e-09
1.4365153464797105e-09
2.0983310784883655e-09
3.6555316388063068e-09
6.37917471353823e-09
1.1130064603814155e-08
1.9226201638976533e-08
3.713740627080013e-08
2.3453211602084528e-08
1.928507620043006e-09
1.469835697676497e-09
2.1747686101622227e-09
3.842280799065168e-09
6.8429100529754314e-09
1.2165940745386165e-08
2.3127031527661357e-08
4.066295367016425e-08
1.656789767763317e-07
1.877424862801193e-09
1.4365153464797105e-09
2.098331078488363e-09
3.6555316388063225e-09
6.379174713538225e-09
1.1130064603814163e-08
1.9226201638976517e-08
3.713740627080014e-08
2.345321160208441e-08
1.7161795244675302e-09
1.3269483304892811e-09
1.874773513546404e-09
3.1413968562228315e-09
5.228778504180431e-09
8.3979362647809e-09
1.3026689257672829e-08
1.3660853112632166e-08
9.46250037867819e-09
1.4117299503743814e-09
1.099932764888755e-09
1.4966361280706075e-09
2.396254974726016e-09
3.748309120782564e-09
5.5006664030582615e-09
6.7178690158303424e-09
6.729977305894269e-09
2.3167876191235695e-10
8.661429866680468e-10
6.775241661004316e-10
9.052441219859849e-10
1.4131698695182323e-09
2.1312909660675622e-09
2.8716883418860004e-09
3.3483748078996985e-09
2.413075153169409e-09
-1.7931352197261342e-10
1.489809933567627e-09
1.1454027546268323e-09
1.5227790820439164e-09
2.328955588568774e-09
3.4025504894384717e-09
4.497741274872463e-09
4.972338716188752e-09
3.7106782346013965e-09
-6.974540672404387e-10
2.3801569963896106e-09
1.8111140103375098e-09
2.4693346814627787e-09
3.884416759506182e-09
5.9138544419066126e-09
8.281541132885214e-09
1.001637171441946e-08
8.48405248146774e-09
7.5087088631382e-10
2.8497848892932053e-09
2.1432732485449545e-09
3.0489663094819004e-09
5.035797460030808e-09
8.129398712888062e-09
1.2560994727144685e-08
1.7307152111422886e-08
1.8447920927043254e-08
4.293319998443215e-09
3.0958915876326926e-09
2.2957599348549214e-09
3.3887125630875643e-09
5.822650363020858e-09
9.884871378313221e-09
1.6357184101819473e-08
2.647722609282177e-08
3.478183975647792e-08
2.400910723012313e-08
3.174582536276627e-09
2.342414720273747e-09
3.5043383358179576e-09
6.11814304331174e-09
1.0545031364646583e-08
1.8143411931726208e-08
2.9668119851417196e-08
5.4258762409521385e-08
2.5458613774537216e-08
3.0958915876326877e-09
2.295759934854926e-09
3.388712563087571e-09
5.822650363020864e-09
9.88487137831323e-09
1.6357184101819466e-08
2.647722609282175e-08
3.478183975647792e-08
2.4009107230123097e-08
2.84978488929321e-09
2.14327324854495e-09
3.048966309481903e-09
5.035797460030809e-09
8.129398712888052e-09
1.2560994727144695e-08
1.7307152111422876e-08
1.8447920927043244e-08
4.2933199984431735e-09
2.3801569963896036e-09
1.8111140103375127e-09
2.4693346814627766e-09
3.884416759506183e-09
5.913854441906617e-09
8.281541132885219e-09
1.0016371714419457e-08
8.48405248146774e-09
7.508708863138034e-10
1.4898099335676272e-09
1.1454027546268309e-09
1.5227790820439172e-09
2.3289555885687697e-09
3.4025504894384704e-09
4.49774127487246e-09
4.972338716188752e-09
3.7106782346013915e-09
-6.974540672404441e-10
1.6483630256730388e-09
1.2647762367803865e-09
1.6935490812382359e-09
2.4810952681338916e-09
3.4633405060943974e-09
4.3728173344593535e-09
4.633683465525695e-09
3.2395998845587166e-09
-8.496458559234716e-10
2.495968410100933e-09
1.884578021868644e-09
2.617938724706236e-09
3.973504824995348e-09
5.771517221665429e-09
7.699301674983385e-09
8.770163569481718e-09
7.003749992011931e-09
-7.537235241921034e-10
2.893187306099118e-09
2.148598560332005e-09
3.1467556935107258e-09
5.025103947121624e-09
7.75300413214556e-09
1.118634901647049e-08
1.4228729080775687e-08
1.3173237371018322e-08
2.0004587435595357e-09
3.1051019679443543e-09
2.265728257380601e-09
3.462123541273813e-09
5.760004929004831e-09
9.309626216302016e-09
1.4482951665793904e-08
2.0229122107804396e-08
2.141505123654166e-08
4.643823311672908e-09
3.1736326876915446e-09
2.3008542266852805e-09
3.57191206378507e-09
6.027404674845504e-09
9.952827934216276e-09
1.573341878049457e-08
2.4038210403379636e-08
2.422140449512209e-08
6.671152974185365e-09
3.1051019679443497e-09
2.265728257380604e-09
3.462123541273815e-09
5.760004929004824e-09
9.30962621630202e-09
1.4482951665793895e-08
2.0229122107804392e-08
2.1415051236541647e-08
4.643823311672903e-09
2.893187306099116e-09
2.148598560332007e-09
3.1467556935107295e-09
5.0251039471216195e-09
7.753004132145562e-09
1.118634901647049e-08
1.4228729080775701e-08
1.317323737101832e-08
2.0004587435595105e-09
2.4959684101009327e-09
1.8845780218686477e-09
2.6179387247062402e-09
3.973504824995352e-09
5.771517221665427e-09
7.699301674983387e-09
8.77016356948171e-09
7.0037499920119275e-09
-7.537235241921171e-10
1.648363025673038e-09
1.2647762367803865e-09
1.693549081238239e-09
2.4810952681338903e-09
3.4633405060944e-09
4.372817334459351e-09
4.63368346552569e-09
3.2395998845587124e-09
-8.496458559234809e-10
1.1141633912940527e-09
1.0208463327041449e-09
1.3116324168746267e-09
1.80966878399854e-09
2.3732866533408633e-09
2.8192850148860256e-09
2.801370900855053e-09
1.798592187339841e-09
-6.804625158162139e-10
1.4629403970043659e-09
1.3334100153980854e-09
1.8066500718135092e-09
2.5990277862231994e-09
3.556343874827709e-09
4.448148592632667e-09
4.751809037624978e-09
3.4562241523183626e-09
-5.378098918011263e-10
1.6020955224990702e-09
1.4824672068944132e-09
2.116005830430104e-09
3.200177783906055e-09
4.614600504283553e-09
6.1802790482552836e-09
7.155088636695458e-09
5.901823612378922e-09
-4.849071273908855e-11
1.6761183087430016e-09
1.5481311672101846e-09
2.3049905255793226e-09
3.6191949198385093e-09
5.463450543849784e-09
7.748891279727562e-09
9.596531002647209e-09
8.202268827333956e-09
6.257060405030208e-10
1.7002580417363074e-09
1.5693488224078788e-09
2.3705362892247913e-09
3.780581236781523e-09
5.77966236759123e-09
8.520130969920533e-09
1.0508575794840708e-08
9.356243945848624e-09
9.408746243531556e-10
1.6761183087429983e-09
1.5481311672101865e-09
2.304990525579318e-09
3.619194919838507e-09
5.463450543849778e-09
7.748891279727564e-09
9.596531002647199e-09
8.202268827333951e-09
6.257060405030198e-10
1.6020955224990712e-09
1.4824672068944148e-09
2.1160058304301036e-09
3.200177783906057e-09
4.614600504283554e-09
6.180279048255281e-09
7.155088636695467e-09
5.901823612378922e-09
-4.849071273909379e-11
1.4629403970043652e-09
1.3334100153980844e-09
1.8066500718135125e-09
2.5990277862231973e-09
3.556343874827709e-09
4.448148592632669e-09
4.751809037624978e-09
3.4562241523183606e-09
-5.378098918011325e-10
1.1141633912940538e-09
1.0208463327041455e-09
1.3116324168746273e-09
1.8096687839985418e-09
2.373286653340863e-09
2.819285014886026e-09
2.8013709008550513e-09
1.7985921873398384e-09
-6.804625158162219e-10
SCALARS disp_y float
LOOKUP_TABLE default
0.0
0.0
0.0
0.0
0.0
0.0
0.0
0.0
0.0
0.0
0.0
0.0
0.0
0.0
0.0
0.0
0.0
0.0
0.0
0.0
0.0
0.0
0.0
0.0
0.0
0.0
0.0
0.0
0.0
0.0
0.0
0.0
0.0
0.0
0.0
0.0
0.0
0.0
0.0
0.0
0.0
0.0
0.0
0.0
0.0
0.0
0.0
0.0
0.0
0.0
0.0
0.0
0.0
0.0
0.0
0.0
0.0
0.0
0.0
0.0
0.0
0.0
0.0
0.0
0.0
0.0
0.0
0.0
0.0
0.0
0.0
0.0
0.0
0.0
0.0
0.0
0.0
0.0
0.0
0.0
0.0
0.0
0.0
0.0
0.0
0.0
0.0
0.0
0.0
0.0
0.0
0.0
0.0
0.0
0.0
0.0
0.0
0.0
0.0
0.0
0.0
0.0
0.0
0.0
0.0
0.0
0.0
0.0
0.0
0.0
0.0
0.0
0.0
0.0
0.0
0.0
-3.2705339203072413e-09
-3.806204166359707e-09
-3.0825837762022424e-09
-1.697912239680897e-09
9.42306830604694e-25
1.697912239680896e-09
3.082583776202242e-09
3.806204166359706e-09
3.2705339203072405e-09
-4.9299880045995705e-09
-6.111652034192713e-09
-5.0594934960469495e-09
-2.8130534537279212e-09
-8.271806125530277e-25
2.81305345372792e-09
5.059493496046945e-09
6.111652034192711e-09
4.929988004599572e-09
-6.235072913442319e-09
-7.744275380475821e-09
-6.460976767165107e-09
-3.606625062367033e-09
-1.0816220950204261e-24
3.6066250623670306e-09
6.460976767165103e-09
7.744275380475813e-09
6.235072913442315e-09
-7.044290155787639e-09
-8.752164555076626e-09
-7.306221031387025e-09
-4.08360756823721e-09
-8.536762415488668e-24
4.0836075682372035e-09
7.306221031387019e-09
8.752164555076624e-09
7.04429015578764e-09
-7.320258836443621e-09
-9.092908346385878e-09
-7.591003581683372e-09
-4.243102452593582e-09
-5.2921300739521964e-24
4.243102452593573e-09
7.591003581683369e-09
9.09290834638588e-09
7.320258836443625e-09
-7.0442901557876396e-09
-8.752164555076622e-09
-7.306221031387023e-09
-4.0836075682372134e-09
-1.0960143116327617e-23
4.083607568237197e-09
7.306221031387026e-09
8.75216455507663e-09
7.044290155787638e-09
-6.2350729134423154e-09
-7.744275380475814e-09
-6.4609767671651086e-09
-3.6066250623670442e-09
-9.988776907233132e-24
3.6066250623670343e-09
6.460976767165108e-09
7.744275380475818e-09
6.235072913442314e-09
-4.9299880045995705e-09
-6.111652034192709e-09
-5.059493496046947e-09
-2.813053453727926e-09
-9.596587575322235e-25
2.813053453727928e-09
5.059493496046945e-09
6.111652034192709e-09
4.929988004599572e-09
-3.2705339203072392e-09
-3.806204166359706e-09
-3.082583776202241e-09
-1.6979122396808959e-09
3.1926913057118105e-25
1.6979122396808955e-09
3.0825837762022407e-09
3.8062041663597036e-09
3.2705339203072397e-09
5.310173968788118e-09
7.607634807673815e-09
7.207965942655227e-09
4.245048053767645e-09
-1.0339757656912846e-25
-4.245048053767651e-09
-7.207965942655229e-09
-7.607634807673811e-09
-5.310173968788119e-09
9.598423043899653e-09
1.526183279579235e-08
1.525763552980957e-08
9.681889718220552e-09
-3.721649616811048e-24
-9.681889718220554e-09
-1.5257635529809582e-08
-1.5261832795792365e-08
-9.598423043899661e-09
1.4496710450658989e-08
2.548093649895484e-08
3.068165270048844e-08
1.998891928566641e-08
8.271806125530277e-24
-1.998891928566641e-08
-3.0681652700488457e-08
-2.5480936498954864e-08
-1.4496710450659007e-08
1.8213842458144914e-08
3.444905244221858e-08
5.261566129168055e-08
5.516686236154282e-08
1.9378646989864493e-23
-5.516686236154283e-08
-5.261566129168063e-08
-3.444905244221863e-08
-1.8213842458144953e-08
1.9926536848534606e-08
3.623670506312772e-08
6.327986387143034e-08
8.8804813689913e-08
-2.481541837659083e-24
-8.880481368991304e-08
-6.327986387143041e-08
-3.62367050631278e-08
-1.992653684853464e-08
1.8213842458144914e-08
3.4449052442218594e-08
5.2615661291680594e-08
5.516686236154283e-08
1.839152759350567e-23
-5.516686236154283e-08
-5.261566129168062e-08
-3.444905244221864e-08
-1.8213842458144957e-08
1.4496710450658995e-08
2.5480936498954847e-08
3.068165270048845e-08
1.9988919285666403e-08
-5.152107369983604e-24
-1.998891928566641e-08
-3.0681652700488476e-08
-2.548093649895488e-08
-1.449671045065901e-08
9.59842304389965e-09
1.526183279579236e-08
1.5257635529809572e-08
9.681889718220559e-09
-8.963246862946677e-25
-9.681889718220557e-09
-1.525763552980959e-08
-1.5261832795792385e-08
-9.598423043899668e-09
5.310173968788118e-09
7.607634807673813e-09
7.207965942655229e-09
4.2450480537676494e-09
5.37667398159468e-24
-4.245048053767647e-09
-7.207965942655233e-09
-7.607634807673818e-09
-5.310173968788125e-09
0.0
0.0
0.0
0.0
0.0
0.0
0.0
0.0
0.0
0.0
0.0
0.0
0.0
0.0
0.0
0.0
0.0
0.0
0.0
0.0
0.0
0.0
0.0
0.0
0.0
0.0
0.0
0.0
0.0
0.0
0.0
0.0
0.0
0.0
0.0
0.0
0.0
0.0
0.0
0.0
0.0
0.0
0.0
0.0
0.0
0.0
0.0
0.0
0.0
0.0
0.0
0.0
0.0
0.0
0.0
0.0
0.0
0.0
0.0
0.0
0.0
0.0
0.0
0.0
0.0
0.0
0.0
0.0
0.0
0.0
0.0
0.0
0.0
0.0
0.0
0.0
0.0
0.0
0.0
0.0
0.0
0.0
0.0
0.0
0.0
0.0
0.0
0.0
0.0
0.0
0.0
0.0
0.0
0.0
0.0
0.0
0.0
0.0
0.0
0.0
0.0
0.0
0.0
0.0
0.0
0.0
0.0
0.0
0.0
0.0
0.0
0.0
0.0
0.0
0.0
0.0
0.0
0.0
0.0
0.0
0.0
0.0
0.0
0.0
0.0
0.0
0.0
0.0
0.0
0.0
0.0
0.0
0.0
0.0
0.0
0.0
0.0
0.0
0.0
0.0
0.0
0.0
0.0
0.0
0.0
0.0
0.0
0.0
0.0
0.0
0.0
0.0
0.0
0.0
0.0
0.0
0.0
0.0
0.0
0.0
0.0
0.0
0.0
0.0
0.0
0.0
0.0
0.0
0.0
0.0
0.0
0.0
0.0
0.0
0.0
0.0
0.0
0.0
0.0
0.0
0.0
0.0
0.0
0.0
0.0
0.0
0.0
0.0
0.0
0.0
0.0
0.0
0.0
0.0
0.0
0.0
0.0
0.0
0.0
0.0
0.0
0.0
0.0
0.0
0.0
0.0
0.0
0.0
0.0
0.0
0.0
0.0
0.0
0.0
0.0
0.0
0.0
0.0
0.0
0.0
0.0
0.0
0.0
0.0
0.0
0.0
0.0
0.0
0.0
0.0
0.0
0.0
0.0
0.0
0.0
0.0
0.0
0.0
0.0
0.0
0.0
0.0
0.0
0.0
0.0
0.0
0.0
0.0
0.0
0.0
0.0
0.0
0.0
0.0
0.0
0.0
0.0
0.0
0.0
0.0
0.0
0.0
0.0
0.0
0.0
0.0
0.0
0.0
0.0
0.0
0.0
0.0
0.0
0.0
0.0
0.0
0.0
0.0
0.0
0.0
0.0
0.0
0.0
0.0
0.0
0.0
0.0
0.0
0.0
0.0
0.0
0.0
0.0
0.0
0.0
0.0
0.0
0.0
0.0
0.0
0.0
0.0
0.0
0.0
0.0
0.0
0.0
0.0
0.0
0.0
0.0
0.0
0.0
0.0
0.0
0.0
0.0
0.0
0.0
0.0
0.0
0.0
0.0
0.0
-1.1141633912940544e-09
-1.020846332704144e-09
-1.3116324168746273e-09
-1.8096687839985402e-09
-2.3732866533408646e-09
-2.819285014886023e-09
-2.801370900855054e-09
-1.7985921873398396e-09
6.804625158162177e-10
-1.648363025673042e-09
-1.2647762367803873e-09
-1.6935490812382367e-09
-2.48109526813389e-09
-3.4633405060943982e-09
-4.372817334459354e-09
-4.633683465525697e-09
-3.2395998845587207e-09
8.496458559234782e-10
-1.4898099335676287e-09
-1.145402754626831e-09
-1.5227790820439168e-09
-2.3289555885687676e-09
-3.4025504894384717e-09
-4.49774127487247e-09
-4.9723387161887636e-09
-3.7106782346013994e-09
6.974540672404414e-10
-8.66142986668048e-10
-6.775241661004347e-10
-9.052441219859873e-10
-1.4131698695182364e-09
-2.131290966067568e-09
-2.8716883418860116e-09
-3.3483748078997005e-09
-2.413075153169417e-09
1.7931352197260996e-10
-1.4147396525589129e-24
-1.9316836986146916e-24
-4.082781669193587e-24
-6.075062007317704e-24
-4.933401223249447e-24
-1.50283499819036e-24
-9.622721962153509e-25
-6.72084247699335e-24
-5.500657575808783e-24
8.661429866680456e-10
6.775241661004324e-10
9.052441219859828e-10
1.4131698695182283e-09
2.1312909660675622e-09
2.871688341886002e-09
3.348374807899697e-09
2.413075153169406e-09
-1.793135219726141e-10
1.4898099335676268e-09
1.1454027546268309e-09
1.5227790820439122e-09
2.3289555885687664e-09
3.4025504894384725e-09
4.497741274872462e-09
4.972338716188753e-09
3.7106782346013977e-09
-6.9745406724044e-10
1.6483630256730392e-09
1.2647762367803858e-09
1.6935490812382365e-09
2.4810952681338903e-09
3.463340506094397e-09
4.37281733445935e-09
4.6336834655256916e-09
3.2395998845587186e-09
-8.496458559234754e-10
1.114163391294055e-09
1.0208463327041449e-09
1.3116324168746273e-09
1.8096687839985414e-09
2.3732866533408633e-09
2.8192850148860223e-09
2.8013709008550517e-09
1.79859218733984e-09
-6.804625158162165e-10
-1.462940397004366e-09
-1.3334100153980828e-09
-1.8066500718135108e-09
-2.5990277862231994e-09
-3.5563438748277104e-09
-4.4481485926326734e-09
-4.751809037624975e-09
-3.4562241523183626e-09
5.378098918011271e-10
-2.4959684101009323e-09
-1.8845780218686486e-09
-2.617938724706237e-09
-3.973504824995349e-09
-5.771517221665432e-09
-7.699301674983392e-09
-8.77016356948171e-09
-7.003749992011928e-09
7.53723524192105e-10
-2.3801569963896123e-09
-1.8111140103375145e-09
-2.4693346814627775e-09
-3.884416759506182e-09
-5.913854441906619e-09
-8.281541132885224e-09
-1.0016371714419467e-08
-8.48405248146774e-09
-7.508708863138135e-10
-1.411729950374383e-09
-1.0999327648887584e-09
-1.4966361280706095e-09
-2.3962549747260293e-09
-3.748309120782572e-09
-5.500666403058271e-09
-6.71786901583036e-09
-6.729977305894281e-09
-2.3167876191237926e-10
4.329773518832254e-25
-2.602044402620775e-24
-4.963083675318166e-24
-1.0483826207249036e-23
-7.754818242684634e-24
-7.17616948249119e-24
-5.169878828456423e-24
-1.0727186583374724e-23
-4.911384887033602e-24
1.41172995037438e-09
1.0999327648887572e-09
1.4966361280706077e-09
2.396254974726008e-09
3.748309120782556e-09
5.500666403058254e-09
6.71786901583034e-09
6.729977305894275e-09
2.3167876191236266e-10
2.380156996389608e-09
1.811114010337511e-09
2.4693346814627783e-09
3.884416759506173e-09
5.913854441906602e-09
8.281541132885217e-09
1.0016371714419452e-08
8.484052481467738e-09
7.508708863138106e-10
2.495968410100933e-09
1.884578021868646e-09
2.6179387247062373e-09
3.973504824995347e-09
5.771517221665426e-09
7.699301674983385e-09
8.770163569481712e-09
7.0037499920119275e-09
-7.537235241921126e-10
1.4629403970043648e-09
1.3334100153980838e-09
1.8066500718135113e-09
2.599027786223197e-09
3.556343874827706e-09
4.448148592632669e-09
4.751809037624975e-09
3.4562241523183647e-09
-5.37809891801134e-10
-1.6020955224990727e-09
-1.4824672068944186e-09
-2.116005830430104e-09
-3.2001777839060586e-09
-4.614600504283552e-09
-6.18027904825528e-09
-7.155088636695466e-09
-5.901823612378926e-09
4.8490712739085744e-11
-2.893187306099121e-09
-2.1485985603320104e-09
-3.146755693510732e-09
-5.025103947121621e-09
-7.753004132145562e-09
-1.118634901647051e-08
-1.4228729080775696e-08
-1.317323737101833e-08
-2.000458743559544e-09
-2.849784889293214e-09
-2.143273248544961e-09
-3.0489663094819045e-09
-5.0357974600308135e-09
-8.129398712888059e-09
-1.2560994727144715e-08
-1.7307152111422866e-08
-1.844792092704328e-08
-4.293319998443206e-09
-1.7161795244675428e-09
-1.326948330489289e-09
-1.8747735135464114e-09
-3.1413968562228443e-09
-5.228778504180438e-09
-8.39793626478092e-09
-1.3026689257672842e-08
-1.3660853112632178e-08
-9.462500378678208e-09
-1.1092394766756117e-24
-4.012563082512023e-24
-7.520151584407373e-24
-1.6108630058490515e-23
-9.074464520180148e-24
-1.737079286361358e-23
-1.9193547006802754e-23
-1.393282344269006e-23
-2.088476952488981e-23
1.71617952446753e-09
1.3269483304892832e-09
1.8747735135463944e-09
3.1413968562228224e-09
5.228778504180423e-09
8.397936264780896e-09
1.3026689257672847e-08
1.3660853112632171e-08
9.462500378678205e-09
2.8497848892932082e-09
2.1432732485449504e-09
3.048966309481892e-09
5.035797460030804e-09
8.129398712888057e-09
1.2560994727144679e-08
1.7307152111422882e-08
1.8447920927043248e-08
4.2933199984432e-09
2.8931873060991137e-09
2.1485985603320104e-09
3.1467556935107254e-09
5.02510394712161e-09
7.753004132145555e-09
1.1186349016470485e-08
1.4228729080775691e-08
1.3173237371018312e-08
2.0004587435595204e-09
1.6020955224990714e-09
1.482467206894415e-09
2.116005830430103e-09
3.2001777839060495e-09
4.614600504283549e-09
6.180279048255276e-09
7.155088636695462e-09
5.901823612378923e-09
-4.849071273909387e-11
-1.6761183087430036e-09
-1.5481311672101857e-09
-2.304990525579318e-09
-3.619194919838503e-09
-5.4634505438497735e-09
-7.748891279727567e-09
-9.5965310026472e-09
-8.202268827333956e-09
-6.257060405030218e-10
-3.1051019679443584e-09
-2.265728257380607e-09
-3.4621235412738144e-09
-5.760004929004827e-09
-9.309626216302018e-09
-1.4482951665793894e-08
-2.022912210780439e-08
-2.1415051236541666e-08
-4.64382331167291e-09
-3.095891587632694e-09
-2.2957599348549267e-09
-3.388712563087577e-09
-5.822650363020867e-09
-9.884871378313236e-09
-1.6357184101819476e-08
-2.647722609282178e-08
-3.478183975647793e-08
-2.4009107230123133e-08
-1.8774248628011885e-09
-1.436515346479713e-09
-2.0983310784883704e-09
-3.655531638806323e-09
-6.37917471353823e-09
-1.1130064603814183e-08
-1.9226201638976513e-08
-3.71374062708002e-08
-2.3453211602084515e-08
5.583469134732937e-24
1.8358066540606847e-24
-9.822769774067204e-24
-1.0560493548509667e-23
-3.567216391634932e-24
-2.9115626052135073e-23
-1.764059591497365e-23
-1.6214961885634223e-23
-1.6267750747948387e-23
1.8774248628011897e-09
1.4365153464797014e-09
2.098331078488353e-09
3.6555316388063047e-09
6.3791747135382275e-09
1.1130064603814132e-08
1.9226201638976483e-08
3.7137406270800146e-08
2.345321160208446e-08
3.0958915876326856e-09
2.295759934854924e-09
3.388712563087565e-09
5.822650363020853e-09
9.884871378313233e-09
1.6357184101819463e-08
2.647722609282174e-08
3.478183975647794e-08
2.4009107230123097e-08
3.105101967944353e-09
2.265728257380603e-09
3.462123541273816e-09
5.760004929004817e-09
9.309626216302021e-09
1.4482951665793886e-08
2.02291221078044e-08
2.1415051236541656e-08
4.643823311672888e-09
1.6761183087430014e-09
1.5481311672101892e-09
2.304990525579318e-09
3.6191949198385027e-09
5.463450543849776e-09
7.748891279727564e-09
9.596531002647207e-09
8.20226882733395e-09
6.257060405030104e-10
-1.700258041736309e-09
-1.5693488224078821e-09
-2.3705362892247942e-09
-3.780581236781525e-09
-5.779662367591237e-09
-8.52013096992054e-09
-1.0508575794840711e-08
-9.35624394584862e-09
-9.408746243531658e-10
-3.1736326876915462e-09
-2.300854226685283e-09
-3.5719120637850714e-09
-6.027404674845507e-09
-9.952827934216278e-09
-1.573341878049459e-08
-2.4038210403379642e-08
-2.422140449512209e-08
-6.671152974185394e-09
-3.17458253627663e-09
-2.3424147202737487e-09
-3.504338335817955e-09
-6.118143043311744e-09
-1.0545031364646596e-08
-1.8143411931726214e-08
-2.966811985141721e-08
-5.4258762409521385e-08
-2.5458613774537286e-08
-1.9285076200430044e-09
-1.4698356976764913e-09
-2.1747686101622326e-09
-3.842280799065166e-09
-6.84291005297545e-09
-1.2165940745386191e-08
-2.3127031527661417e-08
-4.0662953670164295e-08
-1.656789767763319e-07
3.086722670485771e-25
-5.3093606708494536e-24
-6.035094554171017e-24
-7.031035206700735e-24
-1.3713665757266096e-23
-2.4559460950568925e-23
-4.360225582990684e-23
-3.8050308177439273e-23
-5.528727410489566e-23
1.9285076200430015e-09
1.4698356976764923e-09
2.174768610162217e-09
3.842280799065162e-09
6.842910052975428e-09
1.2165940745386152e-08
2.3127031527661308e-08
4.066295367016416e-08
1.6567897677633177e-07
3.17458253627662e-09
2.3424147202737396e-09
3.504338335817955e-09
6.118143043311738e-09
1.0545031364646588e-08
1.8143411931726194e-08
2.966811985141719e-08
5.425876240952133e-08
2.545861377453719e-08
3.173632687691542e-09
2.3008542266852797e-09
3.571912063785067e-09
6.027404674845511e-09
9.952827934216268e-09
1.573341878049457e-08
2.4038210403379632e-08
2.422140449512209e-08
6.671152974185345e-09
1.7002580417363088e-09
1.56934882240788e-09
2.3705362892247913e-09
3.78058123678152e-09
5.779662367591226e-09
8.520130969920533e-09
1.0508575794840706e-08
9.356243945848619e-09
9.408746243531492e-10
-1.6761183087430003e-09
-1.5481311672101871e-09
-2.3049905255793206e-09
-3.619194919838511e-09
-5.463450543849778e-09
-7.748891279727567e-09
-9.596531002647207e-09
-8.202268827333966e-09
-6.257060405030338e-10
-3.1051019679443563e-09
-2.2657282573806005e-09
-3.4621235412738115e-09
-5.760004929004837e-09
-9.309626216302023e-09
-1.44829516657939e-08
-2.0229122107804396e-08
-2.1415051236541696e-08
-4.643823311672921e-09
-3.0958915876326856e-09
-2.2957599348549243e-09
-3.3887125630875705e-09
-5.8226503630208656e-09
-9.884871378313236e-09
-1.6357184101819483e-08
-2.6477226092821783e-08
-3.4781839756477963e-08
-2.4009107230123183e-08
-1.877424862801191e-09
-1.436515346479702e-09
-2.0983310784883696e-09
-3.65553163880632e-09
-6.379174713538247e-09
-1.113006460381417e-08
-1.9226201638976526e-08
-3.713740627080018e-08
-2.3453211602084554e-08
-4.988933069460448e-24
5.523855948930591e-24
-1.0559477507122244e-23
-3.935513102803724e-24
-5.3960610272013915e-24
-2.824646608974167e-23
-1.5716431638507526e-23
-4.9068691658594447e-23
-8.74675087757126e-23
1.8774248628011835e-09
1.4365153464796993e-09
2.098331078488361e-09
3.6555316388063142e-09
6.3791747135382226e-09
1.1130064603814148e-08
1.9226201638976513e-08
3.713740627080009e-08
2.3453211602084415e-08
3.0958915876326897e-09
2.2957599348549243e-09
3.3887125630875656e-09
5.822650363020861e-09
9.884871378313234e-09
1.6357184101819473e-08
2.647722609282175e-08
3.478183975647791e-08
2.4009107230123084e-08
3.1051019679443543e-09
2.2657282573806047e-09
3.462123541273814e-09
5.760004929004825e-09
9.309626216302023e-09
1.4482951665793897e-08
2.0229122107804392e-08
2.1415051236541647e-08
4.643823311672891e-09
1.6761183087430016e-09
1.5481311672101873e-09
2.304990525579319e-09
3.619194919838508e-09
5.463450543849778e-09
7.748891279727559e-09
9.596531002647202e-09
8.202268827333956e-09
6.257060405030071e-10
-1.6020955224990704e-09
-1.4824672068944165e-09
-2.116005830430105e-09
-3.200177783906052e-09
-4.614600504283557e-09
-6.180279048255278e-09
-7.155088636695467e-09
-5.901823612378926e-09
4.849071273908016e-11
-2.893187306099118e-09
-2.1485985603320084e-09
-3.14675569351073e-09
-5.025103947121618e-09
-7.753004132145563e-09
-1.11863490164705e-08
-1.4228729080775696e-08
-1.3173237371018329e-08
-2.0004587435595597e-09
-2.849784889293212e-09
-2.143273248544954e-09
-3.0489663094818987e-09
-5.035797460030809e-09
-8.129398712888067e-09
-1.2560994727144684e-08
-1.7307152111422872e-08
-1.8447920927043278e-08
-4.2933199984432215e-09
-1.7161795244675329e-09
-1.3269483304892795e-09
-1.874773513546405e-09
-3.1413968562228328e-09
-5.228778504180441e-09
-8.397936264780904e-09
-1.3026689257672844e-08
-1.3660853112632193e-08
-9.462500378678208e-09
2.8202554232854644e-24
-1.2407709188295415e-24
2.063332750797994e-24
-5.86781247029804e-24
-9.677881304144826e-24
-7.237830359838992e-24
-1.487292598276204e-23
-3.10709717590231e-23
-2.1366358385877315e-23
1.7161795244675323e-09
1.326948330489284e-09
1.8747735135464023e-09
3.141396856222832e-09
5.228778504180424e-09
8.397936264780894e-09
1.3026689257672806e-08
1.3660853112632171e-08
9.462500378678152e-09
2.8497848892932094e-09
2.1432732485449537e-09
3.048966309481897e-09
5.035797460030814e-09
8.129398712888065e-09
1.2560994727144684e-08
1.730715211142286e-08
1.8447920927043238e-08
4.2933199984431834e-09
2.8931873060991236e-09
2.148598560332005e-09
3.1467556935107254e-09
5.025103947121619e-09
7.753004132145563e-09
1.118634901647049e-08
1.422872908077568e-08
1.3173237371018316e-08
2.0004587435595188e-09
1.6020955224990733e-09
1.4824672068944142e-09
2.1160058304301015e-09
3.2001777839060573e-09
4.6146005042835535e-09
6.1802790482552794e-09
7.155088636695462e-09
5.9018236123789205e-09
-4.849071273909581e-11
-1.4629403970043652e-09
-1.3334100153980852e-09
-1.8066500718135113e-09
-2.599027786223199e-09
-3.556343874827707e-09
-4.448148592632665e-09
-4.751809037624979e-09
-3.4562241523183626e-09
5.378098918011234e-10
-2.4959684101009356e-09
-1.8845780218686465e-09
-2.6179387247062377e-09
-3.973504824995351e-09
-5.771517221665424e-09
-7.699301674983385e-09
-8.770163569481715e-09
-7.003749992011929e-09
7.537235241921038e-10
-2.3801569963896094e-09
-1.8111140103375119e-09
-2.469334681462776e-09
-3.884416759506181e-09
-5.913854441906606e-09
-8.281541132885222e-09
-1.0016371714419458e-08
-8.484052481467737e-09
-7.508708863138112e-10
-1.4117299503743832e-09
-1.0999327648887572e-09
-1.4966361280706068e-09
-2.396254974726023e-09
-3.748309120782566e-09
-5.500666403058264e-09
-6.717869015830347e-09
-6.7299773058942805e-09
-2.3167876191237204e-10
-8.2071826401745715e-25
1.0792444444949119e-24
7.023100016854178e-25
-2.061260257455937e-24
-9.719372197498075e-24
-1.1074567531701234e-23
-1.5689979767288594e-23
-2.7980579529081087e-24
8.271806125530277e-25
1.4117299503743787e-09
1.0999327648887586e-09
1.4966361280706097e-09
2.396254974726018e-09
3.748309120782563e-09
5.500666403058248e-09
6.7178690158303375e-09
6.72997730589426e-09
2.3167876191236403e-10
2.3801569963896102e-09
1.811114010337514e-09
2.4693346814627787e-09
3.884416759506182e-09
5.91385444190661e-09
8.281541132885222e-09
1.001637171441945e-08
8.484052481467728e-09
7.508708863137998e-10
2.4959684101009323e-09
1.8845780218686473e-09
2.6179387247062373e-09
3.973504824995347e-09
5.771517221665431e-09
7.699301674983388e-09
8.770163569481708e-09
7.003749992011921e-09
-7.537235241921145e-10
1.462940397004365e-09
1.333410015398083e-09
1.806650071813511e-09
2.5990277862231977e-09
3.556343874827711e-09
4.448148592632664e-09
4.751809037624976e-09
3.4562241523183593e-09
-5.378098918011329e-10
-1.1141633912940544e-09
-1.0208463327041453e-09
-1.3116324168746269e-09
-1.8096687839985414e-09
-2.373286653340864e-09
-2.8192850148860223e-09
-2.801370900855053e-09
-1.7985921873398419e-09
6.804625158162166e-10
-1.6483630256730376e-09
-1.2647762367803873e-09
-1.6935490812382377e-09
-2.4810952681338895e-09
-3.463340506094402e-09
-4.3728173344593486e-09
-4.633683465525696e-09
-3.2395998845587166e-09
8.496458559234765e-10
-1.4898099335676279e-09
-1.1454027546268323e-09
-1.522779082043917e-09
-2.3289555885687705e-09
-3.402550489438475e-09
-4.497741274872462e-09
-4.972338716188758e-09
-3.710678234601396e-09
6.974540672404432e-10
-8.661429866680495e-10
-6.775241661004333e-10
-9.052441219859857e-10
-1.4131698695182333e-09
-2.131290966067566e-09
-2.8716883418860054e-09
-3.3483748078997043e-09
-2.4130751531694147e-09
1.7931352197261376e-10
9.01423492808494e-25
4.297461776154402e-25
5.565966667936447e-25
-1.7319094075329017e-24
-2.9323563789784102e-24
-6.384800353143682e-24
-5.6501049068596705e-24
-5.0664812518872945e-24
-1.5318642350947714e-24
8.661429866680499e-10
6.775241661004331e-10
9.052441219859863e-10
1.413169869518233e-09
2.1312909660675573e-09
2.8716883418859996e-09
3.348374807899693e-09
2.413075153169407e-09
-1.7931352197261335e-10
1.489809933567626e-09
1.1454027546268327e-09
1.5227790820439166e-09
2.328955588568769e-09
3.402550489438468e-09
4.497741274872462e-09
4.972338716188751e-09
3.710678234601389e-09
-6.974540672404471e-10
1.6483630256730388e-09
1.264776236780387e-09
1.693549081238238e-09
2.4810952681338874e-09
3.4633405060943995e-09
4.372817334459353e-09
4.633683465525694e-09
3.239599884558711e-09
-8.496458559234815e-10
1.1141633912940538e-09
1.020846332704146e-09
1.3116324168746264e-09
1.8096687839985395e-09
2.373286653340863e-09
2.819285014886027e-09
2.801370900855051e-09
1.798592187339839e-09
-6.804625158162206e-10
SCALARS disp_z float
LOOKUP_TABLE default
0.0
0.0
0.0
0.0
0.0
0.0
0.0
0.0
0.0
0.0
0.0
0.0
0.0
0.0
0.0
0.0
0.0
0.0
0.0
0.0
0.0
0.0
0.0
0.0
0.0
0.0
0.0
0.0
0.0
0.0
0.0
0.0
0.0
0.0
0.0
0.0
0.0
0.0
0.0
0.0
0.0
0.0
0.0
0.0
0.0
0.0
0.0
0.0
0.0
0.0
0.0
0.0
0.0
0.0
0.0
0.0
0.0
0.0
0.0
0.0
0.0
0.0
0.0
0.0
0.0
0.0
0.0
0.0
0.0
0.0
0.0
0.0
0.0
0.0
0.0
0.0
0.0
0.0
0.0
0.0
0.0
0.0
0.0
0.0
0.0
0.0
0.0
0.0
0.0
0.0
0.0
0.0
0.0
0.0
0.0
0.0
0.0
0.0
0.0
0.0
0.0
0.0
0.0
0.0
0.0
0.0
0.0
0.0
0.0
0.0
0.0
0.0
0.0
0.0
0.0
0.0
-4.871412177248878e-09
-8.413917939211263e-09
-1.1148405509194604e-08
-1.2827083063593155e-08
-1.3397310834930395e-08
-1.2827083063593159e-08
-1.11484055091946e-08
-8.413917939211262e-09
-4.871412177248878e-09
-8.413917939211255e-09
-1.5078016229855995e-08
-2.0222669489499873e-08
-2.3404436119391586e-08
-2.448602651649781e-08
-2.3404436119391592e-08
-2.0222669489499866e-08
-1.5078016229855992e-08
-8.413917939211258e-09
-1.1148405509194599e-08
-2.022266948949986e-08
-2.7267542417294496e-08
-3.163435933159657e-08
-3.3120162361056734e-08
-3.163435933159657e-08
-2.7267542417294506e-08
-2.022266948949987e-08
-1.1148405509194602e-08
-1.2827083063593146e-08
-2.3404436119391586e-08
-3.1634359331596586e-08
-3.67438646127304e-08
-3.8482774711444395e-08
-3.674386461273042e-08
-3.163435933159659e-08
-2.3404436119391592e-08
-1.2827083063593152e-08
-1.3397310834930389e-08
-2.4486026516497805e-08
-3.3120162361056734e-08
-3.848277471144442e-08
-4.030814652817077e-08
-3.848277471144441e-08
-3.3120162361056734e-08
-2.44860265164978e-08
-1.3397310834930395e-08
-1.2827083063593146e-08
-2.3404436119391576e-08
-3.163435933159657e-08
-3.6743864612730403e-08
-3.8482774711444415e-08
-3.674386461273041e-08
-3.163435933159659e-08
-2.3404436119391596e-08
-1.2827083063593147e-08
-1.1148405509194604e-08
-2.0222669489499863e-08
-2.72675424172945e-08
-3.163435933159657e-08
-3.312016236105674e-08
-3.163435933159659e-08
-2.7267542417294503e-08
-2.0222669489499863e-08
-1.11484055091946e-08
-8.413917939211258e-09
-1.5078016229855995e-08
-2.0222669489499863e-08
-2.3404436119391586e-08
-2.4486026516497825e-08
-2.340443611939159e-08
-2.0222669489499863e-08
-1.5078016229855995e-08
-8.413917939211257e-09
-4.871412177248876e-09
-8.413917939211257e-09
-1.11484055091946e-08
-1.282708306359315e-08
-1.3397310834930394e-08
-1.2827083063593152e-08
-1.1148405509194594e-08
-8.413917939211262e-09
-4.87141217724888e-09
-4.6559983528809815e-09
-1.0419806825064216e-08
-1.6817329386728205e-08
-2.1272221294524097e-08
-2.395633042948507e-08
-2.1272221294524097e-08
-1.6817329386728198e-08
-1.0419806825064212e-08
-4.655998352880984e-09
-1.0419806825064216e-08
-2.543876946408763e-08
-4.2141327290692465e-08
-5.75310071165178e-08
-5.729626305651543e-08
-5.75310071165178e-08
-4.214132729069247e-08
-2.5438769464087654e-08
-1.0419806825064214e-08
-1.6817329386728198e-08
-4.214132729069246e-08
-8.800724233766849e-08
-1.1152360705926469e-07
-1.578671892272309e-07
-1.1152360705926474e-07
-8.800724233766855e-08
-4.21413272906925e-08
-1.6817329386728215e-08
-2.1272221294524084e-08
-5.7531007116517786e-08
-1.1152360705926452e-07
-3.3835049363477326e-07
-1.373247942083064e-07
-3.3835049363477326e-07
-1.1152360705926469e-07
-5.7531007116517845e-08
-2.1272221294524114e-08
-2.3956330429485064e-08
-5.729626305651535e-08
-1.5786718922723082e-07
-1.3732479420830627e-07
-2.507698532061822e-06
-1.3732479420830627e-07
-1.5786718922723098e-07
-5.729626305651544e-08
-2.39563304294851e-08
-2.1272221294524077e-08
-5.753100711651779e-08
-1.1152360705926456e-07
-3.383504936347732e-07
-1.3732479420830643e-07
-3.3835049363477337e-07
-1.1152360705926473e-07
-5.753100711651787e-08
-2.1272221294524104e-08
-1.6817329386728195e-08
-4.214132729069244e-08
-8.80072423376685e-08
-1.115236070592646e-07
-1.5786718922723093e-07
-1.115236070592647e-07
-8.800724233766854e-08
-4.2141327290692504e-08
-1.6817329386728225e-08
-1.0419806825064209e-08
-2.543876946408764e-08
-4.2141327290692465e-08
-5.7531007116517786e-08
-5.729626305651541e-08
-5.753100711651783e-08
-4.21413272906925e-08
-2.5438769464087654e-08
-1.0419806825064224e-08
-4.6559983528809815e-09
-1.0419806825064217e-08
-1.6817329386728198e-08
-2.1272221294524104e-08
-2.3956330429485087e-08
-2.1272221294524094e-08
-1.681732938672821e-08
-1.0419806825064226e-08
-4.655998352880987e-09
0.0
0.0
0.0
0.0
0.0
0.0
0.0
0.0
0.0
0.0
0.0
0.0
0.0
0.0
0.0
0.0
0.0
0.0
0.0
0.0
0.0
0.0
0.0
0.0
0.0
0.0
0.0
0.0
0.0
0.0
0.0
0.0
0.0
0.0
0.0
0.0
0.0
0.0
0.0
0.0
0.0
0.0
0.0
0.0
0.0
0.0
0.0
0.0
0.0
0.0
0.0
0.0
0.0
0.0
0.0
0.0
0.0
0.0
0.0
0.0
0.0
0.0
0.0
0.0
0.0
0.0
0.0
0.0
0.0
0.0
0.0
0.0
0.0
0.0
0.0
0.0
0.0
0.0
0.0
0.0
0.0
0.0
0.0
0.0
0.0
0.0
0.0
0.0
0.0
0.0
0.0
0.0
0.0
0.0
0.0
0.0
0.0
0.0
0.0
0.0
0.0
0.0
0.0
0.0
0.0
0.0
0.0
0.0
0.0
0.0
0.0
0.0
0.0
0.0
0.0
0.0
0.0
0.0
0.0
0.0
0.0
0.0
0.0
0.0
0.0
0.0
0.0
0.0
0.0
0.0
0.0
0.0
0.0
0.0
0.0
0.0
0.0
0.0
0.0
0.0
0.0
0.0
0.0
0.0
0.0
0.0
0.0
0.0
0.0
0.0
0.0
0.0
0.0
0.0
0.0
0.0
0.0
0.0
0.0
0.0
0.0
0.0
0.0
0.0
0.0
0.0
0.0
0.0
0.0
0.0
0.0
0.0
0.0
0.0
0.0
0.0
0.0
0.0
0.0
0.0
0.0
0.0
0.0
0.0
0.0
0.0
0.0
0.0
0.0
0.0
0.0
0.0
0.0
0.0
0.0
0.0
0.0
0.0
0.0
0.0
0.0
0.0
0.0
0.0
0.0
0.0
0.0
0.0
0.0
0.0
0.0
0.0
0.0
0.0
0.0
0.0
0.0
0.0
0.0
0.0
0.0
0.0
0.0
0.0
0.0
0.0
0.0
0.0
0.0
0.0
0.0
0.0
0.0
0.0
0.0
0.0
0.0
0.0
0.0
0.0
0.0
0.0
0.0
0.0
0.0
0.0
0.0
0.0
0.0
0.0
0.0
0.0
0.0
0.0
0.0
0.0
0.0
0.0
0.0
0.0
0.0
0.0
0.0
0.0
0.0
0.0
0.0
0.0
0.0
0.0
0.0
0.0
0.0
0.0
0.0
0.0
0.0
0.0
0.0
0.0
0.0
0.0
0.0
0.0
0.0
0.0
0.0
0.0
0.0
0.0
0.0
0.0
0.0
0.0
0.0
0.0
0.0
0.0
0.0
0.0
0.0
0.0
0.0
0.0
0.0
0.0
0.0
0.0
0.0
0.0
0.0
0.0
0.0
0.0
0.0
0.0
0.0
0.0
0.0
0.0
0.0
0.0
0.0
0.0
-3.901957355178969e-09
-4.503365575637412e-09
-5.299812907838413e-09
-5.99200404559052e-09
-6.368545739493906e-09
-6.1529117323049546e-09
-5.13927906632638e-09
-3.566188685751395e-09
-2.567302688296372e-09
-7.773346571555106e-09
-8.553249267978517e-09
-9.82180031754994e-09
-1.1161030999812908e-08
-1.2238492915328732e-08
-1.257677112026643e-08
-1.1743474392629897e-08
-9.842999961965288e-09
-8.416056465505945e-09
-1.060834866571035e-08
-1.1775659102630151e-08
-1.3484007692654971e-08
-1.5510684198728548e-08
-1.7520702104655807e-08
-1.887696825883916e-08
-1.869339987989853e-08
-1.670461813465816e-08
-1.4417591420688294e-08
-1.2372687681133927e-08
-1.3825967691927613e-08
-1.591741005371285e-08
-1.8526568585879275e-08
-2.1409290395054472e-08
-2.3748720126803376e-08
-2.4206479696582643e-08
-2.185374056663971e-08
-1.9190083731788922e-08
-1.2970559547360373e-08
-1.4533124078053793e-08
-1.677384457329199e-08
-1.9619777276382567e-08
-2.2863158132751525e-08
-2.5688137447613283e-08
-2.608881967808713e-08
-2.4286416845813273e-08
-2.0262213950678924e-08
-1.2372687681133925e-08
-1.3825967691927616e-08
-1.5917410053712852e-08
-1.852656858587929e-08
-2.1409290395054486e-08
-2.374872012680341e-08
-2.420647969658267e-08
-2.1853740566639692e-08
-1.9190083731788925e-08
-1.0608348665710344e-08
-1.1775659102630148e-08
-1.348400769265496e-08
-1.551068419872855e-08
-1.7520702104655824e-08
-1.887696825883918e-08
-1.869339987989855e-08
-1.6704618134658165e-08
-1.4417591420688276e-08
-7.773346571555098e-09
-8.553249267978519e-09
-9.821800317549943e-09
-1.1161030999812915e-08
-1.2238492915328737e-08
-1.257677112026644e-08
-1.1743474392629904e-08
-9.842999961965295e-09
-8.416056465505954e-09
-3.901957355178968e-09
-4.5033655756374065e-09
-5.299812907838415e-09
-5.992004045590523e-09
-6.368545739493908e-09
-6.152911732304957e-09
-5.139279066326385e-09
-3.5661886857514e-09
-2.5673026882963738e-09
-7.773346571555088e-09
-8.553249267978519e-09
-9.821800317549941e-09
-1.116103099981291e-08
-1.2238492915328727e-08
-1.257677112026643e-08
-1.1743474392629899e-08
-9.842999961965293e-09
-8.41605646550595e-09
-1.5349612162847015e-08
-1.62554669469435e-08
-1.830146975720639e-08
-2.0928044115918737e-08
-2.364336021698426e-08
-2.573721670611286e-08
-2.6340271795713573e-08
-2.5340648586976027e-08
-2.431233024057423e-08
-2.1011481128281677e-08
-2.238207321766173e-08
-2.5151414147602788e-08
-2.9125979787494606e-08
-3.397551917467762e-08
-3.8901190984667986e-08
-4.261133734602807e-08
-4.347110722540821e-08
-4.2389977992229105e-08
-2.454428729179924e-08
-2.6286018075665996e-08
-2.9689409487777902e-08
-3.479465642191971e-08
-4.1585493506485237e-08
-4.953229577627946e-08
-5.6462131396903484e-08
-5.909130914362584e-08
-5.551017822138391e-08
-2.57440530684176e-08
-2.7631312606691486e-08
-3.128411590679522e-08
-3.68435797023259e-08
-4.443877211913235e-08
-5.373115808239061e-08
-6.280616886522796e-08
-6.290138958355959e-08
-6.449981671756483e-08
-2.4544287291799244e-08
-2.6286018075665993e-08
-2.9689409487777905e-08
-3.479465642191972e-08
-4.158549350648527e-08
-4.953229577627945e-08
-5.6462131396903484e-08
-5.909130914362583e-08
-5.55101782213839e-08
-2.1011481128281687e-08
-2.2382073217661737e-08
-2.51514141476028e-08
-2.912597978749462e-08
-3.397551917467764e-08
-3.890119098466801e-08
-4.261133734602812e-08
-4.347110722540826e-08
-4.238997799222914e-08
-1.534961216284701e-08
-1.6255466946943496e-08
-1.830146975720639e-08
-2.0928044115918743e-08
-2.3643360216984282e-08
-2.5737216706112883e-08
-2.6340271795713587e-08
-2.534064858697604e-08
-2.431233024057424e-08
-7.7733465715551e-09
-8.553249267978522e-09
-9.821800317549941e-09
-1.116103099981291e-08
-1.2238492915328735e-08
-1.2576771120266435e-08
-1.1743474392629894e-08
-9.842999961965288e-09
-8.416056465505949e-09
-1.0608348665710344e-08
-1.1775659102630148e-08
-1.348400769265496e-08
-1.551068419872855e-08
-1.7520702104655804e-08
-1.887696825883917e-08
-1.8693399879898526e-08
-1.6704618134658165e-08
-1.4417591420688293e-08
-2.1011481128281667e-08
-2.2382073217661727e-08
-2.51514141476028e-08
-2.9125979787494606e-08
-3.3975519174677644e-08
-3.8901190984667986e-08
-4.26113373460281e-08
-4.347110722540825e-08
-4.238997799222911e-08
-2.8836763601407947e-08
-3.0832710829566515e-08
-3.4579871498450273e-08
-4.058690937025715e-08
-4.903087956470036e-08
-5.977273531592354e-08
-7.104898679064856e-08
-8.047564679884879e-08
-8.467319673509892e-08
-3.373103159793101e-08
-3.622279203998952e-08
-4.0823047378581296e-08
-4.852046193074172e-08
-6.020260653465277e-08
-7.691988413820994e-08
-9.875632823347081e-08
-1.184562046436481e-07
-1.269484112059334e-07
-3.539432781834868e-08
-3.808021649687154e-08
-4.301676837091009e-08
-5.1386270846269394e-08
-6.441429172385916e-08
-8.37319294717135e-08
-1.1130486649647222e-07
-1.4324575965666164e-07
-1.2309001140387932e-07
-3.373103159793101e-08
-3.622279203998952e-08
-4.0823047378581296e-08
-4.8520461930741724e-08
-6.020260653465281e-08
-7.691988413821e-08
-9.875632823347083e-08
-1.1845620464364808e-07
-1.2694841120593344e-07
-2.8836763601407947e-08
-3.083271082956653e-08
-3.457987149845028e-08
-4.0586909370257185e-08
-4.903087956470043e-08
-5.977273531592358e-08
-7.104898679064863e-08
-8.047564679884885e-08
-8.4673196735099e-08
-2.1011481128281674e-08
-2.2382073217661727e-08
-2.51514141476028e-08
-2.9125979787494616e-08
-3.397551917467764e-08
-3.8901190984668006e-08
-4.26113373460281e-08
-4.347110722540825e-08
-4.238997799222915e-08
-1.0608348665710353e-08
-1.1775659102630148e-08
-1.348400769265496e-08
-1.551068419872854e-08
-1.7520702104655807e-08
-1.8876968258839174e-08
-1.8693399879898542e-08
-1.6704618134658178e-08
-1.4417591420688298e-08
-1.2372687681133923e-08
-1.3825967691927613e-08
-1.591741005371285e-08
-1.852656858587928e-08
-2.140929039505448e-08
-2.3748720126803386e-08
-2.4206479696582646e-08
-2.1853740566639692e-08
-1.9190083731788915e-08
-2.4544287291799244e-08
-2.6286018075665993e-08
-2.9689409487777876e-08
-3.479465642191971e-08
-4.158549350648524e-08
-4.953229577627944e-08
-5.6462131396903484e-08
-5.909130914362582e-08
-5.551017822138388e-08
-3.373103159793101e-08
-3.622279203998953e-08
-4.08230473785813e-08
-4.85204619307417e-08
-6.020260653465283e-08
-7.691988413821e-08
-9.875632823347077e-08
-1.18456204643648e-07
-1.2694841120593329e-07
-3.9482566507452433e-08
-4.256529312073477e-08
-4.819864007285842e-08
-5.803544512589935e-08
-7.410116015490236e-08
-9.963855236713065e-08
-1.405181122122138e-07
-2.003781803602698e-07
-2.56543908776269e-07
-4.143813920910431e-08
-4.4751410455444904e-08
-5.078967055634282e-08
-6.148044050678348e-08
-7.931822817650388e-08
-1.0888814059199176e-07
-1.5831150721218862e-07
-2.532967258769501e-07
-3.9472958068630755e-07
-3.948256650745244e-08
-4.256529312073475e-08
-4.81986400728584e-08
-5.803544512589935e-08
-7.41011601549024e-08
-9.963855236713067e-08
-1.4051811221221388e-07
-2.0037818036026994e-07
-2.5654390877626926e-07
-3.3731031597931006e-08
-3.6222792039989503e-08
-4.0823047378581296e-08
-4.852046193074173e-08
-6.020260653465283e-08
-7.691988413821e-08
-9.87563282334708e-08
-1.1845620464364807e-07
-1.269484112059334e-07
-2.4544287291799244e-08
-2.6286018075666e-08
-2.9689409487777902e-08
-3.479465642191973e-08
-4.1585493506485256e-08
-4.9532295776279426e-08
-5.646213139690352e-08
-5.9091309143625877e-08
-5.5510178221383955e-08
-1.2372687681133925e-08
-1.3825967691927623e-08
-1.5917410053712852e-08
-1.852656858587928e-08
-2.1409290395054486e-08
-2.3748720126803403e-08
-2.4206479696582666e-08
-2.1853740566639685e-08
-1.919008373178893e-08
-1.2970559547360356e-08
-1.453312407805379e-08
-1.6773844573291994e-08
-1.9619777276382567e-08
-2.2863158132751512e-08
-2.5688137447613266e-08
-2.6088819678087125e-08
-2.4286416845813263e-08
-2.0262213950678895e-08
-2.57440530684176e-08
-2.763131260669149e-08
-3.128411590679523e-08
-3.6843579702325895e-08
-4.443877211913235e-08
-5.373115808239061e-08
-6.280616886522792e-08
-6.290138958355952e-08
-6.449981671756479e-08
-3.539432781834868e-08
-3.808021649687152e-08
-4.301676837091006e-08
-5.138627084626937e-08
-6.441429172385914e-08
-8.373192947171347e-08
-1.113048664964722e-07
-1.4324575965666172e-07
-1.2309001140387922e-07
-4.143813920910431e-08
-4.475141045544491e-08
-5.078967055634282e-08
-6.148044050678349e-08
-7.93182281765039e-08
-1.0888814059199178e-07
-1.5831150721218862e-07
-2.5329672587694994e-07
-3.9472958068630733e-07
-4.349336872875029e-08
-4.7050739495083355e-08
-5.35220821977805e-08
-6.512745433389077e-08
-8.497136135876619e-08
-1.187538258019085e-07
-1.811711582805104e-07
-2.9871648681328427e-07
-7.334853064337323e-07
-4.143813920910432e-08
-4.475141045544492e-08
-5.0789670556342834e-08
-6.14804405067835e-08
-7.931822817650392e-08
-1.0888814059199184e-07
-1.5831150721218875e-07
-2.5329672587695015e-07
-3.947295806863074e-07
-3.539432781834869e-08
-3.8080216496871516e-08
-4.301676837091008e-08
-5.1386270846269414e-08
-6.441429172385918e-08
-8.373192947171353e-08
-1.1130486649647225e-07
-1.432457596566618e-07
-1.2309001140387938e-07
-2.5744053068417613e-08
-2.7631312606691512e-08
-3.128411590679525e-08
-3.684357970232591e-08
-4.4438772119132364e-08
-5.3731158082390614e-08
-6.280616886522793e-08
-6.290138958355957e-08
-6.449981671756483e-08
-1.2970559547360368e-08
-1.4533124078053793e-08
-1.677384457329199e-08
-1.961977727638257e-08
-2.2863158132751515e-08
-2.568813744761328e-08
-2.608881967808715e-08
-2.4286416845813286e-08
-2.0262213950678928e-08
-1.2372687681133922e-08
-1.3825967691927611e-08
-1.5917410053712845e-08
-1.8526568585879285e-08
-2.1409290395054482e-08
-2.374872012680339e-08
-2.4206479696582646e-08
-2.1853740566639672e-08
-1.9190083731788902e-08
-2.4544287291799234e-08
-2.6286018075665976e-08
-2.968940948777788e-08
-3.479465642191973e-08
-4.158549350648525e-08
-4.953229577627944e-08
-5.6462131396903484e-08
-5.9091309143625843e-08
-5.5510178221383875e-08
-3.373103159793099e-08
-3.6222792039989503e-08
-4.082304737858128e-08
-4.852046193074169e-08
-6.020260653465281e-08
-7.691988413820997e-08
-9.875632823347077e-08
-1.1845620464364799e-07
-1.269484112059333e-07
-3.948256650745243e-08
-4.256529312073475e-08
-4.819864007285842e-08
-5.803544512589936e-08
-7.410116015490239e-08
-9.963855236713061e-08
-1.405181122122138e-07
-2.0037818036026997e-07
-2.56543908776269e-07
-4.143813920910433e-08
-4.47514104554449e-08
-5.078967055634282e-08
-6.148044050678349e-08
-7.93182281765039e-08
-1.0888814059199177e-07
-1.5831150721218862e-07
-2.5329672587694994e-07
-3.9472958068630744e-07
-3.948256650745245e-08
-4.2565293120734774e-08
-4.819864007285843e-08
-5.8035445125899354e-08
-7.410116015490239e-08
-9.963855236713071e-08
-1.4051811221221388e-07
-2.0037818036026997e-07
-2.5654390877626915e-07
-3.3731031597931046e-08
-3.6222792039989537e-08
-4.0823047378581316e-08
-4.852046193074171e-08
-6.020260653465283e-08
-7.691988413821003e-08
-9.875632823347087e-08
-1.184562046436481e-07
-1.2694841120593347e-07
-2.4544287291799224e-08
-2.628601807566598e-08
-2.9689409487777882e-08
-3.479465642191973e-08
-4.158549350648527e-08
-4.953229577627945e-08
-5.646213139690351e-08
-5.909130914362587e-08
-5.5510178221383975e-08
-1.2372687681133928e-08
-1.3825967691927621e-08
-1.591741005371286e-08
-1.8526568585879295e-08
-2.1409290395054492e-08
-2.374872012680341e-08
-2.420647969658267e-08
-2.1853740566639695e-08
-1.9190083731788925e-08
-1.0608348665710351e-08
-1.1775659102630148e-08
-1.3484007692654961e-08
-1.5510684198728545e-08
-1.752070210465582e-08
-1.8876968258839168e-08
-1.869339987989854e-08
-1.670461813465817e-08
-1.4417591420688281e-08
-2.1011481128281677e-08
-2.238207321766172e-08
-2.5151414147602798e-08
-2.9125979787494597e-08
-3.397551917467761e-08
-3.890119098466798e-08
-4.261133734602809e-08
-4.347110722540823e-08
-4.238997799222912e-08
-2.883676360140794e-08
-3.0832710829566515e-08
-3.457987149845026e-08
-4.058690937025715e-08
-4.9030879564700384e-08
-5.977273531592354e-08
-7.104898679064862e-08
-8.047564679884883e-08
-8.467319673509896e-08
-3.373103159793102e-08
-3.6222792039989537e-08
-4.0823047378581296e-08
-4.8520461930741705e-08
-6.020260653465283e-08
-7.691988413821001e-08
-9.875632823347077e-08
-1.1845620464364804e-07
-1.2694841120593342e-07
-3.5394327818348693e-08
-3.808021649687152e-08
-4.301676837091006e-08
-5.138627084626939e-08
-6.441429172385914e-08
-8.373192947171351e-08
-1.1130486649647225e-07
-1.4324575965666167e-07
-1.2309001140387927e-07
-3.373103159793104e-08
-3.622279203998953e-08
-4.0823047378581296e-08
-4.8520461930741705e-08
-6.020260653465282e-08
-7.691988413821001e-08
-9.875632823347081e-08
-1.1845620464364812e-07
-1.2694841120593347e-07
-2.8836763601407944e-08
-3.083271082956651e-08
-3.457987149845027e-08
-4.058690937025717e-08
-4.90308795647004e-08
-5.977273531592355e-08
-7.104898679064863e-08
-8.047564679884888e-08
-8.467319673509899e-08
-2.1011481128281677e-08
-2.238207321766173e-08
-2.5151414147602804e-08
-2.9125979787494613e-08
-3.397551917467763e-08
-3.890119098466801e-08
-4.261133734602811e-08
-4.347110722540825e-08
-4.2389977992229145e-08
-1.060834866571034e-08
-1.1775659102630144e-08
-1.348400769265496e-08
-1.551068419872855e-08
-1.7520702104655817e-08
-1.8876968258839184e-08
-1.869339987989855e-08
-1.6704618134658178e-08
-1.4417591420688301e-08
-7.773346571555098e-09
-8.553249267978519e-09
-9.821800317549945e-09
-1.1161030999812908e-08
-1.2238492915328726e-08
-1.2576771120266433e-08
-1.1743474392629896e-08
-9.842999961965295e-09
-8.416056465505952e-09
-1.5349612162847005e-08
-1.6255466946943496e-08
-1.8301469757206387e-08
-2.092804411591873e-08
-2.3643360216984276e-08
-2.573721670611286e-08
-2.6340271795713597e-08
-2.5340648586976037e-08
-2.4312330240574234e-08
-2.1011481128281674e-08
-2.2382073217661737e-08
-2.515141414760279e-08
-2.9125979787494616e-08
-3.3975519174677624e-08
-3.890119098466801e-08
-4.2611337346028095e-08
-4.347110722540822e-08
-4.238997799222912e-08
-2.4544287291799234e-08
-2.628601807566599e-08
-2.96894094877779e-08
-3.479465642191974e-08
-4.158549350648527e-08
-4.9532295776279466e-08
-5.646213139690351e-08
-5.909130914362584e-08
-5.5510178221383895e-08
-2.5744053068417623e-08
-2.7631312606691502e-08
-3.1284115906795235e-08
-3.684357970232591e-08
-4.443877211913239e-08
-5.373115808239063e-08
-6.280616886522793e-08
-6.290138958355956e-08
-6.449981671756482e-08
-2.4544287291799247e-08
-2.628601807566599e-08
-2.9689409487777892e-08
-3.479465642191973e-08
-4.158549350648526e-08
-4.953229577627947e-08
-5.646213139690353e-08
-5.909130914362588e-08
-5.55101782213839e-08
-2.1011481128281667e-08
-2.2382073217661724e-08
-2.5151414147602794e-08
-2.9125979787494597e-08
-3.397551917467761e-08
-3.890119098466801e-08
-4.2611337346028115e-08
-4.347110722540824e-08
-4.238997799222916e-08
-1.534961216284701e-08
-1.62554669469435e-08
-1.830146975720638e-08
-2.0928044115918733e-08
-2.364336021698427e-08
-2.573721670611287e-08
-2.6340271795713583e-08
-2.5340648586976047e-08
-2.431233024057425e-08
-7.773346571555098e-09
-8.553249267978522e-09
-9.821800317549946e-09
-1.1161030999812913e-08
-1.2238492915328734e-08
-1.2576771120266433e-08
-1.17434743926299e-08
-9.8429999619653e-09
-8.416056465505955e-09
-3.9019573551789675e-09
-4.503365575637408e-09
-5.2998129078384125e-09
-5.992004045590523e-09
-6.36854573949391e-09
-6.152911732304958e-09
-5.139279066326386e-09
-3.5661886857513975e-09
-2.5673026882963734e-09
-7.773346571555101e-09
-8.553249267978522e-09
-9.821800317549945e-09
-1.1161030999812913e-08
-1.2238492915328732e-08
-1.2576771120266438e-08
-1.1743474392629897e-08
-9.842999961965293e-09
-8.416056465505955e-09
-1.0608348665710343e-08
-1.1775659102630143e-08
-1.3484007692654965e-08
-1.5510684198728545e-08
-1.7520702104655824e-08
-1.887696825883918e-08
-1.869339987989854e-08
-1.6704618134658165e-08
-1.4417591420688283e-08
-1.237268768113392e-08
-1.382596769192762e-08
-1.5917410053712852e-08
-1.852656858587929e-08
-2.1409290395054495e-08
-2.374872012680341e-08
-2.4206479696582666e-08
-2.1853740566639692e-08
-1.9190083731788915e-08
-1.2970559547360361e-08
-1.4533124078053795e-08
-1.6773844573291998e-08
-1.9619777276382577e-08
-2.2863158132751515e-08
-2.5688137447613276e-08
-2.6088819678087135e-08
-2.428641684581328e-08
-2.0262213950678918e-08
-1.2372687681133923e-08
-1.3825967691927614e-08
-1.5917410053712852e-08
-1.8526568585879288e-08
-2.1409290395054492e-08
-2.3748720126803403e-08
-2.4206479696582676e-08
-2.1853740566639702e-08
-1.919008373178894e-08
-1.060834866571034e-08
-1.177565910263014e-08
-1.3484007692654956e-08
-1.551068419872854e-08
-1.752070210465581e-08
-1.887696825883918e-08
-1.8693399879898546e-08
-1.6704618134658165e-08
-1.4417591420688286e-08
-7.773346571555104e-09
-8.55324926797852e-09
-9.821800317549946e-09
-1.1161030999812903e-08
-1.2238492915328732e-08
-1.257677112026643e-08
-1.17434743926299e-08
-9.842999961965292e-09
-8.41605646550596e-09
-3.90195735517897e-09
-4.50336557563741e-09
-5.2998129078384125e-09
-5.992004045590525e-09
-6.368545739493908e-09
-6.152911732304962e-09
-5.139279066326386e-09
-3.5661886857514013e-09
-2.567302688296379e-09
SCALARS von_mises_stress float
LOOKUP_TABLE default
0.012701664877960919
0.012701672914787453
0.012701680985656228
0.012701672914854297
0.03662227407071073
0.03662227673015885
0.03662227938873695
0.036622276747539484
0.05988975190519929
0.09750476480289637
0.12383911747966857
0.13964788435205075
0.14494593483380458
0.13964788090047126
0.12383911032694941
0.09750475742554468
0.05988975009450415
0.05988975141237819
0.09750476054363955
0.12383911047925275
0.13964787545518695
0.14494592527157216
0.13964787200334583
0.1238391033247063
0.09750475316827927
0.05988974959102616
0.05988974960018472
0.0975047531752215
0.12383910332234081
0.13964787200532106
0.14494592528442815
0.13964787545811425
0.12383911047549723
0.0975047605505699
0.059889751417515985
0.05988975007761884
0.09750475745229141
0.12383911031041434
0.13964788090530164
0.14494593484973128
0.13964788436137235
0.12383911749634377
0.09750476480693614
0.059889751898358164
0.09635634153576494
0.1781843787615783
0.2627691273693078
0.3280957145379062
0.35648449255825904
0.3280956986224876
0.2627691020916776
0.17818435885115916
0.09635633769783912
0.09635633541264699
0.17818435916787367
0.26276908819213
0.32809565279823294
0.35648442023354016
0.32809563688857624
0.26276906290641433
0.17818433925816668
0.0963563315627984
0.09635633156148443
0.17818433926658034
0.262769062923135
0.32809563688641347
0.3564844202409506
0.3280956528058545
0.26276908820192074
0.17818435917349493
0.0963563353975257
0.09635633769807131
0.1781843588705107
0.26276910208159626
0.3280956986540067
0.35648449256693726
0.3280957145351382
0.26276912736390706
0.17818437874723697
0.09635634151951135
0.0040121285230822375
0.0033649396168757514
0.0034560839817616594
0.004232374486796658
0.005785813981877655
0.007938466213546005
0.010138780331749685
0.011634147366797472
0.013264366445150328
0.004012135495528574
0.0033649483366090904
0.0034560955641489304
0.00423238914158779
0.005785830701674007
0.007938482939467424
0.010138794311030212
0.011634155634355934
0.01326436925961603
0.004012142495811827
0.003364957030190015
0.0034561071857798524
0.0042324037918865945
0.00578584742368722
0.007938499698581127
0.010138808286860966
0.01163416389372324
0.013264372116325761
0.004012135485675587
0.003364948335661944
0.0034560955894230674
0.00423238913964215
0.005785830716045564
0.007938482959613012
0.010138794309367887
0.011634155641937906
0.013264369258497468
0.06354872814805244
0.07642404610692906
0.09138071652432825
0.10018365015697304
0.10309361748551482
0.1001836484365352
0.09138071259372288
0.0764240417453494
0.06354872943647487
0.07642404612199709
0.06047338230193695
0.064514559725423
0.06956847211392232
0.07152759795799882
0.06956847155693685
0.06451455976442051
0.060473386351486406
0.07642405147541272
0.09138071652640271
0.06451455972070427
0.06549056173306878
0.07162460041472582
0.07435083644837738
0.07162460017977171
0.06549056385309023
0.06451456831439241
0.09138072381077096
0.10018365016594503
0.06956847211296148
0.07162460041252623
0.07980209280006789
0.08338910377608477
0.07980209235769638
0.07162460268945496
0.06956848216354111
0.10018365860191611
0.10309361747923775
0.07152759797704523
0.0743508364436435
0.08338910377600639
0.08729885112707358
0.08338910323119202
0.07435083859440456
0.07152760833158127
0.10309362630508899
0.10018364844181159
0.06956847155212653
0.07162460016946313
0.07980209236065962
0.08338910323208844
0.07980209192694633
0.07162460244392035
0.06956848159298175
0.10018365688161004
0.09138071258952071
0.06451455975060816
0.06549056384862731
0.07162460268121715
0.07435083859492837
0.0716246024461654
0.06549056597010411
0.06451456834637342
0.09138071986842243
0.07642404176929118
0.06047338634596904
0.06451456831088478
0.06956848215601762
0.07152760831823361
0.06956848160630642
0.06451456835063718
0.06047339038634448
0.07642404711479722
0.06354872943123292
0.07642405145284205
0.09138072380383862
0.10018365859966623
0.1030936263161651
0.10018365688868089
0.09138071986323944
0.07642404711147485
0.06354873071039328
0.11137045838199007
0.16137239091586414
0.2249877195944116
0.2768898741257629
0.2853893912644692
0.2768898644916832
0.2249876962909105
0.16137237231071214
0.11137045759288511
0.16137239092214398
0.19257827584429274
0.2742545046452802
0.339459076494964
0.4361340093632186
0.3394590471466579
0.2742544751774161
0.19257825441778056
0.1613723912812748
0.2249877195990081
0.27425450465214046
0.3991858097592317
0.7681367267286908
0.5056008193774278
0.768136771148576
0.3991857118577296
0.27425444253754555
0.22498771292445496
0.2768898741320532
0.3394590764982509
0.7681367267453193
0.9909968593425806
6.798429242392379
0.9909964662837439
0.7681358640183673
0.33945899548794184
0.2768898532458502
0.28538939125595897
0.4361340093685794
0.5056008193814466
6.798429242400655
10.67909867935987
6.798414930640536
0.5056013182193105
0.4361337855543543
0.28538935923082676
0.2768898644919875
0.3394590471514998
0.7681367711426098
0.9909964662938707
6.798414930651547
0.9909960732304278
0.7681359084173116
0.33945896614588345
0.2768898436065926
0.22498769629401547
0.27425447517667495
0.39918571185704627
0.7681358640169368
0.5056013182129778
0.7681359084056177
0.3991856139530033
0.27425441305694354
0.22498768962131038
0.16137237230990176
0.1925782544227123
0.2742544425339665
0.3394589954875664
0.43613378556109716
0.3394589661412005
0.2742544130527076
0.1925782329826201
0.16137237266409912
0.11137045758466178
0.161372391278227
0.22498771292461375
0.27688985324294274
0.2853893592303858
0.27688984360767366
0.22498768961660454
0.1613723726603757
0.1113704567929869
0.04133395659123386
0.04455818273252124
0.05204000315429035
0.06066530058344476
0.06862936853517264
0.07305570944111038
0.06977244238177445
0.055572050583251965
0.044715163468715485
0.07787129026974084
0.08308575910488869
0.09527551657092474
0.11106019515678087
0.1280702504573292
0.14192367116264476
0.14527743799252443
0.13042344875096196
0.11282601167358881
0.10477969292294499
0.11334656261955256
0.12969886062636252
0.15245198227613832
0.18006967189544998
0.2078636945557193
0.2250832550424539
0.21666306933903842
0.19091618427085466
0.1213059308133372
0.13255041488312472
0.15232367602216423
0.1806817687324861
0.2175728748178051
0.25875614737404434
0.29073922864560464
0.28927015923831023
0.25750299202590965
0.1268805920795817
0.1391464203497134
0.16024850178512154
0.19082077101957132
0.23148018593835426
0.27878988421704304
0.31621159975432817
0.32043997948113495
0.2830074798711293
0.12130592724892791
0.13255041074065793
0.15232367109012737
0.1806817625230316
0.21757286649054855
0.2587561357433716
0.29073921361888994
0.28927014177615745
0.2575029766953855
0.10477968493648274
0.1133465534096458
0.12969884991001684
0.152451969163238
0.180069655046463
0.20786367265694605
0.22508322804474776
0.21666304061225466
0.19091615891898694
0.07787128164171782
0.08308574964641947
0.09527550586478824
0.1110601825106859
0.1280702351788986
0.14192365284004102
0.14527741717029308
0.13042342761717618
0.11282599305991414
0.04133395581587518
0.04455818182742147
0.052040001942032676
0.06066529907392714
0.06862936678604509
0.073055707604938
0.06977244076655044
0.05557204963595224
0.0447151629068376
0.04133395365083716
0.044558183629373624
0.052040005872052465
0.06066530437583305
0.06862937281650422
0.07305571310966316
0.06977244321210911
0.05557204387997186
0.04471514591191986
0.07787128539259269
0.08308576042669726
0.09527552054394367
0.11106020053872014
0.12807025639340966
0.14192367592083266
0.14527743773032278
0.13042343578461962
0.11282597887420007
0.1047796863965638
0.1133465645239198
0.1296988659396453
0.15245198958991085
0.18006968025299408
0.20786370154560133
0.22508325427990025
0.21666304795281055
0.19091612881865966
0.12130592317192677
0.1325504172101638
0.15232368235980678
0.1806817775722159
0.21757288533427768
0.2587561566161271
0.2907392268895801
0.2892701259689918
0.2575029100069485
0.12688058407419156
0.1391464228096348
0.1602485085063226
0.1908207804458312
0.23148019735457856
0.2787898946023288
0.31621159688764106
0.32043993919168345
0.28300738349265264
0.12130591964748756
0.13255041306787155
0.1523236774229658
0.18068177137113398
0.21757287699957395
0.2587561449938382
0.2907392118502345
0.28927010851125373
0.2575028946576649
0.1047796784212576
0.11334655531449112
0.12969885525287983
0.15245197648067832
0.1800696633964384
0.20786367965221544
0.2250832272754936
0.2166630192388708
0.1909161034748262
0.07787127676725854
0.0830857509539516
0.09527550982319921
0.11106018792513793
0.12807024112479293
0.14192365759519998
0.14527741689810253
0.13042341465252585
0.11282596026805546
0.04133395288624678
0.044558182757511236
0.05204000467891024
0.06066530287522504
0.06862937103453562
0.07305571127417801
0.06977244160207487
0.05557204294053265
0.04471514534185688
0.041333952885128956
0.04455818275255404
0.05204000468344907
0.06066530288082228
0.06862937105586207
0.07305571127371109
0.06977244159441841
0.05557204292730708
0.044715145339098185
0.07787127677013274
0.08308575096761654
0.09527550983929027
0.11106018791263166
0.1280702411162191
0.14192365759623304
0.14527741690376733
0.1304234146518236
0.11282596027160136
0.10477967841095442
0.11334655532892281
0.1296988552435855
0.15245197648887449
0.1800696633985098
0.2078636796605302
0.22508322727600352
0.2166630192336522
0.1909161034696567
0.12130591962857207
0.13255041306695073
0.15232367743043584
0.1806817713675903
0.21757287700580527
0.2587561449895052
0.29073921186246265
0.289270108506997
0.25750289467434917
0.1268805840754991
0.13914642282739612
0.16024850850022843
0.190820780453262
0.2314801973622709
0.27878989460969067
0.3162115968858342
0.3204399391876685
0.2830073834911068
0.1213059231959591
0.132550417210648
0.15232368236641192
0.18068177757880274
0.21757288533651564
0.258756156618087
0.2907392268920464
0.28927012597084445
0.25750291000604086
0.10477968639714932
0.11334656454319841
0.1296988659623119
0.15245198960065728
0.1800696802502599
0.20786370155910863
0.22508325427796408
0.21666304796247565
0.19091612882548198
0.077871285400338
0.08308576042774726
0.09527552055345716
0.11106020056127347
0.1280702564015806
0.1419236759210654
0.14527743772940535
0.13042343579172846
0.11282597888882084
0.041333953658902994
0.04455818366282834
0.05204000589848986
0.06066530439783301
0.06862937280686122
0.07305571311604668
0.06977244321396457
0.05557204388314739
0.044715145902715574
0.041333955805094115
0.044558181836163516
0.05204000193084618
0.06066529906271689
0.06862936677564234
0.0730557076319304
0.06977244076357986
0.05557204962767785
0.04471516289916739
0.07787128164008597
0.08308574963795605
0.09527550585833006
0.11106018249643877
0.12807023518628652
0.14192365285544217
0.14527741716660045
0.13042342763267106
0.11282599305302142
0.1047796849302093
0.11334655338535102
0.12969884990946173
0.15245196917497814
0.1800696550374689
0.20786367263664848
0.22508322803775868
0.21666304060721514
0.19091615893739966
0.12130592725125872
0.13255041074978863
0.15232367107786182
0.18068176251669174
0.2175728664825155
0.2587561357381499
0.29073921361221056
0.28927014178018995
0.257502976708759
0.12688059209129712
0.1391464203830072
0.16024850176673786
0.1908207710216391
0.23148018594074474
0.27878988420057194
0.31621159974479635
0.32043997948532976
0.28300747987002906
0.12130593081512273
0.13255041490112837
0.15232367602168403
0.18068176870887462
0.21757287481518892
0.25875614736608893
0.29073922863976476
0.2892701592405847
0.2575029920081578
0.10477969293134458
0.11334656263946125
0.12969886066153938
0.15245198228353352
0.18006967190586332
0.20786369456080853
0.22508325505013588
0.2166630693205083
0.19091618428005394
0.07787129028010296
0.08308575913059273
0.09527551658684505
0.11106019516157849
0.128070250458649
0.1419236711566781
0.1452774380029687
0.13042344874827944
0.11282601168005943
0.04133395658517267
0.04455818273561634
0.0520400031566126
0.0606653005900607
0.06862936853131424
0.07305570944105444
0.06977244237179223
0.05557205059085348
0.044715163456073743
0.04502541307213579
0.06101667494119548
0.07459599257073787
0.08768772488123387
0.09903678917900806
0.10467818038160287
0.09734286801788875
0.06699619487560217
0.023967391503567012
0.06622410275899322
0.08902219587756811
0.10781710638684168
0.1275385356657336
0.14776350033256364
0.16358145566524973
0.16352522691973778
0.13058010440352447
0.06606074132103275
0.08619034491047253
0.11529970927975054
0.138603635012934
0.16598953928238566
0.19812064826930195
0.22963021890141988
0.24517995224752112
0.21546164114272964
0.12533919834059026
0.09922536444940828
0.13293024765798908
0.15978020172452143
0.1934690496133642
0.23640506860505225
0.28422673662107056
0.3170626122517676
0.29537607729081905
0.1770550468946737
0.10369141761461304
0.13911391108682014
0.16734228824890035
0.20347566917256082
0.25121750931186965
0.3056022560234217
0.3498337170221125
0.32461967797899016
0.2077793721639395
0.09922536203822395
0.1329302449508381
0.15978019850449915
0.19346904509631785
0.23640506161384092
0.2842267259878026
0.3170625965602395
0.2953760607559171
0.17705503144117757
0.08619033913176873
0.11529970216676608
0.13860362650131244
0.16598952784293833
0.1981206318279133
0.22963019511922475
0.2451799210008572
0.2154616078400056
0.12533917658610824
0.06622409745006216
0.0890221885358605
0.10781709762736172
0.1275385245573325
0.14776348560402328
0.1635814361285398
0.1635252030374657
0.1305800802326973
0.06606072633367024
0.045025414357003087
0.0610166752626422
0.07459599294495192
0.08768772526858246
0.09903678948472648
0.10467818036246632
0.09734286752116943
0.06699619400315288
0.023967392017716884
0.06622410273350936
0.08902219586476101
0.10781710638897926
0.12753853566207984
0.14776350033066532
0.16358145566685736
0.16352522692903992
0.1305801044069404
0.06606074131580679
0.0655569840050701
0.09725810070037827
0.12331458794743931
0.15042438515349363
0.18180264099361737
0.21292713506808092
0.2285654416546365
0.19553738970892995
0.09209389728913975
0.07316474136885406
0.10915696677762808
0.14089816603983848
0.17784037798835964
0.22535865386858953
0.2811235027355617
0.3254683050442461
0.3121298352955669
0.17622853359117358
0.0812430207289485
0.11900801553243466
0.1543108873874997
0.19941322773921893
0.2628537023067174
0.34502258031047983
0.42983352348719694
0.44572682202673003
0.3040032971996916
0.0843808110100999
0.12277895726742316
0.15931623943432952
0.2077182258931817
0.27774192070059367
0.3749959463816337
0.47533039703574315
0.5422516286417127
0.33886323708980526
0.08124302092765838
0.1190080169063576
0.15431088860958883
0.19941322753640403
0.2628536991827517
0.34502257180762197
0.4298335081116324
0.44572679315317476
0.30400327605536104
0.07316474228833311
0.10915696820946605
0.14089816581846729
0.17784037397100974
0.22535864261552152
0.2811234787220158
0.32546826230860604
0.3121297793197755
0.17622849487778894
0.0655569888993765
0.09725810211404876
0.12331458720803447
0.15042438155403132
0.18180263201873498
0.21292711706274567
0.22856541142707162
0.19553735193307414
0.09209387191310311
0.06622410617266307
0.08902219767527353
0.10781710860139368
0.1275385381080966
0.1477635024711644
0.16358145647294858
0.1635252251099082
0.13058009896170458
0.06606073556597
0.08619034492622085
0.11529970926569984
0.13860363501609438
0.16598953927117155
0.19812064826923964
0.2296302189008058
0.2451799522517205
0.2154616411352111
0.12533919835780996
0.07316474136798701
0.10915696678454959
0.14089816603350142
0.17784037798012303
0.22535865386983775
0.2811235027332867
0.3254683050481967
0.312129835293613
0.17622853359297883
0.06758756479989121
0.10437418895823465
0.14364082674463416
0.1944290973471371
0.2653498662068099
0.35797254586651783
0.456800427379574
0.48670084030009775
0.3147206888289316
0.06864342743615792
0.1023787318726232
0.14606000492147145
0.20905529078937404
0.3037569439140897
0.44255327951483125
0.6121141932968158
0.761985331927678
0.6166740018715532
0.06977700950006095
0.10204572677971704
0.1471265906408744
0.215064573826668
0.3208486793928714
0.4821942545583496
0.7215757997056708
0.8995376240755348
1.1245925542297366
0.06864343230086951
0.10237874012069076
0.14606001281914646
0.20905529623082544
0.30375694489926525
0.4425532734456249
0.6121141690438703
0.7619852760247809
0.61667389972384
0.06758757547695174
0.10437420228930379
0.14364083727413934
0.19442910200493363
0.26534986026135826
0.35797251886265635
0.4568003563284353
0.486700702983482
0.31472052208899803
0.07316475493420874
0.10915697656781906
0.14089817297791923
0.1778403808972706
0.22535864877784606
0.2811234815462042
0.3254682578594118
0.3121297547665918
0.17622844893029346
0.08619034942123119
0.11529971199906543
0.1386036384540923
0.1659895430147553
0.1981206513930828
0.22963021942870201
0.2451799468424542
0.2154616262546173
0.12533917732077227
0.0992253644437232
0.13293024765920133
0.15978020173362256
0.1934690496161354
0.2364050686122694
0.2842267366155762
0.31706261225865695
0.2953760772835791
0.17705504689820303
0.08124302073690269
0.11900801552226493
0.1543108873750637
0.19941322775041365
0.2628537023098715
0.34502258029517147
0.42983352348489035
0.4457268220350257
0.30400329721126923
0.0686434274367203
0.10237873186052195
0.14606000492006055
0.20905529079630827
0.30375694391670127
0.4425532795172298
0.6121141932910887
0.7619853319273198
0.616674001869045
0.06471083653684877
0.08928330813210299
0.13855763943080968
0.2185326105333905
0.3471148378011615
0.5571180403755117
0.8906973344960554
1.2482493997325095
1.6007048392354786
0.06423578686501442
0.08439147312644502
0.13564261328759447
0.22291732937964576
0.36790519926711235
0.6187203310577899
1.0830018635780005
1.932406541253207
2.186677391634305
0.06471084547939726
0.08928332388721302
0.13855765376937226
0.21853262042389454
0.3471148405874829
0.5571180283020514
0.8906972857748054
1.2482491840290846
1.6007039910727119
0.0686434448215503
0.1023787551233678
0.14606002429506632
0.2090553019026453
0.3037569400999604
0.4425532446396372
0.6121140779619144
0.7619850017364423
0.6166733620215819
0.0812430385459267
0.11900803051802206
0.1543108994245704
0.19941323475270548
0.26285369853462515
0.34502255320721603
0.42983344604748785
0.44572666835664904
0.304003080738798
0.09922536950996733
0.1329302509113525
0.1597802059315005
0.19346905419844287
0.2364050723871598
0.2842267365682723
0.31706260201877623
0.2953760468440695
0.17705499840075592
0.10369141762562765
0.139113911084161
0.16734228824317393
0.20347566917522464
0.2512175093209253
0.30560225602900304
0.34983371702764576
0.3246196779820199
0.2077793721631449
0.08438081100664789
0.12277895727611025
0.15931623943429002
0.2077182258964167
0.27774192069920145
0.3749959463861418
0.4753303970392512
0.5422516286374314
0.33886323711144883
0.0697770094963269
0.10204572678321544
0.14712659064288963
0.21506457382722247
0.3208486793932181
0.48219425456411924
0.7215757997064361
0.8995376240864703
1.1245925542296074
0.06423578686767256
0.08439147312540825
0.1356426132928784
0.22291732938160633
0.367905199265097
0.618720331059296
1.0830018635797898
1.932406541254801
2.1866773916397757
0.06319331394053951
0.07732629016510023
0.1310021542108542
0.22698010264483381
0.39143658136439163
0.7036480503554574
1.368364492163287
3.4737392653182213
10.26489269428773
0.06423579728437268
0.08439149235343583
0.13564263036419058
0.22291734084895645
0.36790520153850753
0.618720311732628
1.083001763910013
1.9324061761245686
2.186674767878839
0.0697770290230526
0.10204575377740821
0.1471266133923848
0.21506458713496046
0.32084867591435123
0.48219421226359627
0.7215756643206072
0.8995371154385856
1.1245907249475058
0.08438083005122103
0.12277897397949097
0.15931625324470744
0.20771823426581465
0.277741917036312
0.3749959155783925
0.4753303060159256
0.5422513756813746
0.33886302894411874
0.10369142287985411
0.1391139145048577
0.1673422927052449
0.2034756740773517
0.2512175132405765
0.3056022560499967
0.3498337038601187
0.32461963477322603
0.20777930722531124
0.09922536206687783
0.13293024496115857
0.15978019849361103
0.19346904509752158
0.23640506161102684
0.284226725982996
0.31706259657355407
0.2953760607578244
0.17705503145189014
0.08124302093311578
0.11900801689782459
0.15431088861930634
0.19941322753742538
0.2628536991840825
0.34502257180415596
0.4298335081128653
0.4457267931659525
0.30400327605556954
0.06864343230620579
0.102378740119498
0.14606001281175332
0.20905529623138439
0.30375694489539873
0.4425532734430428
0.6121141690333413
0.7619852760265451
0.6166738997158131
0.06471084547899185
0.08928332388448823
0.13855765377156806
0.21853262041904226
0.3471148405863297
0.5571180283050928
0.8906972857727945
1.2482491840306484
1.6007039910654624
0.06423579728043999
0.08439149234941346
0.1356426303611447
0.22291734084848044
0.3679052015424897
0.6187203117356099
1.0830017639031182
1.932406176122672
2.186674767876659
0.06471085441782891
0.0892833396377201
0.1385576681159873
0.21853263031216844
0.3471148433798356
0.5571180162272421
0.8906972370543622
1.2482489683324416
1.6007031429048717
0.06864344969408853
0.10237876337312701
0.14606003218912014
0.20905530733620875
0.30375694107619616
0.44255323856722273
0.612114053704599
0.7619849458349459
0.616673259872509
0.08124303873927226
0.11900803189314871
0.1543109006675565
0.1994132345426663
0.26285369540920334
0.34502254471533333
0.4298334306790464
0.4457266394866108
0.3040030595789633
0.0992253671290784
0.13293024821315733
0.15978020269162957
0.19346904967792658
0.23640506539094922
0.28422672593941584
0.3170625863314561
0.29537603031776444
0.17705498295185124
0.08619033914587625
0.11529970218639497
0.13860362649144517
0.16598952785091198
0.198120631832174
0.2296301951327366
0.24517992100483052
0.21546160785359045
0.12533917658794747
0.0731647422955829
0.1091569682163905
0.1408981658264061
0.17784037395534602
0.22535864261056196
0.281123478725425
0.3254682622990682
0.3121297793273818
0.17622849488776562
0.06758757547246103
0.10437420229192818
0.14364083727876023
0.1944291020109061
0.2653498602604608
0.3579725188546059
0.456800356332627
0.4867007029772405
0.31472052209086687
0.06864344481754157
0.10237875511663128
0.14606002429851628
0.2090553019007548
0.3037569400900236
0.4425532446366469
0.6121140779501001
0.7619850017298146
0.6166733620297119
0.06977702902722138
0.1020457537664082
0.14712661339288183
0.21506458713963156
0.32084867590255695
0.48219421226352593
0.7215756643181791
0.8995371154372199
1.1245907249446727
0.06864344969594505
0.102378763364545
0.14606003217554894
0.20905530733609495
0.30375694106976303
0.44255323855782047
0.6121140537022602
0.7619849458279527
0.6166732598693597
0.06758758616252857
0.1043742156115274
0.14364084781059402
0.19442910667344915
0.26534985429207536
0.3579724918356708
0.45680028528409294
0.48670056565587017
0.31472035536099
0.07316475585289914
0.10915697800509407
0.14089817276585456
0.17784037687938187
0.2253586375217057
0.2811234575347535
0.3254682151155178
0.3121296987982356
0.17622841022120866
0.08619034364280534
0.11529970491668119
0.13860362992988046
0.16598953159250868
0.19812063496173923
0.2296301956633908
0.2451799155957683
0.21546159297078465
0.12533915554939698
0.06622409743516137
0.08902218853048104
0.10781709760873649
0.12753852455368642
0.1477634856105523
0.1635814361234988
0.163525203047318
0.1305800802327203
0.06606072633047139
0.06555698890097807
0.09725810211087162
0.12331458720262636
0.15042438156121543
0.18180263200681474
0.21292711706518194
0.22856541142878853
0.1955373519252303
0.09209387190659252
0.07316475492659058
0.10915697656381165
0.14089817297144572
0.17784038089894205
0.2253586487810535
0.28112348154349864
0.3254682578560525
0.3121297547690496
0.1762284489267331
0.08124303854142977
0.11900803052366471
0.15431089941316004
0.19941323477188705
0.2628536985247137
0.34502255319793235
0.4298334460462308
0.44572666835200625
0.3040030807418367
0.08438083005502525
0.12277897397465345
0.1593162532446301
0.2077182342603845
0.2777419170274264
0.37499591557474554
0.4753303060077576
0.5422513756765716
0.33886302895147763
0.08124303871718166
0.11900803187124272
0.1543109006601528
0.19941323454748044
0.26285369540040004
0.34502254471447324
0.4298334306725945
0.44572663948275093
0.3040030595959352
0.07316475584515239
0.10915697799635636
0.14089817275380384
0.1778403768630712
0.22535863751345742
0.28112345752617957
0.32546821511771107
0.312129698788396
0.1762284102147709
0.06555699376987341
0.09725810352724423
0.12331458647050689
0.15042437795899724
0.18180262302558553
0.21292709906814014
0.2285653812059884
0.19553731415087897
0.09209384651033328
0.06622410087133726
0.08902219034843484
0.10781709983459468
0.12753852700040913
0.14776348774569023
0.1635814369285368
0.16352520122372188
0.13058007478621475
0.06606072057292145
0.04502541436119282
0.06101667525399814
0.07459599295030486
0.08768772526147457
0.09903678948965718
0.10467818036119236
0.09734286751360997
0.06699619400635391
0.02396739201665017
0.06622410616291251
0.0890221976548959
0.10781710859140241
0.12753853810791746
0.14776350245439948
0.16358145645990435
0.16352522510656814
0.13058009895830044
0.0660607355570337
0.08619034940158991
0.11529971199549886
0.1386036384413606
0.1659895430097373
0.19812065139481216
0.22963021942225578
0.2451799468439802
0.21546162625728407
0.12533917729877728
0.09922536951526105
0.13293025089203472
0.15978020591806616
0.1934690541951484
0.23640507238343147
0.28422673655902525
0.31706260201588643
0.29537604684557406
0.17705499839134814
0.10369142286087753
0.13911391450479205
0.1673422927086432
0.2034756740704958
0.251217513244516
0.30560225605279323
0.34983370385946566
0.32461963475756417
0.20777930723542798
0.09922536713053932
0.13293024820405125
0.15978020268494256
0.19346904967737139
0.23640506537243003
0.28422672594145565
0.3170625863225495
0.29537603031685056
0.17705498295098035
0.08619034363988375
0.11529970492844265
0.13860362992460573
0.16598953158372529
0.19812063495379834
0.22963019565739853
0.24517991559097893
0.21546159297511988
0.12533915554175395
0.06622410085847556
0.08902219033921333
0.10781709981583051
0.127538527005782
0.14776348773030407
0.16358143692695415
0.16352520122312086
0.13058007478764896
0.06606072057109445
0.045025415649414834
0.0610166755698298
0.07459599331416762
0.08768772568479188
0.09903678977920435
0.10467818035928636
0.09734286700890828
0.0669961931399068
0.02396739251886476
