# vtk DataFile Version 2.0
Generated Volume Mesh
ASCII
DATASET UNSTRUCTURED_GRID
POINTS 363 float
-10.0 -10.0 0.0
10.0 -10.0 0.0
10.0 10.0 0.0
-10.0 10.0 0.0
-7.999999999997542 -10.0 0.0
-6.000000000001744 -10.0 0.0
-4.000000000008165 -10.0 0.0
-2.000000000014513 -10.0 0.0
-1.232614010859834e-11 -10.0 0.0
1.999999999990138 -10.0 0.0
3.999999999992603 -10.0 0.0
5.999999999995069 -10.0 0.0
7.999999999997534 -10.0 0.0
10.0 -7.999999999997542 0.0
10.0 -6.000000000001744 0.0
10.0 -4.000000000008165 0.0
10.0 -2.000000000014513 0.0
10.0 -1.232614010859834e-11 0.0
10.0 1.999999999990138 0.0
10.0 3.999999999992603 0.0
10.0 5.999999999995069 0.0
10.0 7.999999999997534 0.0
7.999999999997542 10.0 0.0
6.000000000001744 10.0 0.0
4.000000000008165 10.0 0.0
2.000000000014513 10.0 0.0
1.232614010859834e-11 10.0 0.0
-1.999999999990138 10.0 0.0
-3.999999999992603 10.0 0.0
-5.999999999995069 10.0 0.0
-7.999999999997534 10.0 0.0
-10.0 7.999999999997542 0.0
-10.0 6.000000000001744 0.0
-10.0 4.000000000008165 0.0
-10.0 2.000000000014513 0.0
-10.0 1.232614010859834e-11 0.0
-10.0 -1.999999999990138 0.0
-10.0 -3.999999999992603 0.0
-10.0 -5.999999999995069 0.0
-10.0 -7.999999999997534 0.0
-7.99999999999754 -7.999999999997536 0.0
-7.99999999999754 -5.999999999995737 0.0
-7.999999999997538 -3.999999999994159 0.0
-7.999999999997538 -1.999999999992574 0.0
-7.999999999997538 9.86055681551079e-12 0.0
-7.999999999997538 2.000000000012074 0.0
-7.999999999997536 4.000000000006609 0.0
-7.999999999997534 6.000000000001079 0.0
-7.999999999997536 7.999999999997542 0.0
-6.000000000001078 -7.999999999997536 0.0
-6.000000000000409 -5.999999999996401 0.0
-5.999999999999742 -3.999999999995715 0.0
-5.999999999999075 -1.999999999995012 0.0
-5.999999999998407 7.395861700842943e-12 0.0
-5.999999999997739 2.000000000009637 0.0
-5.999999999997071 4.000000000005052 0.0
-5.999999999996403 6.000000000000409 0.0
-5.999999999995736 7.999999999997542 0.0
-4.000000000006611 -7.999999999997537 0.0
-4.000000000005052 -5.999999999997071 0.0
-4.000000000003497 -3.999999999997272 0.0
-4.000000000001941 -1.99999999999745 0.0
-4.000000000000384 4.930278407755395e-12 0.0
-3.999999999998828 2.0000000000072 0.0
-3.999999999997272 4.000000000003497 0.0
-3.999999999995715 5.999999999999742 0.0
-3.99999999999416 7.999999999997538 0.0
-2.000000000012075 -7.999999999997537 0.0
-2.000000000009637 -5.99999999999774 0.0
-2.0000000000072 -3.999999999998828 0.0
-2.000000000004762 -1.999999999999888 0.0
-2.000000000002325 2.466027382297398e-12 0.0
-1.999999999999886 2.000000000004761 0.0
-1.99999999999745 4.000000000001941 0.0
-1.999999999995012 5.999999999999075 0.0
-1.999999999992574 7.999999999997538 0.0
-9.860912086875634e-12 -7.999999999997537 0.0
-7.395684065157038e-12 -5.999999999998407 0.0
-4.930456043439808e-12 -4.000000000000384 0.0
-2.465228021722533e-12 -2.000000000002326 0.0
0.0 0.0 0.0
2.465228021722532e-12 2.000000000002325 0.0
4.930456043439808e-12 4.000000000000384 0.0
7.395684065157038e-12 5.999999999998407 0.0
9.860912086875634e-12 7.999999999997538 0.0
1.999999999992574 -7.999999999997535 0.0
1.999999999995011 -5.999999999999075 0.0
1.99999999999745 -4.00000000000194 0.0
1.999999999999887 -2.000000000004762 0.0
2.000000000002325 -2.465361248482623e-12 0.0
2.000000000004762 1.999999999999887 0.0
2.0000000000072 3.999999999998828 0.0
2.000000000009638 5.999999999997739 0.0
2.000000000012074 7.999999999997538 0.0
3.999999999994159 -7.999999999997539 0.0
3.999999999995716 -5.999999999999742 0.0
3.999999999997272 -4.000000000003497 0.0
3.999999999998828 -2.000000000007201 0.0
4.000000000000384 -4.930278407755395e-12 0.0
4.00000000000194 1.99999999999745 0.0
4.000000000003497 3.999999999997272 0.0
4.000000000005052 5.999999999997071 0.0
4.000000000006609 7.999999999997536 0.0
5.999999999995739 -7.99999999999754 0.0
5.999999999996403 -6.000000000000409 0.0
5.999999999997071 -4.000000000005052 0.0
5.999999999997739 -2.000000000009638 0.0
5.999999999998407 -7.395861700842943e-12 0.0
5.999999999999075 1.999999999995011 0.0
5.999999999999742 3.999999999995715 0.0
6.000000000000409 5.999999999996403 0.0
6.00000000000108 7.999999999997536 0.0
7.999999999997536 -7.99999999999754 0.0
7.999999999997536 -6.00000000000108 0.0
7.999999999997537 -4.000000000006608 0.0
7.999999999997537 -2.000000000012075 0.0
7.999999999997539 -9.86055681551079e-12 0.0
7.999999999997537 1.999999999992574 0.0
7.999999999997539 3.99999999999416 0.0
7.99999999999754 5.999999999995736 0.0
7.999999999997542 7.999999999997534 0.0
-10.0 -10.0 0.1
10.0 -10.0 0.1
10.0 10.0 0.1
-10.0 10.0 0.1
-7.999999999997542 -10.0 0.1
-6.000000000001744 -10.0 0.1
-4.000000000008165 -10.0 0.1
-2.000000000014513 -10.0 0.1
-1.232614010859834e-11 -10.0 0.1
1.999999999990138 -10.0 0.1
3.999999999992603 -10.0 0.1
5.999999999995069 -10.0 0.1
7.999999999997534 -10.0 0.1
10.0 -7.999999999997542 0.1
10.0 -6.000000000001744 0.1
10.0 -4.000000000008165 0.1
10.0 -2.000000000014513 0.1
10.0 -1.232614010859834e-11 0.1
10.0 1.999999999990138 0.1
10.0 3.999999999992603 0.1
10.0 5.999999999995069 0.1
10.0 7.999999999997534 0.1
7.999999999997542 10.0 0.1
6.000000000001744 10.0 0.1
4.000000000008165 10.0 0.1
2.000000000014513 10.0 0.1
1.232614010859834e-11 10.0 0.1
-1.999999999990138 10.0 0.1
-3.999999999992603 10.0 0.1
-5.999999999995069 10.0 0.1
-7.999999999997534 10.0 0.1
-10.0 7.999999999997542 0.1
-10.0 6.000000000001744 0.1
-10.0 4.000000000008165 0.1
-10.0 2.000000000014513 0.1
-10.0 1.232614010859834e-11 0.1
-10.0 -1.999999999990138 0.1
-10.0 -3.999999999992603 0.1
-10.0 -5.999999999995069 0.1
-10.0 -7.999999999997534 0.1
-7.99999999999754 -7.999999999997536 0.1
-7.99999999999754 -5.999999999995737 0.1
-7.999999999997538 -3.999999999994159 0.1
-7.999999999997538 -1.999999999992574 0.1
-7.999999999997538 9.86055681551079e-12 0.1
-7.999999999997538 2.000000000012074 0.1
-7.999999999997536 4.000000000006609 0.1
-7.999999999997534 6.000000000001079 0.1
-7.999999999997536 7.999999999997542 0.1
-6.000000000001078 -7.999999999997536 0.1
-6.000000000000409 -5.999999999996401 0.1
-5.999999999999742 -3.999999999995715 0.1
-5.999999999999075 -1.999999999995012 0.1
-5.999999999998407 7.395861700842943e-12 0.1
-5.999999999997739 2.000000000009637 0.1
-5.999999999997071 4.000000000005052 0.1
-5.999999999996403 6.000000000000409 0.1
-5.999999999995736 7.999999999997542 0.1
-4.000000000006611 -7.999999999997537 0.1
-4.000000000005052 -5.999999999997071 0.1
-4.000000000003497 -3.999999999997272 0.1
-4.000000000001941 -1.99999999999745 0.1
-4.000000000000384 4.930278407755395e-12 0.1
-3.999999999998828 2.0000000000072 0.1
-3.999999999997272 4.000000000003497 0.1
-3.999999999995715 5.999999999999742 0.1
-3.99999999999416 7.999999999997538 0.1
-2.000000000012075 -7.999999999997537 0.1
-2.000000000009637 -5.99999999999774 0.1
-2.0000000000072 -3.999999999998828 0.1
-2.000000000004762 -1.999999999999888 0.1
-2.000000000002325 2.466027382297398e-12 0.1
-1.999999999999886 2.000000000004761 0.1
-1.99999999999745 4.000000000001941 0.1
-1.999999999995012 5.999999999999075 0.1
-1.999999999992574 7.999999999997538 0.1
-9.860912086875634e-12 -7.999999999997537 0.1
-7.395684065157038e-12 -5.999999999998407 0.1
-4.930456043439808e-12 -4.000000000000384 0.1
-2.465228021722533e-12 -2.000000000002326 0.1
0.0 0.0 0.1
2.465228021722532e-12 2.000000000002325 0.1
4.930456043439808e-12 4.000000000000384 0.1
7.395684065157038e-12 5.999999999998407 0.1
9.860912086875634e-12 7.999999999997538 0.1
1.999999999992574 -7.999999999997535 0.1
1.999999999995011 -5.999999999999075 0.1
1.99999999999745 -4.00000000000194 0.1
1.999999999999887 -2.000000000004762 0.1
2.000000000002325 -2.465361248482623e-12 0.1
2.000000000004762 1.999999999999887 0.1
2.0000000000072 3.999999999998828 0.1
2.000000000009638 5.999999999997739 0.1
2.000000000012074 7.999999999997538 0.1
3.999999999994159 -7.999999999997539 0.1
3.999999999995716 -5.999999999999742 0.1
3.999999999997272 -4.000000000003497 0.1
3.999999999998828 -2.000000000007201 0.1
4.000000000000384 -4.930278407755395e-12 0.1
4.00000000000194 1.99999999999745 0.1
4.000000000003497 3.999999999997272 0.1
4.000000000005052 5.999999999997071 0.1
4.000000000006609 7.999999999997536 0.1
5.999999999995739 -7.99999999999754 0.1
5.999999999996403 -6.000000000000409 0.1
5.999999999997071 -4.000000000005052 0.1
5.999999999997739 -2.000000000009638 0.1
5.999999999998407 -7.395861700842943e-12 0.1
5.999999999999075 1.999999999995011 0.1
5.999999999999742 3.999999999995715 0.1
6.000000000000409 5.999999999996403 0.1
6.00000000000108 7.999999999997536 0.1
7.999999999997536 -7.99999999999754 0.1
7.999999999997536 -6.00000000000108 0.1
7.999999999997537 -4.000000000006608 0.1
7.999999999997537 -2.000000000012075 0.1
7.999999999997539 -9.86055681551079e-12 0.1
7.999999999997537 1.999999999992574 0.1
7.999999999997539 3.99999999999416 0.1
7.99999999999754 5.999999999995736 0.1
7.999999999997542 7.999999999997534 0.1
-10.0 -10.0 0.04999999999986855
10.0 -10.0 0.04999999999986855
-7.999999999997542 -10.0 0.04999999999986855
-6.000000000001744 -10.0 0.04999999999986855
-4.000000000008164 -10.0 0.04999999999986855
-2.000000000014513 -10.0 0.04999999999986855
-1.232614010859834e-11 -10.0 0.04999999999986855
1.999999999990137 -10.0 0.04999999999986855
3.999999999992603 -10.0 0.04999999999986855
5.999999999995069 -10.0 0.04999999999986855
7.999999999997534 -10.0 0.04999999999986855
10.0 10.0 0.04999999999986855
10.0 -7.999999999997542 0.04999999999986855
10.0 -6.000000000001744 0.04999999999986855
10.0 -4.000000000008164 0.04999999999986855
10.0 -2.000000000014513 0.04999999999986855
10.0 -1.232614010859834e-11 0.04999999999986855
10.0 1.999999999990137 0.04999999999986855
10.0 3.999999999992603 0.04999999999986855
10.0 5.999999999995069 0.04999999999986855
10.0 7.999999999997534 0.04999999999986855
-10.0 10.0 0.04999999999986855
7.999999999997542 10.0 0.04999999999986855
6.000000000001744 10.0 0.04999999999986855
4.000000000008164 10.0 0.04999999999986855
2.000000000014513 10.0 0.04999999999986855
1.232614010859834e-11 10.0 0.04999999999986855
-1.999999999990137 10.0 0.04999999999986855
-3.999999999992603 10.0 0.04999999999986855
-5.999999999995069 10.0 0.04999999999986855
-7.999999999997534 10.0 0.04999999999986855
-10.0 7.999999999997542 0.04999999999986855
-10.0 6.000000000001744 0.04999999999986855
-10.0 4.000000000008164 0.04999999999986855
-10.0 2.000000000014513 0.04999999999986855
-10.0 1.232614010859834e-11 0.04999999999986855
-10.0 -1.999999999990137 0.04999999999986855
-10.0 -3.999999999992603 0.04999999999986855
-10.0 -5.999999999995069 0.04999999999986855
-10.0 -7.999999999997534 0.04999999999986855
-7.999999999997543 -7.999999999997533 0.04999999999986855
-7.99999999999754 -5.999999999995736 0.04999999999986857
-7.999999999997536 -3.999999999994161 0.04999999999986855
-7.999999999997538 -1.999999999992575 0.04999999999986855
-7.999999999997538 9.86011272630094e-12 0.04999999999986855
-7.999999999997538 2.000000000012074 0.04999999999986855
-7.999999999997537 4.000000000006607 0.04999999999986855
-7.999999999997536 6.00000000000108 0.04999999999986854
-7.999999999997538 7.999999999997542 0.04999999999986855
-6.00000000000108 -7.999999999997533 0.04999999999986854
-6.000000000000412 -5.999999999996403 0.04999999999986856
-5.999999999999742 -3.999999999995713 0.04999999999986856
-5.999999999999075 -1.999999999995012 0.04999999999986857
-5.99999999999841 7.396083745447868e-12 0.04999999999986857
-5.99999999999774 2.000000000009637 0.04999999999986858
-5.999999999997073 4.000000000005051 0.04999999999986857
-5.999999999996406 6.000000000000407 0.04999999999986855
-5.999999999995736 7.999999999997543 0.04999999999986856
-4.000000000006611 -7.999999999997535 0.04999999999986856
-4.000000000005051 -5.999999999997073 0.04999999999986858
-4.000000000003494 -3.99999999999727 0.04999999999986857
-4.000000000001938 -1.99999999999745 0.04999999999986855
-4.000000000000383 4.93005636315047e-12 0.04999999999986857
-3.999999999998827 2.0000000000072 0.04999999999986857
-3.99999999999727 4.000000000003495 0.04999999999986855
-3.999999999995715 5.999999999999742 0.04999999999986855
-3.999999999994159 7.999999999997536 0.04999999999986857
-2.000000000012077 -7.999999999997535 0.04999999999986855
-2.000000000009637 -5.999999999997738 0.04999999999986857
-2.0000000000072 -3.999999999998826 0.04999999999986855
-2.00000000000476 -1.999999999999889 0.04999999999986856
-2.000000000002325 2.466693516112173e-12 0.04999999999986857
-1.999999999999886 2.00000000000476 0.04999999999986857
-1.999999999997449 4.000000000001938 0.04999999999986857
-1.999999999995012 5.999999999999075 0.04999999999986857
-1.999999999992573 7.999999999997538 0.04999999999986857
-9.860917637993794e-12 -7.999999999997534 0.04999999999986855
-7.395251078179399e-12 -5.999999999998407 0.04999999999986856
-4.930611474662783e-12 -4.000000000000383 0.04999999999986857
-2.465028181575235e-12 -2.000000000002325 0.04999999999986857
0.0 0.0 0.04999999999986857
2.465361248482623e-12 2.000000000002325 0.04999999999986857
4.930722496965245e-12 4.000000000000384 0.04999999999986857
7.395639656238018e-12 5.999999999998407 0.04999999999986857
9.86100090472064e-12 7.999999999997538 0.04999999999986857
1.999999999992575 -7.999999999997535 0.04999999999986855
1.999999999995011 -5.999999999999075 0.04999999999986856
1.99999999999745 -4.000000000001937 0.04999999999986857
1.999999999999886 -2.000000000004761 0.04999999999986857
2.000000000002326 -2.465583293087548e-12 0.04999999999986857
2.000000000004762 1.999999999999886 0.04999999999986857
2.0000000000072 3.999999999998828 0.04999999999986857
2.000000000009637 5.999999999997739 0.04999999999986857
2.000000000012075 7.999999999997538 0.04999999999986857
3.99999999999416 -7.999999999997539 0.04999999999986853
3.999999999995715 -5.999999999999742 0.04999999999986857
3.999999999997271 -4.000000000003494 0.04999999999986855
3.999999999998826 -2.0000000000072 0.04999999999986857
4.000000000000384 -4.93005636315047e-12 0.04999999999986857
4.00000000000194 1.99999999999745 0.04999999999986857
4.000000000003496 3.999999999997271 0.04999999999986857
4.000000000005051 5.999999999997073 0.04999999999986856
4.000000000006606 7.999999999997537 0.04999999999986857
5.999999999995739 -7.999999999997543 0.04999999999986855
5.999999999996404 -6.000000000000411 0.04999999999986857
5.999999999997071 -4.00000000000505 0.04999999999986857
5.999999999997739 -2.000000000009637 0.04999999999986857
5.999999999998408 -7.395861700842943e-12 0.04999999999986857
5.999999999999076 1.999999999995011 0.04999999999986857
5.999999999999742 3.999999999995715 0.04999999999986857
6.000000000000409 5.999999999996406 0.04999999999986857
6.00000000000108 7.999999999997536 0.04999999999986857
7.999999999997536 -7.99999999999754 0.04999999999986852
7.999999999997536 -6.000000000001079 0.04999999999986857
7.999999999997534 -4.000000000006607 0.04999999999986857
7.999999999997536 -2.000000000012077 0.04999999999986857
7.999999999997538 -9.859946192847246e-12 0.04999999999986857
7.999999999997534 1.999999999992574 0.04999999999986857
7.99999999999754 3.999999999994159 0.04999999999986857
7.999999999997543 5.999999999995737 0.04999999999986856
7.999999999997542 7.999999999997532 0.04999999999986857
CELLS 200 1800
8 0 4 40 39 242 244 282 281
8 242 244 282 281 121 125 161 160
8 39 40 41 38 281 282 283 280
8 281 282 283 280 160 161 162 159
8 38 41 42 37 280 283 284 279
8 280 283 284 279 159 162 163 158
8 37 42 43 36 279 284 285 278
8 279 284 285 278 158 163 164 157
8 36 43 44 35 278 285 286 277
8 278 285 286 277 157 164 165 156
8 35 44 45 34 277 286 287 276
8 277 286 287 276 156 165 166 155
8 34 45 46 33 276 287 288 275
8 276 287 288 275 155 166 167 154
8 33 46 47 32 275 288 289 274
8 275 288 289 274 154 167 168 153
8 32 47 48 31 274 289 290 273
8 274 289 290 273 153 168 169 152
8 31 48 30 3 273 290 272 263
8 273 290 272 263 152 169 151 124
8 4 5 49 40 244 245 291 282
8 244 245 291 282 125 126 170 161
8 40 49 50 41 282 291 292 283
8 282 291 292 283 161 170 171 162
8 41 50 51 42 283 292 293 284
8 283 292 293 284 162 171 172 163
8 42 51 52 43 284 293 294 285
8 284 293 294 285 163 172 173 164
8 43 52 53 44 285 294 295 286
8 285 294 295 286 164 173 174 165
8 44 53 54 45 286 295 296 287
8 286 295 296 287 165 174 175 166
8 45 54 55 46 287 296 297 288
8 287 296 297 288 166 175 176 167
8 46 55 56 47 288 297 298 289
8 288 297 298 289 167 176 177 168
8 47 56 57 48 289 298 299 290
8 289 298 299 290 168 177 178 169
8 48 57 29 30 290 299 271 272
8 290 299 271 272 169 178 150 151
8 5 6 58 49 245 246 300 291
8 245 246 300 291 126 127 179 170
8 49 58 59 50 291 300 301 292
8 291 300 301 292 170 179 180 171
8 50 59 60 51 292 301 302 293
8 292 301 302 293 171 180 181 172
8 51 60 61 52 293 302 303 294
8 293 302 303 294 172 181 182 173
8 52 61 62 53 294 303 304 295
8 294 303 304 295 173 182 183 174
8 53 62 63 54 295 304 305 296
8 295 304 305 296 174 183 184 175
8 54 63 64 55 296 305 306 297
8 296 305 306 297 175 184 185 176
8 55 64 65 56 297 306 307 298
8 297 306 307 298 176 185 186 177
8 56 65 66 57 298 307 308 299
8 298 307 308 299 177 186 187 178
8 57 66 28 29 299 308 270 271
8 299 308 270 271 178 187 149 150
8 6 7 67 58 246 247 309 300
8 246 247 309 300 127 128 188 179
8 58 67 68 59 300 309 310 301
8 300 309 310 301 179 188 189 180
8 59 68 69 60 301 310 311 302
8 301 310 311 302 180 189 190 181
8 60 69 70 61 302 311 312 303
8 302 311 312 303 181 190 191 182
8 61 70 71 62 303 312 313 304
8 303 312 313 304 182 191 192 183
8 62 71 72 63 304 313 314 305
8 304 313 314 305 183 192 193 184
8 63 72 73 64 305 314 315 306
8 305 314 315 306 184 193 194 185
8 64 73 74 65 306 315 316 307
8 306 315 316 307 185 194 195 186
8 65 74 75 66 307 316 317 308
8 307 316 317 308 186 195 196 187
8 66 75 27 28 308 317 269 270
8 308 317 269 270 187 196 148 149
8 7 8 76 67 247 248 318 309
8 247 248 318 309 128 129 197 188
8 67 76 77 68 309 318 319 310
8 309 318 319 310 188 197 198 189
8 68 77 78 69 310 319 320 311
8 310 319 320 311 189 198 199 190
8 69 78 79 70 311 320 321 312
8 311 320 321 312 190 199 200 191
8 70 79 80 71 312 321 322 313
8 312 321 322 313 191 200 201 192
8 71 80 81 72 313 322 323 314
8 313 322 323 314 192 201 202 193
8 72 81 82 73 314 323 324 315
8 314 323 324 315 193 202 203 194
8 73 82 83 74 315 324 325 316
8 315 324 325 316 194 203 204 195
8 74 83 84 75 316 325 326 317
8 316 325 326 317 195 204 205 196
8 75 84 26 27 317 326 268 269
8 317 326 268 269 196 205 147 148
8 8 9 85 76 248 249 327 318
8 248 249 327 318 129 130 206 197
8 76 85 86 77 318 327 328 319
8 318 327 328 319 197 206 207 198
8 77 86 87 78 319 328 329 320
8 319 328 329 320 198 207 208 199
8 78 87 88 79 320 329 330 321
8 320 329 330 321 199 208 209 200
8 79 88 89 80 321 330 331 322
8 321 330 331 322 200 209 210 201
8 80 89 90 81 322 331 332 323
8 322 331 332 323 201 210 211 202
8 81 90 91 82 323 332 333 324
8 323 332 333 324 202 211 212 203
8 82 91 92 83 324 333 334 325
8 324 333 334 325 203 212 213 204
8 83 92 93 84 325 334 335 326
8 325 334 335 326 204 213 214 205
8 84 93 25 26 326 335 267 268
8 326 335 267 268 205 214 146 147
8 9 10 94 85 249 250 336 327
8 249 250 336 327 130 131 215 206
8 85 94 95 86 327 336 337 328
8 327 336 337 328 206 215 216 207
8 86 95 96 87 328 337 338 329
8 328 337 338 329 207 216 217 208
8 87 96 97 88 329 338 339 330
8 329 338 339 330 208 217 218 209
8 88 97 98 89 330 339 340 331
8 330 339 340 331 209 218 219 210
8 89 98 99 90 331 340 341 332
8 331 340 341 332 210 219 220 211
8 90 99 100 91 332 341 342 333
8 332 341 342 333 211 220 221 212
8 91 100 101 92 333 342 343 334
8 333 342 343 334 212 221 222 213
8 92 101 102 93 334 343 344 335
8 334 343 344 335 213 222 223 214
8 93 102 24 25 335 344 266 267
8 335 344 266 267 214 223 145 146
8 10 11 103 94 250 251 345 336
8 250 251 345 336 131 132 224 215
8 94 103 104 95 336 345 346 337
8 336 345 346 337 215 224 225 216
8 95 104 105 96 337 346 347 338
8 337 346 347 338 216 225 226 217
8 96 105 106 97 338 347 348 339
8 338 347 348 339 217 226 227 218
8 97 106 107 98 339 348 349 340
8 339 348 349 340 218 227 228 219
8 98 107 108 99 340 349 350 341
8 340 349 350 341 219 228 229 220
8 99 108 109 100 341 350 351 342
8 341 350 351 342 220 229 230 221
8 100 109 110 101 342 351 352 343
8 342 351 352 343 221 230 231 222
8 101 110 111 102 343 352 353 344
8 343 352 353 344 222 231 232 223
8 102 111 23 24 344 353 265 266
8 344 353 265 266 223 232 144 145
8 11 12 112 103 251 252 354 345
8 251 252 354 345 132 133 233 224
8 103 112 113 104 345 354 355 346
8 345 354 355 346 224 233 234 225
8 104 113 114 105 346 355 356 347
8 346 355 356 347 225 234 235 226
8 105 114 115 106 347 356 357 348
8 347 356 357 348 226 235 236 227
8 106 115 116 107 348 357 358 349
8 348 357 358 349 227 236 237 228
8 107 116 117 108 349 358 359 350
8 349 358 359 350 228 237 238 229
8 108 117 118 109 350 359 360 351
8 350 359 360 351 229 238 239 230
8 109 118 119 110 351 360 361 352
8 351 360 361 352 230 239 240 231
8 110 119 120 111 352 361 362 353
8 352 361 362 353 231 240 241 232
8 111 120 22 23 353 362 264 265
8 353 362 264 265 232 241 143 144
8 12 1 13 112 252 243 254 354
8 252 243 254 354 133 122 134 233
8 112 13 14 113 354 254 255 355
8 354 254 255 355 233 134 135 234
8 113 14 15 114 355 255 256 356
8 355 255 256 356 234 135 136 235
8 114 15 16 115 356 256 257 357
8 356 256 257 357 235 136 137 236
8 115 16 17 116 357 257 258 358
8 357 257 258 358 236 137 138 237
8 116 17 18 117 358 258 259 359
8 358 258 259 359 237 138 139 238
8 117 18 19 118 359 259 260 360
8 359 259 260 360 238 139 140 239
8 118 19 20 119 360 260 261 361
8 360 260 261 361 239 140 141 240
8 119 20 21 120 361 261 262 362
8 361 261 262 362 240 141 142 241
8 120 21 2 22 362 262 253 264
8 362 262 253 264 241 142 123 143
CELL_TYPES 200
12
12
12
12
12
12
12
12
12
12
12
12
12
12
12
12
12
12
12
12
12
12
12
12
12
12
12
12
12
12
12
12
12
12
12
12
12
12
12
12
12
12
12
12
12
12
12
12
12
12
12
12
12
12
12
12
12
12
12
12
12
12
12
12
12
12
12
12
12
12
12
12
12
12
12
12
12
12
12
12
12
12
12
12
12
12
12
12
12
12
12
12
12
12
12
12
12
12
12
12
12
12
12
12
12
12
12
12
12
12
12
12
12
12
12
12
12
12
12
12
12
12
12
12
12
12
12
12
12
12
12
12
12
12
12
12
12
12
12
12
12
12
12
12
12
12
12
12
12
12
12
12
12
12
12
12
12
12
12
12
12
12
12
12
12
12
12
12
12
12
12
12
12
12
12
12
12
12
12
12
12
12
12
12
12
12
12
12
12
12
12
12
12
12
12
12
12
12
12
12
POINT_DATA 363
SCALARS stress11 float
LOOKUP_TABLE default
-21.75608920038212
-21.75603572174441
-21.756107282482844
-21.756076584686525
-27.60020003351383
-44.74928062269464
-67.03956494329032
-83.82323028682731
-90.92994227807503
-83.82328501879238
-67.03959851025138
-44.74921977799386
-27.600194997852668
-31.949330415809527
-57.40661477850517
-88.38666264258791
-111.40861248399597
-120.7781461327395
-111.40865639731055
-88.38670272103627
-57.406606351956725
-31.9493374095764
-27.6001760370782
-44.7492431710707
-67.03956150493468
-83.8232191313873
-90.92996676050825
-83.82324087392772
-67.03960773238214
-44.74924729630584
-27.600212124118116
-31.949363184859976
-57.4066378029529
-88.38669869385194
-111.40864826529287
-120.77811503573321
-111.40863309823908
-88.38670407945756
-57.40662340680137
-31.949373682495207
-77.4946683445014
-124.70016449084505
-205.5125353533076
-267.8245633279439
-293.9454206189839
-267.8246339952457
-205.51251378667075
-124.7001422016765
-77.4947460446856
-114.31848436186556
-33.67496519826818
-17.84917198785115
-36.831659087736625
-38.00549343251623
-36.83169465500396
-17.849186405423097
-33.67497677222127
-114.31844515487319
-184.00472291139886
-5.515718841576017
147.8373352549388
228.19139410427306
193.89716436335584
228.19134269596543
147.8373618350597
-5.515714257024229
-184.00471872737398
-238.35396916070022
-13.735854124766774
242.84423498116666
574.0128074787208
768.00067195663
574.0128029927728
242.844300163968
-13.735869429656304
-238.35396067955298
-261.58804196410347
-11.433258990524337
218.41657256620238
777.6925199513207
957.9745953066158
777.6924788422184
218.4165077667567
-11.433292129426263
-261.5879789754981
-238.35403450316517
-13.735837104788516
242.84421434690012
574.0128167795483
768.000716546725
574.0128659185139
242.84426441820688
-13.735874092992162
-238.35393831619876
-184.0047943344689
-5.515680100012105
147.83740749693243
228.19136316952063
193.89718373300275
228.19141526467865
147.8373279471416
-5.515720725641586
-184.00477224832866
-114.3185062527773
-33.67497711098986
-17.849171863519587
-36.83167015842628
-38.00553838699125
-36.83163918601349
-17.849208886618726
-33.67495779207093
-114.31848900853947
-77.494745082804
-124.70019280479755
-205.51251081586815
-267.82460910920054
-293.94538562133675
-267.824637031008
-205.51253081523464
-124.70016178254446
-77.49466452102934
21.740136679261923
21.74012176389806
21.740177856405353
21.74011208792217
27.57507725211326
44.709765285486355
66.98572982347105
83.75581735617016
90.85339762817603
83.75584160606377
66.9856918429723
44.709793578716926
27.575046718819067
31.896607557719108
57.31618372909725
88.25743538088864
111.23726125940448
120.59115985414246
111.23733293166151
88.25745772375376
57.31616181049321
31.89654301147675
27.575081336784933
44.70981635725184
66.9857058164489
83.75576756952796
90.85343969322275
83.75589989236323
66.98571935144719
44.709860655188095
27.57500324829016
31.896573882433586
57.31618434423581
88.2574975938769
111.23735373385716
120.59116786823142
111.2372825620696
88.25746479770169
57.31612682028208
31.89658020355273
77.44981184822973
124.6326049938798
205.40517235023435
267.68399974063504
293.69757739128545
267.684012774087
205.4051819642773
124.63259685470257
77.44988126424141
114.28465196804609
33.60431529255584
17.791849124245346
36.58159670588793
38.02668081986485
36.581624222686514
17.791874270653352
33.60432374943048
114.28458728612168
183.9811803405173
5.517350655863993
-147.97396337467944
-227.97272760543274
-196.1653933279449
-227.97266161127482
-147.97400029416895
5.517338601290248
183.9812089225161
238.3540081534302
13.718847482057754
-242.55119228869444
-574.1957120163715
-763.7599764163024
-574.1957449474721
-242.55124798469478
13.71885026129894
238.35395318514202
261.5420528241666
11.665442082099617
-219.40875553089427
-773.4404113958008
-975.355135787453
-773.440330659796
-219.40873915079283
11.66549377742922
261.54202433893806
238.3540462757228
13.718833525956143
-242.551185593009
-574.195718016068
-763.7600047604647
-574.1958027273067
-242.55120851658285
13.718890815449413
238.35395656104083
183.9812370153959
5.517304191831499
-147.97399420005968
-227.97272805211833
-196.16540987353073
-227.97273335407954
-147.97393461485626
5.517329673864879
183.98121870690375
114.28465076751309
33.6043126861332
17.791879013180733
36.58161160669988
38.02669091260759
36.581575694086496
17.79187110668863
33.60436779819429
114.2846385203884
77.44986586441519
124.63265450263862
205.40511978999712
267.68399251054507
293.69751373893814
267.68404863521573
205.4051499873749
124.63260856583656
77.44980037217465
-0.007964061107486486
-0.007944771321490407
-0.012556029367260635
-0.019756713300012052
-0.02692208660300821
-0.03372105036396533
-0.038262660964392126
-0.033735355362296104
-0.02695725834928453
-0.01971227885223925
-0.012569079524837434
-0.007952966254379135
-0.02635947917588055
-0.04521471873158589
-0.06461681885411963
-0.08569664135575294
-0.0934541413153056
-0.08568225434282795
-0.06462576487683691
-0.045221675783977844
-0.026394502936454955
-0.007969968020915985
-0.012543084390927106
-0.01971288089407608
-0.026932079519610852
-0.03374008685932495
-0.03825409125420265
-0.0336846019490622
-0.026948647224344313
-0.019692712754476815
-0.012598440516740084
-0.02639222180005163
-0.04522609198465943
-0.06460417702328414
-0.08566831855569035
-0.09343412041198462
-0.08569532353430986
-0.06462299451231956
-0.04524692054837942
-0.026393956621177495
-0.02242399612441659
-0.033770722802728415
-0.05367811943870038
-0.0702475659782067
-0.12416867562569678
-0.07027588604250923
-0.053662967518903315
-0.033763190847821534
-0.022428410535212606
-0.016906808014027774
-0.035334215266630054
-0.028603775543160737
-0.12516973330639303
0.011197390034794807
-0.1251735610421747
-0.028598681557923555
-0.03533543861703947
-0.016919043730013072
-0.011769278789870441
0.0008700289763510227
-0.06844076031120494
0.1100200520013459
-1.1365190888755023
0.11002698354423046
-0.0684457034803927
0.0008666177745908499
-0.011753143917303532
3.860343713313341e-05
-0.0085918796248734
0.14691764838062227
-0.09241981693776324
2.1253954838612117
-0.09243823977885768
0.14692236518021673
-0.008597848122008145
1.631118357181549e-05
-0.02312892791815102
0.11646924552042037
-0.4978374649072066
2.1307532702339813
-8.70245513948612
2.1307724815560505
-0.4978613534476608
0.11647837236523628
-0.023112705792300403
2.6115973014384508e-05
-0.008590030192863196
0.14691091608256102
-0.0924181928858161
2.125403114303481
-0.0924355733441189
0.14692404912784696
-0.008580448804423213
2.8992886655032635e-05
-0.01177634351188317
0.0008663234766572714
-0.06842031585983932
0.11000474344473332
-1.1365178003325127
0.11002777609974146
-0.06842958185006864
0.000858422223245725
-0.011774415645049885
-0.01691858103731647
-0.03534100065007806
-0.028588797023985535
-0.1251675479579717
0.011180663772393018
-0.12516959384083748
-0.028610585286514834
-0.03530486868112348
-0.01691595569718629
-0.022434430371504277
-0.03375966561725363
-0.053691581764724106
-0.07027413812465966
-0.12418219051323831
-0.07025975637952797
-0.05368667107541114
-0.03376738262886647
-0.022427533083828166
SCALARS stress22 float
LOOKUP_TABLE default
-21.7560881980462
-21.75603655714076
-21.75610748181134
-21.756077134865336
-31.94936159159988
-57.406708478578366
-88.3866953428369
-111.40861151297577
-120.77806740649976
-111.40866663097404
-88.38672625063919
-57.40664536366239
-31.94935681554489
-27.600169880199246
-44.74918902141508
-67.03953549778089
-83.82323035650188
-90.93002118475852
-83.82327478399384
-67.03957521304255
-44.74918042427453
-27.60017684462946
-31.94933746221068
-57.406670050593675
-88.38668944782694
-111.40860037357197
-120.77809238943155
-111.40862345171627
-88.38673460599966
-57.40667315211613
-31.949372540577315
-27.60020286985673
-44.74921072483994
-67.03957040794194
-83.82326394645497
-90.92999008100014
-83.82325100316666
-67.03957627492491
-44.74919690017123
-27.60021403688006
-77.49466770142317
-114.31848606467247
-184.00475021032616
-238.35396580421366
-261.5880370817613
-238.3540361209307
-184.00472936988808
-114.31846192595549
-77.49474656040547
-124.70016404555645
-33.67496441118419
-5.515702006523497
-13.735843387723435
-11.433218421880156
-13.735878383973613
-5.515716092311777
-33.674976704409346
-124.7001241100952
-205.5125069731148
-17.84918851859402
147.83733613794902
242.84427828760818
218.41650281986222
242.84422707126942
147.8373614543816
-17.849184151622467
-205.51250284269918
-267.82456617231946
-36.831669452018104
228.1913517563953
574.0128077694098
777.6924977757153
574.0128034524387
228.19141691498226
-36.831684822565876
-267.8245582805248
-293.9454251944553
-38.00553340697661
193.8972331440309
768.0006949751405
957.9745955793187
768.0006540598115
193.8971681863186
-38.00556681083981
-293.9453618560801
-267.8246319433674
-36.831652451946866
228.19133125647204
574.0128168096999
777.6925427472452
574.012866404606
228.19138110781205
-36.831689910497516
-267.8245363206952
-205.51257824181812
-17.849149873189162
147.83740787266288
242.8442468260182
218.41652370907832
242.84429921294213
147.83732758281985
-17.849190948385512
-205.51255652942928
-124.70018529135268
-33.67497684294358
-5.515701240161434
-13.73585476714652
-11.433263654704206
-13.735823107534088
-5.515738516987767
-33.67495753322146
-124.70016927945835
-77.49474512372399
-114.31851200951496
-184.004726697749
-238.35401143220952
-261.5880023154896
-238.354039331869
-184.00474694670993
-114.31848363252357
-77.49466505998134
21.740136098931544
21.740121527924202
21.74017757108595
21.74011068220716
31.896606420865282
57.31614017044194
88.25743739423342
111.23727165337186
120.5911257180851
111.23729500884656
88.25739735842217
57.31616602151189
31.896575163234957
27.57507878378965
44.709810742060654
66.9857303344761
83.75580715207616
90.85343136140727
83.75587863914552
66.98575257198536
44.70978907804238
27.57501482970838
31.896609341551084
57.316189215605846
88.25741137497243
111.2372216777585
120.59116789660766
111.23735383659368
88.25742456584703
57.31623366457643
31.89653092523804
27.575046132085845
44.70980993565172
66.98579111008439
83.75589985656552
90.85344072186854
83.75582877208944
66.98575899773277
44.709753440809436
27.575052851694636
77.44981256639585
114.28462003497407
183.98122432013042
238.35401700495277
261.54208149318583
238.35403012821916
183.98123332025716
114.2846082635806
77.44988148269476
124.63264053629246
33.60431499965489
5.5173126213485375
13.71884330327157
11.665410919231363
13.718871193064842
5.5173366939416155
33.60432411177317
124.63257447700016
205.40512935665902
17.791888302075677
-147.97396371577634
-242.55123070144327
-219.4086908568279
-242.5511638710741
-147.9740000621532
17.791876017523464
205.40515731967753
267.6839913375443
36.581601406272966
-227.97268759214785
-574.1957116712583
-773.4403918841272
-574.1957446273882
-227.9727448631893
36.58160390960984
267.6839367033681
293.69754903996363
38.02671330620069
-196.1654546985519
-763.759995443339
-975.3551353498478
-763.7599154387717
-196.16543896944495
38.02676524600247
293.697520036425
267.68402975803474
36.5815872940002
-227.97268290939974
-574.1957169290981
-773.4404202945298
-574.1958027418586
-227.97270543989725
36.581644307327224
267.68393983104033
205.4051858590683
17.79184204188641
-147.97399416106055
-242.55123102647485
-219.40870972996345
-242.55123685440049
-147.9739339245134
17.79186680680141
205.40516706102062
124.6326373682823
33.60431289789267
5.517340749443974
13.718858238949906
11.66542005352676
13.718822528899182
5.5173334341088776
33.604367389925756
124.63262616019347
77.44986599299591
114.2846666550613
183.98117136897054
238.3540095386561
261.5420174758765
238.35406519216485
183.98120143872802
114.28462266457791
77.4497998792067
-0.00796361907850951
-0.007944660494104028
-0.026375324465334415
-0.04528317123185843
-0.06463207921478897
-0.08569104969501495
-0.09343138861004263
-0.08570540184155107
-0.06466723256744444
-0.04523919243365526
-0.02638842083979398
-0.007952330488478765
-0.012540081923361868
-0.0196882258169353
-0.02690715016797185
-0.033726280147675425
-0.038284828508039936
-0.03371203225106001
-0.026916031318251044
-0.01969503668078687
-0.012575962609844282
-0.007970827864482999
-0.026362615230027586
-0.045239469240186736
-0.06464197766035795
-0.08571059527457692
-0.09342295190435834
-0.0856554644415155
-0.06465839844895527
-0.0452189504285343
-0.026417717977892607
-0.012572968495078385
-0.0196995388250798
-0.026894517242908478
-0.03369690396357328
-0.03826504258904606
-0.03372481232509017
-0.02691315661650151
-0.019720647833310068
-0.012574790278449655
-0.022423504735343158
-0.016923440620303154
-0.011761110159568489
4.510593134909868e-05
-0.02311287831980735
1.6549252904951572e-05
-0.01174688758328557
-0.016917148255743086
-0.022428294294513762
-0.033752723946236074
-0.035333950188942254
0.0008593748789280653
-0.008588568773120642
0.1164734695921652
-0.008592180849518627
0.0008644143235869706
-0.03533531760331243
-0.033765456872060895
-0.05368518934119493
-0.028592711430974305
-0.06844042509328574
0.14691994054010138
-0.4978398474631831
0.14692767948145047
-0.06844546308275312
-0.028596145566552877
-0.05366931133903563
-0.07025372504722327
-0.12517234636470675
0.11001920473063365
-0.09241955779725686
2.130751835007686
-0.09243785322178155
0.11002294096397236
-0.1251788636436686
-0.07027647213544697
-0.12418412405531853
0.011193865037057549
-1.1365158862899989
2.125397291383706
-8.702454776503146
2.1254164365236647
-1.136539999395609
0.01120278867892921
-0.12416765341185965
-0.07026661885902286
-0.12517087848391384
0.11001116875559092
-0.09241777850547805
2.130759853462223
-0.09243543917546049
0.11002436117269099
-0.12516149261500686
-0.07026392620173283
-0.05369192728539929
-0.02859602600801736
-0.06841998011805117
0.1469043807592243
-0.49783874972490594
0.1469274398405105
-0.06842958653578535
-0.028604370570974424
-0.053690768050728366
-0.033764379390049726
-0.035341049486305565
0.0008741027559153736
-0.00858660280937329
0.11645628220867366
-0.00858840940054506
0.0008520389965269715
-0.0353047221142333
-0.03376257927448023
-0.022434732760302722
-0.016913496248889714
-0.011775415507145226
1.8451246432960033e-05
-0.023127052845666185
3.3285352401435375e-05
-0.011770793091272935
-0.0169212949112989
-0.02242796893551713
SCALARS stress33 float
LOOKUP_TABLE default
-41.89899705443531
-41.89887583977543
-41.899042729943176
-41.89897175808437
-55.84101959853433
-90.41988797206432
-135.88961535692215
-170.0868355507264
-184.83009436842985
-170.0869640299352
-135.88968698005192
-90.4197427026229
-55.841010640375316
-55.84094993863255
-90.41967078915332
-135.8895396189764
-170.086837538518
-184.8302783826366
-170.0869390857406
-135.88963356328895
-90.41965160390828
-55.84096853605297
-55.84096688317368
-90.41979879132123
-135.88959773693932
-170.08681042987155
-184.83015254727798
-170.0868615093641
-135.88970504736062
-90.41980823804624
-55.84105042403098
-55.841027116868645
-90.41972641774919
-135.88962365139741
-170.08691812097095
-184.83020605356432
-170.08688385237474
-135.88963540713303
-90.4196917496156
-55.84105926961638
-165.5499796315562
-254.60925314645283
-415.68014618603047
-539.6788239154266
-592.6107627918245
-539.6789863978047
-415.6800964126596
-254.60919635067694
-165.55016072816215
-254.60924656200223
-68.66914847225416
-23.163338219281286
-51.151743251946755
-48.2759985846933
-51.15182588249445
-23.163370864233002
-68.66917549516074
-254.60915500612464
-415.6800818539923
-23.163377089309506
311.42135371628683
495.76974876387976
430.37134809978306
495.7696274033515
311.4214150493499
-23.163366352557205
-415.68007182574365
-539.6788306701928
-51.15176963037811
495.7696487235371
1210.6522519597784
1638.6444082212402
1210.6522420900874
495.7697979855584
-51.15180497674737
-539.6788119554985
-592.610774028115
-48.276090769446455
430.37151067797095
1638.6444587035803
1978.7757748611039
1638.6443636049516
430.37135964329354
-48.276167795818765
-592.6106272561592
-539.6789828611072
-51.151730296667665
495.76959906728007
1210.6522743068635
1638.6445103536826
1210.652388712042
495.7697160830721
-51.15181740303524
-539.678759976232
-415.6802450537216
-23.163285224232823
311.4215222308412
495.7696740778629
430.3713967030635
495.7697961903177
311.4213366374606
-23.163381825899705
-415.68019528256264
-254.60929699684493
-68.66917651402764
-23.163337222184055
-51.15177084505558
-48.27610265859403
-51.151698411908
-23.16342336247908
-68.66913155847578
-254.60925897251582
-165.55015657329932
-254.6093133969698
-415.6800896683708
-539.6789287870051
-592.6106814902159
-539.6789940221352
-415.6801360655809
-254.60924426731071
-165.54997207746783
41.88905378128402
41.889022155082785
41.889152238931274
41.8889949087752
55.82110312883742
90.38373334426433
135.83853461127728
170.02393734594807
184.74545933154877
170.0239949177485
135.8384376326576
90.38379722600803
55.82103230978828
55.8211070378311
90.3838374200277
135.8385255561443
170.02391401759814
184.74553784966702
170.02407949889312
135.83857922186144
90.38378611061489
55.82095757484785
55.821111361685325
90.38384889697772
135.83846556892968
170.0238209865056
184.74555645690998
170.0241278873291
135.83849782135803
90.3839541649213
55.82093041262124
55.82103031326551
90.38383660581894
135.8386692388449
170.02412887418177
184.7455584955169
170.02396130363923
135.83859584433958
90.38370689703152
55.821051015518606
165.55878551094793
254.6155707805883
415.68982314737514
539.7027856102213
592.5173215358518
539.7028149369871
415.6898433138849
254.61554590356536
165.5589475587476
254.6156481115613
68.6670658364892
23.179984797840007
51.06972959660925
48.72562147153076
51.06979216495529
23.180043597589247
68.66708577424288
254.61549457651563
415.68972187826876
23.180076671531424
-311.47932742140256
-495.3828779415926
-432.61993505700957
-495.3827237302903
-311.4794134859694
23.18004937353544
415.6897862664191
539.7027663721237
51.069737543934025
-495.38278494018596
-1212.036016794038
-1629.598630756489
-1212.036091086804
-495.3829176904401
51.069743537926115
539.7026382157346
592.517256641062
48.72569366637617
-432.620081703295
-1629.5986752465833
-2029.3436019902583
-1629.5984881041804
-432.6200455126818
48.72581282310421
592.5171880170819
539.7028554585995
51.06970659410581
-495.38277312298305
-1212.036027489812
-1629.5986950987717
-1212.0362252644845
-495.3828260221053
51.06983818864683
539.7026461552014
415.68985198356677
23.17996914568357
-311.4793990419712
-495.38287810853217
-432.61997748701833
-495.382893149741
-311.47926059452584
23.180027142108884
415.68980862840544
254.61564214224927
68.66706118814182
23.18005554168485
51.06976361258421
48.725642570876516
51.06967933574924
23.180036794103216
68.66718814297928
254.61561566515593
165.5589113261085
254.61568140832242
415.68969940417446
539.7027680051979
592.5171743949177
539.7028977323789
415.6897694962099
254.61557637673104
165.55875751683197
-0.004965153522789478
-0.004920788458548486
-0.00995965045876801
-0.01807958586141467
-0.025551375234499574
-0.03146392444614321
-0.042301071574911475
-0.03149735741317272
-0.0256346050882712
-0.017977560055442154
-0.009990397025831044
-0.004939036938594654
-0.009922506287693977
-0.017921435995958745
-0.025517384288832545
-0.03147718741092831
-0.042352286574896425
-0.03144378022989258
-0.025537953013554215
-0.017938564938958734
-0.010004593539633788
-0.00498241966124624
-0.009930320724379271
-0.017979494819883257
-0.025575614854460582
-0.03150886076036841
-0.04228167166002095
-0.03138143487740308
-0.025614175596274436
-0.017930747708305717
-0.010059294640086591
-0.009999856003560126
-0.017949444125406444
-0.025489052291959524
-0.031409602612257004
-0.04230706603266299
-0.031473933602683246
-0.02553059021010995
-0.01799560710787773
-0.010004661278799176
0.004415606148540974
0.0031669160816818476
0.004848015494644642
0.01202569343149662
-0.04694520402699709
0.011960898526012897
0.004882515291683376
0.0031837986316531897
0.0044065434485673904
0.0032091315370053053
-0.0010465115774422884
0.00835942174308002
-0.04117616277653724
0.22566549689508975
-0.04118633363395929
0.008372532203793526
-0.0010501493234187365
0.003178735380060971
0.004831041092984378
0.00838531379122287
-0.02911193296313286
0.19417397840879858
-1.128050180268474
0.19419067399576306
-0.029123695334419608
0.008377571240998805
0.004866720526479185
0.01201237237546593
-0.04118517180904746
0.19417120702564716
-0.6943740213755518
4.535906914272346
-0.6944155873497948
0.19417962688021362
-0.041199523489922285
0.011959432507865131
-0.046981523861177266
0.22565718344412744
-1.1280427501769736
4.535910545731895
-25.31829334027134
4.5359556414186954
-1.1280987186473794
0.22567799931857735
-0.0469442259054631
0.011983144679106772
-0.041180726140737534
0.1941531983902678
-0.6943683073623106
4.5359253524802625
-0.6944094271748327
0.19418346823658794
-0.04115961928619072
0.011989398277364671
0.004815406282432377
0.008378037135116756
-0.02906460384838283
0.19413824134971946
-1.1280468174954876
0.1941910058958456
-0.0290875211940147
0.008358761202543974
0.00481744424905628
0.0031814028043299913
-0.001061725546605885
0.008395717712119222
-0.04117283644154668
0.22562660311814398
-0.04117751878220588
0.008344153233338147
-0.0009779701358638704
0.003186797141097486
0.0043929945677518845
0.0031927110394462943
0.004815832478925586
0.011966218473389745
-0.046977225225418806
0.011998966452665627
0.004827214463148266
0.003173975506797433
0.004407502943649888
SCALARS stress23 float
LOOKUP_TABLE default
-29.222938050673974
-29.222937515873696
29.22293804353444
29.22293755164685
-68.82763100352304
-163.10631315450541
-262.2297454577488
-333.7160534633556
-359.2631409309113
-333.71605320583194
-262.229744731952
-163.10630492728842
-68.82762941976978
-0.5128182886973036
0.5128007419419873
0.3592699080653574
0.17268940935616683
8.495538850183948e-08
-0.172689344422281
-0.3592698050595118
-0.5128003198859403
0.5128184533144236
68.82763112388653
163.1063131799733
262.2297454506558
333.7160535213481
359.26314126975444
333.7160532826963
262.2297448731533
163.10630486161665
68.82762934702828
0.512818510447687
-0.5128005991238069
-0.3592697271652696
-0.1726892760523242
-3.556874617061112e-08
0.17268945149635329
0.35926996913281073
0.5128003597110364
-0.5128182378150541
5.579936058034718
6.8352408283560635
4.048323092707506
1.7918764198389
-1.1272004485363141e-07
-1.791876327264049
-4.048323193252486
-6.835243184892079
-5.579935045743127
14.263126837774962
21.65010773670292
15.629556223368013
6.958812408233939
-6.062418833607808e-08
-6.958812267628218
-15.629556297227282
-21.650106469852062
-14.263125569628073
17.79503692032563
35.186714911796344
38.773768078032845
20.829907091424502
-2.728847903199494e-08
-20.829906982088232
-38.77376805324184
-35.18671491504824
-17.795036915241894
18.339514263389674
35.361410991437424
57.16902352934517
64.23175318452752
-6.924619810888544e-08
-64.23175305434222
-57.16902362317387
-35.36141088615898
-18.339514212519134
18.26836505041865
36.306179839124525
42.31465912987335
123.04927249714217
1.2215309652674478e-08
-123.04927240579912
-42.314659048412295
-36.306179826695995
-18.268364773990925
18.339514312635856
35.361410714013005
57.16902366582667
64.23175291576717
-7.823734904377488e-08
-64.2317529925931
-57.16902361837276
-35.361410850548054
-18.33951429906398
17.795036776755865
35.1867148479746
38.77376811078523
20.82990720085445
-2.5254962565668393e-08
-20.829907029729895
-38.7737681454426
-35.18671506348011
-17.795036747896603
14.263125559162631
21.650106575321047
15.62955628376767
6.958812359012427
6.7817040871887e-08
-6.958812474072715
-15.629556170654098
-21.65010760625006
-14.263126729937511
5.5799351299061755
6.835243234629274
4.048323187968549
1.7918764927663915
2.3397888071485795e-08
-1.791876374529238
-4.048323138469357
-6.835240692712148
-5.579935843226849
-29.222660053790605
-29.22265951882582
29.222659952539885
29.22265958873595
-68.82616080740809
-163.10455033754943
-262.2265536697628
-333.7184939311578
-359.1827897460789
-333.7184940345576
-262.2265533044447
-163.10454220795793
-68.82615919627949
-0.5119775526674175
0.5125337578938343
0.3608199990048888
0.16923487962776562
-1.4286086980064283e-07
-0.16923491933914647
-0.3608200850296157
-0.5125335519702503
0.5119772450632922
68.8261607486931
163.104550466795
262.22655381884147
333.7184940985348
359.1827896676372
333.7184940787465
262.2265533059059
163.10454242595006
68.82615931779583
0.5119774515478639
-0.5125338471325449
-0.3608200364632239
-0.16923491872444174
1.0957046470139176e-07
0.16923503621205782
0.36082001910358485
0.5125335431173426
-0.5119773602382338
5.5850904558603816
6.834942998083079
4.0538694425167705
1.7859858041240386
1.5780642570462078e-07
-1.7859858656738652
-4.0538695241375535
-6.834945599868433
-5.585089698860429
14.268630081639458
21.65125655400584
15.61603398344073
6.997676761863772
3.772152012970764e-08
-6.997676830104183
-15.616033937449515
-21.651255465716076
-14.26862887777611
17.80335907923586
35.168107670404424
38.8280261077648
20.69497896732082
4.0450572669215035e-08
-20.69497905337937
-38.82802605300947
-35.16810765408013
-17.803359090298272
18.313502108165267
35.47175138161742
56.79571870064967
65.00552673402251
1.1310248737572692e-08
-65.00552678820316
-56.79571867038271
-35.47175136981241
-18.313502340613923
18.5096871904243
35.50969429219526
44.80827841581913
116.41314860298564
2.4405153453699313e-09
-116.41314862521403
-44.808278497913534
-35.50969430026595
-18.509687452280275
18.313502160350026
35.47175166719967
56.79571853633445
65.00552693123836
1.0404619388282299e-07
-65.005526934312
-56.79571864161204
-35.47175142747386
-18.313502196304285
17.803359283086365
35.16810761496106
38.82802602458378
20.69497895039069
4.061575964442454e-09
-20.69497904579663
-38.828026078150344
-35.16810759130948
-17.803359259077013
14.268628896508176
21.65125544862167
15.616034017250058
6.997676854485462
-2.7808766844827915e-08
-6.997676663506127
-15.616034038484429
-21.6512566071184
-14.268630175702754
5.585089576154928
6.834945539580644
4.053869426333904
1.7859857177656977
7.896409215391031e-08
-1.7859859023166678
-4.05386942743587
-6.834943219659181
-5.585090719185246
-29.18373412186338
-29.183733587622328
-68.8152594004855
-163.1672308534114
-262.3656015778188
-333.9083007453528
-359.4327004010195
-333.90830066870603
-262.36560103281136
-163.16722267017394
-68.81525781081223
29.183734067551683
-0.504645361213079
0.5183614470952307
0.3634235872668796
0.17257131623409805
-2.910650209742016e-08
-0.1725713027597635
-0.3634235772430543
-0.5183611328884581
0.5046452878791285
29.18373364053923
68.81525943046273
163.16723093010313
262.3656016480675
333.9083008570668
359.4327005301937
333.908300729133
262.3656011043786
163.16722274481435
68.81525783603138
0.5046454213392053
-0.5183614205955109
-0.3634235154072485
-0.17257126858476113
3.638524503912777e-08
0.17257141412505916
0.36342362492291613
0.5183611496811409
-0.5046452388085072
5.59913802223673
6.862872078703731
4.070671155297077
1.7984574765068828
2.1871528588235378e-08
-1.798457461713042
-4.070671246664347
-6.86287455676279
-5.599137129241626
14.300140024267876
21.720037489375272
15.677054298541975
7.003395753813038
-1.0495909918972757e-08
-7.003395718224851
-15.677054312867426
-21.720036306549105
-14.300138777827328
17.835231506342097
35.284351963346126
38.92463865823902
20.83160343660029
6.255390871956479e-09
-20.831603424996956
-38.924638619389725
-35.284351956777414
-17.835231509359687
18.357436971475863
35.51968568879033
57.158478363417316
64.81299852231746
-2.8532099349831697e-08
-64.8129984852053
-57.15847839462447
-35.51968563101764
-18.357437060687516
18.416930782955887
36.01312644794541
43.686046639387996
120.10490434644464
7.247308531077579e-09
-120.10490431260155
-43.68604664023519
-36.01312644619247
-18.4169307752407
18.35743702044715
35.51968569277108
57.158478349526035
64.81299848694471
1.259468263015151e-08
-64.81299852559277
-57.158478378285565
-35.51968564201934
-18.357437032402345
17.835231535842127
35.28435190408197
38.92463863403509
20.831603481034108
-1.0083340384881012e-08
-20.831603444240727
-38.92463867596683
-35.28435199885945
-17.83523150894436
14.300138781934947
21.720036348524445
15.67705434357049
7.003395774259388
1.8263222045789007e-08
-7.003395737160815
-15.677054299362965
-21.720037449956322
-14.300140015021157
5.599137111182813
6.862874551659843
4.070671196672947
1.7984574699198674
4.877279025095049e-08
-1.7984575035047214
-4.070671171848517
-6.862872119763779
-5.599138045392465
SCALARS stress13 float
LOOKUP_TABLE default
-29.222937537313555
29.22293803167122
29.222937589380308
-29.222938063612673
-0.512818625458749
0.5128006242593983
0.359269821397902
0.1726894403618644
5.591573426499963e-08
-0.17268949605931994
-0.3592699025175534
-0.5128002951969393
0.5128184293425875
68.82763104855258
163.10631302084948
262.22974553676613
333.7160532002745
359.26314106662176
333.7160532626003
262.22974485075974
163.10630476665392
68.82762944755086
0.5128184860077454
-0.512800579337636
-0.3592698397114873
-0.17268948963464936
8.480856195092201e-08
0.17268938202323625
0.35926980746444315
0.512800246840925
-0.5128182850312442
-68.82763097257703
-163.10631312795158
-262.22974555369
-333.71605342120165
-359.2631410804461
-333.71605328099395
-262.22974485115265
-163.1063049476652
-68.82762930408353
5.579935011017369
14.263125609693816
17.79503688531986
18.339514332772524
18.268365061863733
18.339514284823963
17.795036940638965
14.263126733043464
5.579936032590922
6.835243242458091
21.6501065629418
35.186714840376226
35.36141086837233
36.306179918105045
35.36141089072407
35.186714895651676
21.6501076866698
6.835240694279491
4.048323245246138
15.629556282627163
38.773768168748575
57.16902365665487
42.31465917904052
57.16902369502793
38.7737681258277
15.629556279294775
4.048323035487556
1.7918763935194875
6.958812489168849
20.829907069137334
64.23175306716439
123.04927226095242
64.23175298800561
20.829907197525245
6.958812264561857
1.7918762723347754
-3.1905074138194323e-09
-3.49916717823362e-08
-1.068074197974056e-07
-3.539753379300237e-08
-1.1048541637137532e-07
2.457090886309743e-08
1.8786158761940897e-07
-8.830329534248449e-08
-5.980837158858776e-08
-1.7918764165042376
-6.958812424019925
-20.829907223276678
-64.23175295034162
-123.04927231828333
-64.2317531095141
-20.829907174302207
-6.958812510878488
-1.7918764720780018
-4.048323138631531
-15.629556306099403
-38.77376817118329
-57.16902357819038
-42.31465900805051
-57.169023655774595
-38.773768099882545
-15.629556277595839
-4.048323138653359
-6.835240705469914
-21.65010773186077
-35.186715074531094
-35.361410885194346
-36.3061797487062
-35.36141087299984
-35.18671488187829
-21.65010667235765
-6.835243112298485
-5.579935931818909
-14.263126896737958
-17.795036825897114
-18.339514371218684
-18.268364903866313
-18.339514270883228
-17.79503676352033
-14.26312560934457
-5.57993505896593
-29.22265955725743
29.222659830586053
29.22265953850001
-29.22265980033262
-0.5119773987535154
0.5125339550722856
0.3608200740200118
0.16923480598052265
2.5684130378067493e-09
-0.169234904453333
-0.3608199696027441
-0.5125333885080181
0.5119771124009276
68.82616077495913
163.10455048792937
262.2265537679341
333.71849434409523
359.1827898859192
333.71849412056326
262.22655328852125
163.10454242918058
68.82615914111375
0.5119774062914075
-0.5125340012018569
-0.36082010996324243
-0.16923484326980542
4.2360625229775906e-08
0.16923496799427085
0.36082009827077854
0.5125336679047905
-0.5119773571495898
-68.82616093024262
-163.10455048570293
-262.22655366992694
-333.71849414226017
-359.18278969076346
-333.718494029672
-262.22655319061596
-163.10454221619875
-68.82615923066624
5.5850896609335905
14.268628902049386
17.80335916189506
18.313502127624815
18.509687199170003
18.313502193144814
17.803359042824013
14.268630194070283
5.5850904840481235
6.834945527341915
21.65125549637014
35.1681076888126
35.47175144432549
35.509694235148345
35.471751374319865
35.168107790617796
21.651256534372806
6.834943142050179
4.053869367708103
15.61603393563928
38.82802603645632
56.795718585129634
44.80827836417575
56.795718602612055
38.828025987887486
15.616033941550995
4.0538695069699315
1.7859857707408082
6.997676698169016
20.694979056863303
65.00552681475892
116.41314879414494
65.00552687513482
20.69497894003689
6.997676893267453
1.7859859387353936
-1.8593709683045745e-08
5.2374161896295846e-08
1.1300289770588279e-07
-1.6189005691558123e-08
9.627547115087509e-08
-9.604264050722122e-10
-1.3471071724779904e-07
9.370296538691036e-08
6.933987606316805e-09
-1.785985842710943
-6.997676728445185
-20.694978930849175
-65.00552692522615
-116.41314878442063
-65.00552671109472
-20.69497898721056
-6.997676632246112
-1.7859858194606204
-4.053869426075835
-15.616033900038019
-38.82802596859074
-56.79571869339168
-44.808278573979806
-56.795718576687136
-38.828026057923125
-15.61603390439268
-4.053869527866482
-6.834943095091148
-21.651256502656906
-35.16810756066843
-35.471751503897394
-35.50969430588157
-35.47175142777269
-35.168107652367325
-21.651255393167958
-6.834945625530963
-5.585090569555177
-14.268629975442309
-17.803359217534307
-18.3135020480986
-18.50968735501374
-18.313502223834803
-17.803359249381174
-14.268628846723004
-5.585089673142647
-29.183733617013786
29.183734000544064
-0.504645451946999
0.5183614862180548
0.36342357943794923
0.17257129347126465
2.9445800464600325e-08
-0.17257137002889067
-0.363423567119753
-0.5183610406238586
0.5046452082751784
29.183733633573866
68.81525940512074
163.16723086127604
262.36560166631534
333.9083008199523
359.43270053681044
333.9083007401059
262.36560108544654
163.16722269979073
68.81525779835647
-29.183734001693665
0.5046453873364953
-0.5183614875422791
-0.3634236075813533
-0.1725713369596633
6.25586835667491e-08
0.17257134537794627
0.3634235830104444
0.5183611555257812
-0.5046452585957013
-68.81525944627356
-163.16723091447784
-262.3656016254099
-333.90830083124456
-359.4327004472434
-333.908300703697
-262.3656010364939
-163.16722268497688
-68.81525777064962
5.599137095327023
14.30013881107152
17.835231529999874
18.35743701500178
18.41693079163815
18.35743702333275
17.83523149744724
14.30014002652024
5.599138023375417
6.8628745491369045
21.7200363654556
35.28435193536279
35.51968565866264
36.01312645863072
35.51968563535411
35.284352014394244
21.720037454324483
6.8628720834240085
4.070671194596798
15.677054303992918
38.92463866880553
57.15847836893499
43.686046638782955
57.158478396419696
38.92463862233308
15.677054305440834
4.070671157904144
1.79845744675913
7.003395761984393
20.831603467966488
64.81299850429423
120.1049043240564
64.81299849502102
20.831603475922748
7.003395747310606
1.7984574723232072
-1.028092810884118e-08
8.11064637673553e-09
2.5283952709287405e-09
-2.5625922717154026e-08
-6.890331860631704e-09
1.1328666005283594e-08
2.5425833882763982e-08
1.1941665434278548e-09
-2.5906047085300088e-08
-1.798457494485774
-7.0033957438263315
-20.83160348348065
-64.81299850089272
-120.10490434660096
-64.81299847370246
-20.831603486838503
-7.003395740875931
-1.7984575098525966
-4.0706711691382225
-15.677054298146686
-38.92463863516696
-57.15847838336492
-43.68604665755629
-57.15847836486682
-38.92463864529054
-15.677054285584745
-4.070671221095836
-6.862872066900309
-21.72003746025439
-35.28435198904481
-35.51968569671226
-36.01312641080585
-35.51968565450079
-35.28435193809855
-21.720036368104047
-6.8628745331734535
-5.599138014251366
-14.300139999759267
-17.835231527118594
-18.35743699534214
-18.416930792045605
-18.357437032587768
-17.83523151269037
-14.300138781240094
-5.5991371222626185
SCALARS stress12 float
LOOKUP_TABLE default
-1.4883349143128726
1.4883347171125934
-1.4883349670703865
1.4883348558978469
-2.735755878718919
-3.565416740508226
-3.0822042069703457
-1.7471760343687492
-3.974128048866987e-08
1.7471759083819052
3.082204069414729
3.5654167093525757
2.735755904464895
2.735755665536999
3.565416733330494
3.0822042995496304
1.7471759591007867
-8.55179678183049e-08
-1.7471761323686223
-3.082203932770426
-3.5654167952234275
-2.735755816202982
-2.7357559631577715
-3.5654168391597523
-3.0822041251913106
-1.747176088660126
-7.611561159137636e-08
1.7471758736755874
3.082204093429027
3.565416713274317
2.7357558831135975
2.7357559922966175
3.5654170153211453
3.0822041268438625
1.7471759218205989
-3.88936314266175e-08
-1.7471758276369656
-3.0822040852690407
-3.565416586057836
-2.735755828092806
-7.025968174242735
-10.120484591272543
-9.032472999824677
-5.154762281978037
8.274218998849392e-08
5.154762270678475
9.032472958620929
10.120484372855572
7.025968221580115
-10.120484631137515
-16.300389837506373
-16.258092304346064
-9.739988734578219
1.1439260561019182e-07
9.73998855229729
16.258092406202195
16.300389967531373
10.120484863400634
-9.032472930619406
-16.258092293406662
-20.09097686131645
-14.614269492147287
2.3326720111072063e-08
14.61426959414166
20.09097698734331
16.258092110154394
9.032473135666805
-5.154762376707367
-9.739988664045086
-14.614269427718682
-17.418612610388664
-6.908521754667163e-08
17.418612593828584
14.614269552197584
9.739988741079287
5.154762344644041
2.0583684090524912e-08
1.841181074269116e-08
7.1413523983210325e-09
-9.06984496396035e-08
2.531305653974414e-08
9.863651939667761e-08
-1.0181247489526868e-07
-1.5126352082006633e-07
6.146365194581449e-09
5.154762332156679
9.739988814460958
14.614269498881185
17.418612474961265
-4.923640517517924e-08
-17.418612590339762
-14.614269527481156
-9.739988759050902
-5.154762344114715
9.032472986793437
16.258092131443846
20.090977046522312
14.614269378562312
-1.073112798621878e-07
-14.614269482139207
-20.090977019339334
-16.258092126066913
-9.032472989779308
10.120484538510937
16.3003898923198
16.258092178966763
9.739988625762635
-8.813913154881448e-08
-9.739988694283966
-16.258092165045127
-16.30038993442031
-10.120484410105291
7.025968187550461
10.120484368300822
9.032472985931236
5.154762347945507
9.81799530563876e-08
-5.1547621902700484
-9.032472950150805
-10.120484738408777
-7.025968287271326
1.483798516826937
-1.4837983704674116
1.4837984838591183
-1.4837985391059192
2.720112848786812
3.5397668924670143
3.055562158810062
1.726496663504804
-5.7265424402430654e-08
-1.7264967975133914
-3.055562069595908
-3.5397667903198453
-2.7201128678534587
-2.7201128991073347
-3.5397668538025755
-3.0555621953244554
-1.7264966040875152
4.9112713895738125e-09
1.7264969015013776
3.0555620470004214
3.5397668899395285
2.7201129098762067
2.720113036165003
3.5397670426737022
3.0555623071732043
1.726496782481263
2.2039239411242306e-07
-1.7264966412658396
-3.055562143053976
-3.5397669349658827
-2.7201129645327455
-2.720113152099657
-3.5397670371494314
-3.05556222064115
-1.7264967109986173
-9.946234058588743e-09
1.7264967166884162
3.0555621130552026
3.539766843237885
2.72011303207546
7.0001965628580365
10.086844759971427
8.98804502326675
5.13063080156644
9.000359568744898e-09
-5.130630775867758
-8.988045026871987
-10.086844579287572
-7.000196602097276
10.086844695066247
16.248432821696042
16.19476829481937
9.640540842094197
-9.654831956140697e-08
-9.640540741453151
-16.194768240184203
-16.248433063705306
-10.086844966241188
8.988044949030154
16.19476822402794
19.936391572897264
14.527385813446017
2.0339939510449767e-08
-14.527385914490878
-19.936391607745463
-16.194768046603713
-8.988045116981084
5.130630829866277
9.640540783228062
14.527385766974476
16.39972118749938
-2.2508174879476428e-08
-16.39972121770188
-14.527385927793148
-9.640540807102298
-5.130630889550957
9.915311238728464e-08
-3.933018888346851e-08
5.371475708670914e-08
1.5159457689151168e-08
7.169364835135639e-08
-3.7953213904984295e-08
1.3125645637046546e-07
1.321386662311852e-07
-6.957270670682192e-08
-5.130630825995468
-9.64054098953784
-14.527385870831495
-16.399721085639612
4.940011422149837e-08
16.39972121434039
14.527385844126911
9.64054089362071
5.130630883879348
-8.988045015143143
-16.194768136792845
-19.936391721123073
-14.527385735920689
1.0687836038414389e-07
14.52738577828677
19.936391710250973
16.19476808733907
8.988044942470879
-10.086844642148208
-16.248433029330045
-16.194768072648003
-9.640540780193987
4.343382897786796e-08
9.640540830994723
16.194768098097484
16.24843300003795
10.086844521269086
-7.000196524662897
-10.086844522491447
-8.988045008267363
-5.130630835397824
2.3774191504344344e-09
5.130630580808429
8.98804494083106
10.0868449157324
7.000196589805682
-0.002264697766804602
0.0022646713732683565
-0.007820436461770441
-0.01282584364162176
-0.013321723286935594
-0.010339600743463961
-4.7330104280263186e-08
0.010339472060877597
0.013321697155333823
0.012825878682633629
0.007820438459020806
-0.0022647400394362194
0.00782030585105531
0.012825860376324272
0.013321751335752197
0.0103395927890233
-3.982495400123298e-08
-0.010339532327634515
-0.013321641421498498
-0.012825872272514971
-0.007820374421953602
0.0022646564975730143
-0.007820384596698204
-0.012825818494548002
-0.013321610155799135
-0.010339569202187704
7.28960003471002e-08
0.010339533513615606
0.013321673141035717
0.01282580841507297
0.007820379814802436
0.007820342703780625
0.01282590829214314
0.0133216528192861
0.010339521697460441
-2.510569174773991e-08
-0.01033947281393921
-0.013321684411494061
-0.012825790854549268
-0.007820318947779015
-0.01288703155296389
-0.01681902995915152
-0.02222004956638557
-0.012054003727826057
4.568573785945773e-08
0.012054011091095163
0.022220026556169614
0.01681901132542407
0.012887033361039357
-0.016819079206470633
-0.025989886788011063
-0.03164021308111842
-0.04977348451211583
9.509676601737738e-09
0.04977344562576036
0.03164029133404256
0.02598983233474428
0.016819061718706507
-0.02222005066141719
-0.031640243712899974
-0.07738637031070539
-0.04323635702530737
2.155866241082549e-08
0.04323635823675431
0.07738641545074643
0.03164024003126542
0.02222007003001636
-0.012054036797053413
-0.04977348099055234
-0.04323634809770738
-0.5100431500832201
-4.559115041047335e-08
0.5100431269020191
0.04323633049716591
0.04977350554872828
0.012053990936692571
5.795300239697099e-08
-1.0735675459727645e-08
3.032619133591652e-08
-3.681998350657523e-08
4.7559296945109963e-08
2.999331627506763e-08
1.5068508218973875e-08
-9.238647180609405e-09
-3.054083208553493e-08
0.012054017799528083
0.049773452170484234
0.043236332738160854
0.5100431328210107
-1.0204530553892255e-09
-0.5100431271457637
-0.04323636038679979
-0.04977347196654591
-0.01205399377613503
0.022220045982976444
0.03164020718759275
0.07738638893715688
0.04323634013780975
-2.9103830456733704e-11
-0.043236369694568566
-0.07738638041701051
-0.031640228458854835
-0.0222200822454397
0.016819060041598277
0.02598981171104242
0.03164026247395668
0.049773462931625545
-2.1978848963044584e-08
-0.04977347082240158
-0.03164024210036587
-0.0259898469048494
-0.01681905715577159
0.012887055851024343
0.016819036991364555
0.02222004770010244
0.012054019654897274
4.862704372499138e-08
-0.012054066070049885
-0.022220064427528996
-0.016819024318010634
-0.012887071331761035
SCALARS strain11 float
LOOKUP_TABLE default
-8.865200670175183e-08
-8.865201646260715e-08
-8.86520191627991e-08
-8.865202216377585e-08
-4.210291945638822e-08
-1.3376885483421669e-08
8.11034965987438e-09
2.084646402158649e-08
2.5082764017496026e-08
2.084645775294637e-08
8.110324271112107e-09
-1.3376891150763265e-08
-4.210292603467648e-08
-2.3056626820999217e-07
-5.618646273441649e-07
-9.16930073177006e-07
-1.1745190918385773e-06
-1.2683330032610494e-06
-1.1745190903514856e-06
-9.169300830316448e-07
-5.61864622035369e-07
-2.3056626011813057e-07
-4.210293603691586e-08
-1.3376888143755645e-08
8.110353164774743e-09
2.0846461473494546e-08
2.5082766925651513e-08
2.0846460001256416e-08
8.11033175340814e-09
-1.3376882585999783e-08
-4.210293639249352e-08
-2.3056627015353298e-07
-5.618646284454975e-07
-9.169300890902749e-07
-1.1745191075159239e-06
-1.2683329972419926e-06
-1.1745191030158343e-06
-9.169300858660745e-07
-5.618646128206263e-07
-2.305662579185283e-07
-1.5270919989304743e-07
-4.673946835704202e-07
-8.535684316191439e-07
-1.1471574737048195e-06
-1.2561912195636644e-06
-1.1471574841255203e-06
-8.535684394752729e-07
-4.673947183050052e-07
-1.5270920268118174e-07
-1.7522092113407897e-08
-9.905766308452614e-08
-3.0818192572694934e-07
-5.788459420030725e-07
-6.697574356326775e-07
-5.788459627813734e-07
-3.081819393319519e-07
-9.905766423811725e-08
-1.752211452256576e-08
7.843504040119971e-08
2.262682994892684e-07
3.3532432769075096e-07
2.2023943724476525e-07
-2.4639881093151475e-08
2.2023943654155172e-07
3.353243361598878e-07
2.2626830610290166e-07
7.843503166209652e-08
1.2990149632222461e-07
4.2197256761434924e-07
8.551974176962494e-07
1.2871093303353561e-06
1.4366536649013453e-06
1.2871093349703204e-06
8.551974304001715e-07
4.2197257463412463e-07
1.2990149720400624e-07
1.4596072779734463e-07
4.817076172671745e-07
1.0378652706497914e-06
1.8566326425316273e-06
2.564983286282513e-06
1.8566326289403941e-06
1.0378652621030257e-06
4.817076145322745e-07
1.459607228779941e-07
1.29901491723039e-07
4.2197257931158964e-07
8.551974172855536e-07
1.2871093386199618e-06
1.4366536703009974e-06
1.287109337163065e-06
8.551974207213903e-07
4.219725810359319e-07
1.2990149907143606e-07
7.84350261404717e-08
2.2626829828059983e-07
3.353243287940351e-07
2.2023944182335102e-07
-2.463988669565778e-08
2.202394403372351e-07
3.353243276704764e-07
2.262682984863814e-07
7.84350178958189e-08
-1.7522120972701324e-08
-9.905765300990271e-08
-3.0818192740865533e-07
-5.788459446543805e-07
-6.6975743762929e-07
-5.788459464874411e-07
-3.0818193126982453e-07
-9.905766649531775e-08
-1.7522083462612973e-08
-1.5270921547194845e-07
-4.6739471839217506e-07
-8.535684301550373e-07
-1.1471574901192067e-06
-1.2561912181999549e-06
-1.1471574922510734e-06
-8.535684327205849e-07
-4.6739468488832215e-07
-1.5270919507922028e-07
8.837938208269142e-08
8.837938009133729e-08
8.837936946373009e-08
8.837937678658064e-08
4.1992248902070206e-08
1.3326746015323437e-08
-8.102247969548823e-09
-2.075159750460076e-08
-2.4919445938817106e-08
-2.0751591596566282e-08
-8.10222604936614e-09
1.3326774064717842e-08
4.199224776712737e-08
2.2925831162407158e-07
5.596028567330324e-07
9.136727916769262e-07
1.1701124289310101e-06
1.2637151679100725e-06
1.1701124343201997e-06
9.136727844246437e-07
5.59602846038679e-07
2.292582919057951e-07
4.1992248035873985e-08
1.332675578859287e-08
-8.102244344356229e-09
-2.0751614399940055e-08
-2.4919454536106653e-08
-2.0751580812549374e-08
-8.102240372761041e-09
1.3326748627871202e-08
4.1992239933224575e-08
2.2925830543143403e-07
5.596028642357656e-07
9.136728038891626e-07
1.1701124418498753e-06
1.2637151771981072e-06
1.1701124433170177e-06
9.13672797716366e-07
5.5960283838535e-07
2.292582946365751e-07
1.5157437074919677e-07
4.654182321273733e-07
8.50128432274954e-07
1.1422320067388907e-06
1.249324349666633e-06
1.1422320113592182e-06
8.5012843798317e-07
4.6541827754850544e-07
1.5157437054623413e-07
1.700562589704302e-08
9.743012244537406e-08
3.060885661470853e-07
5.715009555567595e-07
6.636453213329681e-07
5.71500969469025e-07
3.060885768793858e-07
9.743012097476224e-08
1.7005637597319184e-08
-7.824252991621601e-08
-2.2580798765938284e-07
-3.379326967457852e-07
-2.1974959298965476e-07
-1.856013871997901e-08
-2.1974959481707752e-07
-3.3793270827562477e-07
-2.2580799178238686e-07
-7.824251515198451e-08
-1.2873375150536555e-07
-4.19218378765792e-07
-8.514849639401634e-07
-1.2775387203992853e-06
-1.4282763074172002e-06
-1.2775387296314836e-06
-8.514849731057917e-07
-4.1921838055982135e-07
-1.2873375900099727e-07
-1.4407969932482122e-07
-4.786759619024913e-07
-1.0257691178564097e-06
-1.8477593954604934e-06
-2.4648503494813494e-06
-1.8477593833945158e-06
-1.025769117094324e-06
-4.786759584182992e-07
-1.4407968925637775e-07
-1.2873374881003895e-07
-4.192183809413521e-07
-8.514849645228136e-07
-1.277538736545224e-06
-1.4282763167052892e-06
-1.27753873111825e-06
-8.514849663869908e-07
-4.1921837959065303e-07
-1.2873375938588904e-07
-7.824251782779547e-08
-2.2580799401801174e-07
-3.379326980708971e-07
-2.1974959378383285e-07
-1.8560137423381633e-08
-2.197495855425953e-07
-3.379327015895668e-07
-2.2580799280278374e-07
-7.824250730702285e-08
1.7005651930471904e-08
9.743010950357799e-08
3.06088572461804e-07
5.715009519938544e-07
6.636453245089215e-07
5.715009508688862e-07
3.060885716754322e-07
9.743012229017052e-08
1.7005617127121382e-08
1.51574380318582e-07
4.6541826924698625e-07
8.501284296659299e-07
1.1422320132815087e-06
1.2493243497867625e-06
1.1422320241227715e-06
8.501284273765828e-07
4.6541823243067887e-07
1.5157437055208204e-07
-1.3609292837633846e-10
-1.3609854779619845e-10
-5.517966986112732e-11
-2.501393970427701e-11
4.043189828079052e-12
4.731612757852277e-11
8.142609741849938e-11
4.731595497353691e-11
4.041381162014912e-12
-2.5002999887516197e-11
-5.51833921440259e-11
-1.3610527924156918e-10
-6.539467121025738e-10
-1.1308266779030095e-09
-1.628608408831174e-09
-2.2037412650472744e-09
-2.307882391596426e-09
-2.2037378456362527e-09
-1.6286167459664096e-09
-1.1308293210252757e-09
-6.539524053023917e-10
-1.3610309732535464e-10
-5.518841474447126e-11
-2.501042645555729e-11
4.046696896846391e-12
4.730655472386103e-11
8.142329020223438e-11
4.7322353826338703e-11
4.03804642718289e-12
-2.501141822949457e-11
-5.519246756673091e-11
-6.539507481535811e-10
-1.1308235192426103e-09
-1.6286101952710935e-09
-2.203742728015476e-09
-2.307874934995985e-09
-2.203739627847784e-09
-1.6286117023121133e-09
-1.1308286026329162e-09
-6.539499757679534e-10
-5.674488131983402e-10
-9.880969968015935e-10
-1.720009208195164e-09
-2.4622536122639524e-09
-3.438074964588929e-09
-2.462256370365859e-09
-1.7200102284294083e-09
-9.880917017750235e-10
-5.674502892311778e-10
-2.580994322345237e-10
-8.139375300055679e-10
-1.0456623475083027e-09
-3.674534654850292e-09
-3.0482592381243095e-09
-3.674538067918731e-09
-1.04566365375508e-09
-8.139388828730387e-10
-2.5810459628947124e-10
9.618245414531879e-11
2.310266565726249e-10
-1.305879299660917e-09
2.564567562219483e-10
-2.1625142494850064e-08
2.564555230503973e-10
-1.3058809537197513e-09
2.310279144639854e-10
9.618525008588119e-11
5.837312196110833e-10
1.3772206062211134e-09
1.8551765794145442e-09
4.787633560432436e-09
4.179751988964142e-09
4.787631283607874e-09
1.8551782976581471e-09
1.3772230949529903e-09
5.83728058402809e-10
9.40723662596482e-10
1.5138260241708001e-09
6.051482373146608e-09
4.4125693754275275e-09
5.012592776206144e-08
4.412568631664837e-09
6.0514786350343575e-09
1.5138263526840584e-09
9.407260130383718e-10
5.8373045936852e-10
1.3772251709291e-09
1.8551761043171522e-09
4.787629745396042e-09
4.179750086135119e-09
4.787631600194908e-09
1.8551767721856904e-09
1.3772266144358725e-09
5.837289205603766e-10
9.61813385012833e-11
2.3102293277184327e-10
-1.3058794700974985e-09
2.564585828857685e-10
-2.1625144627042056e-08
2.564620211076979e-10
-1.3058816495607056e-09
2.3102368146765348e-10
9.618236898123814e-11
-2.581008545993538e-10
-8.139390648563734e-10
-1.0456600440665771e-09
-3.674537760981096e-09
-3.048258542608616e-09
-3.674539147784095e-09
-1.0456622324744522e-09
-8.139392940567126e-10
-2.580993708144706e-10
-5.674517156075559e-10
-9.880958256464067e-10
-1.7200096676800447e-09
-2.4622583834040326e-09
-3.438074212044201e-09
-2.462254134090458e-09
-1.7200120611376556e-09
-9.880973527180616e-10
-5.674466050783144e-10
SCALARS strain22 float
LOOKUP_TABLE default
-8.865201486080686e-08
-8.865203243529039e-08
-8.865200714754866e-08
-8.865202520799871e-08
-2.3056627003340338e-07
-5.618646380502277e-07
-9.169300834097061e-07
-1.1745190931927458e-06
-1.2683329879278286e-06
-1.1745190870778455e-06
-9.169300875587309e-07
-5.618646151546967e-07
-2.3056626484636335e-07
-4.2102937379768016e-08
-1.3376887295123499e-08
8.110329437227039e-09
2.084647023449862e-08
2.5082750588893178e-08
2.084644515625185e-08
8.110339478348619e-09
-1.3376891800308786e-08
-4.210291689631584e-08
-2.305662628786245e-07
-5.618646460437793e-07
-9.169300922593437e-07
-1.1745190820690483e-06
-1.268332984037169e-06
-1.174519095054863e-06
-9.169300960442392e-07
-5.618646220552099e-07
-2.3056627830868488e-07
-4.2102927443488786e-08
-1.3376879870073341e-08
8.110339912029488e-09
2.084646678109786e-08
2.508275818036837e-08
2.0846452354270073e-08
8.1103296075552e-09
-1.3376881767210302e-08
-4.2102928395635134e-08
-1.5270919672977917e-07
-1.7522125579910036e-08
7.843504184795909e-08
1.299014928883395e-07
1.4596071424579325e-07
1.299014828878755e-07
7.843503596854755e-08
-1.75220774623671e-08
-1.527092190545861e-07
-4.673947190038819e-07
-9.905764539273193e-08
2.2626830489748569e-07
4.2197257191949923e-07
4.817076234655583e-07
4.219725650040241e-07
2.262682995905329e-07
-9.905766849122553e-08
-4.673946897885365e-07
-8.535684262774967e-07
-3.0818193541147683e-07
3.353243349049238e-07
8.551974253483315e-07
1.0378652650468514e-06
8.551974177842866e-07
3.353243226221058e-07
-3.0818192403776236e-07
-8.535684258212644e-07
-1.1471574793053742e-06
-5.788459494200995e-07
2.2023944076386866e-07
1.287109342487311e-06
1.8566326342908234e-06
1.2871093375946318e-06
2.202394493048881e-07
-5.788459510245019e-07
-1.147157485955762e-06
-1.2561912041292875e-06
-6.697574432649187e-07
-2.4639877984093325e-08
1.4366536753786414e-06
2.5649832824372817e-06
1.4366536808495256e-06
-2.4639881518700828e-08
-6.697574634774829e-07
-1.256191203191561e-06
-1.1471574874551051e-06
-5.78845936160307e-07
2.2023944204452826e-07
1.2871093299623906e-06
1.8566326512058952e-06
1.2871093432244058e-06
2.2023944075047876e-07
-5.788459434667454e-07
-1.1471574803768913e-06
-8.535684478511683e-07
-3.081819356495676e-07
3.3532434105094065e-07
8.551974241964751e-07
1.0378652685340793e-06
8.55197422366125e-07
3.3532431617576495e-07
-3.0818192821855436e-07
-8.535684327306138e-07
-4.673946861666507e-07
-9.905765721292085e-08
2.2626830338930625e-07
4.2197256535985925e-07
4.817076263547945e-07
4.2197258593790806e-07
2.2626830767022432e-07
-9.905764843576217e-08
-4.6739471291630356e-07
-1.5270920935769872e-07
-1.752207666959847e-08
7.843502872455915e-08
1.299014873588e-07
1.4596072877193396e-07
1.2990148955680306e-07
7.843502830101557e-08
-1.7522128123068862e-08
-1.5270919807450835e-07
8.837939373038377e-08
8.837936991870198e-08
8.837936957308543e-08
8.837937613497514e-08
2.2925830817739287e-07
5.59602856546387e-07
9.136727856539663e-07
1.1701124374274147e-06
1.2637151589609593e-06
1.1701124243736205e-06
9.136727933114694e-07
5.596028512556972e-07
2.292583005077467e-07
4.19922595192284e-08
1.3326749348215126e-08
-8.10222563043042e-09
-2.0751598611029078e-08
-2.4919443553463906e-08
-2.0751588777857474e-08
-8.10222155252921e-09
1.332675926156348e-08
4.199223478575792e-08
2.292583067362239e-07
5.596028758155056e-07
9.136728032044347e-07
1.170112426285611e-06
1.2637151786467097e-06
1.1701124370130326e-06
9.136728014340952e-07
5.596028635524472e-07
2.292582986773966e-07
4.199224865953418e-08
1.332676053929574e-08
-8.102226911740548e-09
-2.075157876915354e-08
-2.491944394952296e-08
-2.075159485394329e-08
-8.102230893581447e-09
1.3326740486109198e-08
4.199224982646098e-08
1.515743702361523e-07
1.7005654147665347e-08
-7.824252752620074e-08
-1.287337451985615e-07
-1.440796807229477e-07
-1.2873373718045276e-07
-7.824252392263798e-08
1.700560802592177e-08
1.5157438736654663e-07
4.6541826499170956e-07
9.743010043433524e-08
-2.2580799602898993e-07
-4.19218374607443e-07
-4.786759678274393e-07
-4.1921836606327936e-07
-2.2580799309145257e-07
9.743012135076355e-08
4.654182396556395e-07
8.501284298877577e-07
3.060885767164302e-07
-3.379327050211751e-07
-8.514849760299934e-07
-1.0257691077841715e-06
-8.51484958900358e-07
-3.3793269573205616e-07
3.060885620653894e-07
8.501284291037711e-07
1.1422320121393017e-06
5.715009553410033e-07
-2.1974959176895154e-07
-1.2775387329979314e-06
-1.8477593973912406e-06
-1.2775387340538359e-06
-2.1974960814701797e-07
5.715009600981572e-07
1.1422320096442272e-06
1.249324340996485e-06
6.636453374257809e-07
-1.8560149800091533e-08
-1.4282763157033238e-06
-2.4648503405376573e-06
-1.428276316372927e-06
-1.856014306578658e-08
6.636453515601994e-07
1.249324342356183e-06
1.1422320123654663e-06
5.715009493789756e-07
-2.197496000032502e-07
-1.2775387203551583e-06
-1.8477594053082475e-06
-1.2775387409012231e-06
-2.19749600732593e-07
5.715009603631362e-07
1.1422320111850954e-06
8.501284410450654e-07
3.0608857579540044e-07
-3.37932705723196e-07
-8.514849772962331e-07
-1.025769113519059e-06
-8.514849657522989e-07
-3.37932685042148e-07
3.0608856302523357e-07
8.501284331808591e-07
4.6541824272393166e-07
9.743011096448621e-08
-2.2580799863324355e-07
-4.19218365382292e-07
-4.786759721446239e-07
-4.192183824685593e-07
-2.2580800159994596e-07
9.743011243395962e-08
4.654182608438502e-07
1.5157438075182918e-07
1.7005616029502207e-08
-7.824251673079971e-08
-1.2873374520463304e-07
-1.440797030266127e-07
-1.287337412386215e-07
-7.824251697225153e-08
1.7005657838181122e-08
1.5157436737157497e-07
-1.3609110377250239e-10
-1.3611157817158825e-10
-6.53949414584909e-10
-1.1308320274107386e-09
-1.6286164665132996e-09
-2.203737785354612e-09
-2.3078793849953816e-09
-2.2037410184454903e-09
-1.6286146513420224e-09
-1.1308234082203078e-09
-6.539504497811433e-10
-1.3609910659399815e-10
-5.5183194168709204e-11
-2.501316103027673e-11
4.044137962878891e-12
4.7318735626848685e-11
8.14207735521516e-11
4.7311143501135855e-11
4.0511502572698754e-12
-2.5010650831196884e-11
-5.5185322159418196e-11
-1.3610494914266524e-10
-6.539464957839116e-10
-1.1308264335509449e-09
-1.6286120637309075e-09
-2.203737737866557e-09
-2.307867659348886e-09
-2.2037388976376207e-09
-1.628614828825918e-09
-1.130820662532516e-09
-6.539580489541702e-10
-5.518381845232012e-11
-2.5003969814779703e-11
4.048797538555582e-12
4.732680957200697e-11
8.142422977183705e-11
4.731174458282028e-11
4.0417137952414306e-12
-2.5014992030905625e-11
-5.5183639775802096e-11
-5.674476177570248e-10
-2.5810213038005014e-10
9.618422009381733e-11
5.837327562508224e-10
9.40726018567803e-10
5.837317493522648e-10
9.618308623518534e-11
-2.5810090609895697e-10
-5.674501465501719e-10
-9.880981365149172e-10
-8.139397719188202e-10
2.310251347864556e-10
1.3772245598727556e-09
1.5138261072206866e-09
1.377225417476674e-09
2.3102402152766488e-10
-8.139406514236225e-10
-9.880962482684136e-10
-1.720007613659029e-09
-1.0456619168631998e-09
-1.305879989321919e-09
1.8551743069267906e-09
6.051484626118722e-09
1.8551790628880405e-09
-1.3058812377807205e-09
-1.0456635545505813e-09
-1.7200078332099689e-09
-2.4622536971569825e-09
-3.6745384085750538e-09
2.5645909766496e-10
4.787633330798416e-09
4.412564398722715e-09
4.787630414402992e-09
2.5645528956745947e-10
-3.6745369478294668e-09
-2.4622580753279853e-09
-3.4380715258248984e-09
-3.048255086714191e-09
-2.1625146393641076e-08
4.1797530965850815e-09
5.0125930238596045e-08
4.179755367121271e-09
-2.1625144842039347e-08
-3.0482580643670376e-09
-3.438070557957619e-09
-2.4622575074770975e-09
-3.674534867787599e-09
2.564556694176906e-10
4.7876333360567964e-09
4.412568810287145e-09
4.7876298825476164e-09
2.564546271741422e-10
-3.6745331043327653e-09
-2.4622546594406207e-09
-1.7200127361890333e-09
-1.045662466987382e-09
-1.3058771548921794e-09
1.855173137289487e-09
6.051483561649029e-09
1.8551779949489006e-09
-1.3058792052269078e-09
-1.0456651296794975e-09
-1.7200094035141854e-09
-9.88093101371608e-10
-8.139403298492581e-10
2.3102317650049164e-10
1.3772259912364637e-09
1.5138255319430138e-09
1.377227747101882e-09
2.3102387624457377e-10
-8.139353117821331e-10
-9.880971613563782e-10
-5.674485278363284e-10
-2.580966540748769e-10
9.618305273333821e-11
5.837300083404162e-10
9.407222703724724e-10
5.837330892093096e-10
9.618258950796002e-11
-2.5810142476772376e-10
-5.674496043779349e-10
SCALARS strain33 float
LOOKUP_TABLE default
-9.61511394732828e-07
-9.615084180202016e-07
-9.615126107042704e-07
-9.615109175485637e-07
-1.2658719005173569e-06
-1.9924364015877494e-06
-2.9753916199713737e-06
-3.717242555677236e-06
-4.043922896740382e-06
-3.7172457076975474e-06
-2.9753933038188796e-06
-1.9924328615583686e-06
-1.2658715903418605e-06
-1.2658700367269848e-06
-1.992431094116273e-06
-2.9753896940310637e-06
-3.717242587797376e-06
-4.043927453865892e-06
-3.717245106510912e-06
-2.975392002582851e-06
-1.9924306115079622e-06
-1.2658705635694434e-06
-1.2658705205311708e-06
-1.9924342553067666e-06
-2.975391216776535e-06
-3.717241953252008e-06
-4.043924439468133e-06
-3.7172432408097422e-06
-2.9753937495682198e-06
-1.9924345272710753e-06
-1.2658725873464227e-06
-1.265872082781283e-06
-1.9924324739378774e-06
-2.9753918054167827e-06
-3.717244599930891e-06
-4.04392573799886e-06
-3.7172437735745467e-06
-2.9753921173200637e-06
-1.9924316351747906e-06
-1.265872855961414e-06
-3.968439283026648e-06
-6.096788438356843e-06
-9.960832070065456e-06
-1.2927508863731785e-05
-1.4198358355806823e-05
-1.2927512914515799e-05
-9.960830779778135e-06
-6.096787053468111e-06
-3.968443768296442e-06
-6.09678832099933e-06
-1.6154723310249364e-06
-5.384625287284395e-07
-1.199383232591833e-06
-1.11481285063747e-06
-1.1993852079179856e-06
-5.384634005067834e-07
-1.6154729876663443e-06
-6.096786056291811e-06
-9.960830382235025e-06
-5.384635550949313e-07
7.423964827231455e-06
1.1815301711719933e-05
1.0222574977059723e-05
1.181529873605855e-05
7.423966386170197e-06
-5.384632982188137e-07
-9.960830120883321e-06
-1.2927508988069825e-05
-1.1993837818122244e-06
1.1815299285129754e-05
2.88748189067288e-05
3.916455005124539e-05
2.887481866229412e-05
1.1815302989595308e-05
-1.1993847078874131e-06
-1.2927508541205057e-05
-1.419835861315652e-05
-1.1148150945300417e-06
1.0222579007082566e-05
3.916455133766601e-05
4.679969825188354e-05
3.916454896264049e-05
1.0222575273379983e-05
-1.1148169833091054e-06
-1.4198355002593283e-05
-1.2927512757457404e-05
-1.1993828445272525e-06
1.1815298100733423e-05
2.8874819470961488e-05
3.916455259933907e-05
2.8874822288523644e-05
1.1815300964300446e-05
-1.1993849971473486e-06
-1.2927507248254935e-05
-9.960834407754526e-06
-5.384612699957381e-07
7.423969062466881e-06
1.181529995191756e-05
1.0222576192077393e-05
1.1815302954590323e-05
7.4239644825661866e-06
-5.384636736450663e-07
-9.960833203330813e-06
-6.096789502654798e-06
-1.6154730040074394e-06
-5.384625713575342e-07
-1.1993838384197208e-06
-1.1148153791565307e-06
-1.1993820471442596e-06
-5.384646935167534e-07
-1.6154719090734002e-06
-6.096788602315967e-06
-3.968443597589244e-06
-6.0967898958316086e-06
-9.960830515269234e-06
-1.2927511420630922e-05
-1.4198356318037564e-05
-1.2927513039257162e-05
-9.960831698015843e-06
-6.096788211576876e-06
-3.968439057786249e-06
9.614991768255865e-07
9.614982947152295e-07
9.615014888412913e-07
9.614975758319433e-07
1.2659866107031514e-06
1.992532039789968e-06
2.9755192706391875e-06
3.7175333086648943e-06
4.043736944021881e-06
3.7175346843144885e-06
2.975516907307435e-06
1.992533619193243e-06
1.2659848725032896e-06
1.2659867256320512e-06
1.992534622028211e-06
2.975519065768345e-06
3.7175327297304245e-06
4.043738868607372e-06
3.7175368205188963e-06
2.9755203652722523e-06
1.9925333545958712e-06
1.2659830049622286e-06
1.2659867798579891e-06
1.992534887904941e-06
2.9755176279878948e-06
3.717530420839499e-06
4.043739321781328e-06
3.7175379624613397e-06
2.9755182942275277e-06
1.9925374733029827e-06
1.2659823019067762e-06
1.2659847108235922e-06
1.9925345429230856e-06
2.9755225596783674e-06
3.717537933038695e-06
4.043739299814525e-06
3.7175338074187103e-06
2.9755206765284814e-06
1.992531315730267e-06
1.2659852134389027e-06
3.969630004620889e-06
6.098013223633514e-06
9.962463362631763e-06
1.2929712649812491e-05
1.4198181331751686e-05
1.292971337909371e-05
9.962463785651021e-06
6.098012680675474e-06
3.969633930615835e-06
6.098015229813458e-06
1.616815791326276e-06
5.395745061136104e-07
1.199319717724856e-06
1.1272664933309473e-06
1.199321258565228e-06
5.395760556518858e-07
1.61681628350549e-06
6.098011464455641e-06
9.96246082910282e-06
5.395768748368834e-07
-7.423164760531065e-06
-1.1807523230350503e-05
-1.0264924019030841e-05
-1.180751939702622e-05
-7.42316691359525e-06
5.395761884779277e-07
9.962462379357537e-06
1.2929712181610625e-05
1.1993200024797146e-06
-1.1807520905324914e-05
-2.8917286918311857e-05
-3.89479521640812e-05
-2.8917288805774266e-05
-1.1807524168629471e-05
1.1993201214088867e-06
1.2929709010340087e-05
1.4198179826615392e-05
1.1272682580512616e-06
-1.0264927648169497e-05
-3.894795329957568e-05
-4.813768137928304e-05
-3.894794865472867e-05
-1.0264926739920327e-05
1.1272712141536384e-06
1.4198178115997634e-05
1.2929714423570715e-05
1.1993192366027694e-06
-1.1807520595886675e-05
-2.89172872449759e-05
-3.894795377596544e-05
-2.891729213531577e-05
-1.1807521893317588e-05
1.1993224838680733e-06
1.2929709220788066e-05
9.962464045075448e-06
5.395742633494682e-07
-7.423166539930609e-06
-1.1807523159218167e-05
-1.0264925053831558e-05
-1.1807523546592327e-05
-7.423163136604377e-06
5.395756779817684e-07
9.962462952899619e-06
6.09801512434574e-06
1.6168157413766482e-06
5.395764419123539e-07
1.1993206103944748e-06
1.1272670277038405e-06
1.1993185533350909e-06
5.395759520134338e-07
1.6168188579860493e-06
6.0980144339656955e-06
3.969633114966203e-06
6.098016079557345e-06
9.962460273425788e-06
1.2929712272563912e-05
1.4198177785824245e-05
1.2929715462188691e-05
9.962462004193227e-06
6.09801344801696e-06
3.969629308219619e-06
-6.152946208093368e-12
-5.090188687217889e-12
5.7259162689060616e-11
4.7690507792852443e-11
6.353947576420715e-11
1.452243117427976e-10
-9.293196767679035e-11
1.4437908507636266e-10
6.15431663963939e-11
5.02333626084539e-11
5.65654606488053e-11
-5.5705010916506925e-12
5.823160356688284e-11
5.162838906391798e-11
6.443328856575725e-11
1.4492059982607053e-10
-9.421021081312819e-11
1.457280121228144e-10
6.389072691043163e-11
5.122558844120051e-11
5.6153773254560835e-11
-6.678362723944176e-12
5.803276349053421e-11
5.0167476509793696e-11
6.29397367557516e-11
1.4409000034798503e-10
-9.249589462412278e-11
1.4724614583183637e-10
6.200541816103744e-11
5.1314473503705216e-11
5.479671924546459e-11
5.622026455487372e-11
5.086377152796473e-11
6.508725156062489e-11
1.4648878984835356e-10
-9.31267007953096e-11
1.4490320748850039e-10
6.399283533631284e-11
4.969924818909455e-11
5.611134473726409e-11
5.957134473211223e-10
6.125025348024948e-10
8.159247825989535e-10
1.1028513068056522e-09
-9.21829695910148e-11
1.1012183873115866e-09
8.167826970328917e-10
6.129237430096968e-10
5.954708011401966e-10
6.135657225347924e-10
6.717449513304885e-10
5.560788392255933e-10
-3.512566279506579e-11
6.245504488577858e-09
-3.5344976945239637e-11
5.564014353420799e-10
6.71678917346652e-10
6.128302431490651e-10
8.155021449796074e-10
5.567447648735513e-10
3.983704026377932e-10
3.903049043685325e-09
-2.1258222175635222e-08
3.903470947516641e-09
3.980924027924271e-10
5.565336889251649e-10
8.164250317466148e-10
1.102567176447522e-09
-3.525950365013131e-11
3.903016913137103e-09
-2.1297702771511107e-08
1.086354337650336e-07
-2.1298761868765448e-08
3.903217925954605e-09
-3.5651237170752914e-11
1.1012263895909813e-09
-9.301153597318645e-11
6.245277728994525e-09
-2.1258032664034365e-08
1.0863551919149117e-07
-6.69893870151525e-07
1.0863662179214084e-07
-2.1259430299513937e-08
6.245794992310039e-09
-9.212430471250421e-11
1.1018462323098e-09
-3.516849658713461e-11
3.902593481014405e-09
-2.1297584234386546e-08
1.086358846491553e-07
-2.129861082986184e-08
3.903346614680947e-09
-3.464391967744618e-11
1.10196671058993e-09
8.151455378746508e-10
5.565934380058479e-10
3.995893078229118e-10
3.902224165325263e-09
-2.1258130424375854e-08
3.903528757176478e-09
3.990134386094857e-10
5.56092439457645e-10
8.15181991353775e-10
6.128994742282678e-10
6.714079778258331e-10
5.570309803692997e-10
-3.4981737992434425e-11
6.244545370376331e-09
-3.5089632588469755e-11
5.557280070150883e-10
6.734773459401988e-10
6.130159123374224e-10
5.951628877232107e-10
6.131838127532152e-10
8.151744383677606e-10
1.1014129486924817e-09
-9.290580804677262e-11
1.1022349647588081e-09
8.154389620138036e-10
6.127113781617677e-10
5.955090036542654e-10
SCALARS strain23 float
LOOKUP_TABLE default
-2.5326560645962402e-06
-2.532656018443326e-06
2.5326560641949702e-06
2.532656021202783e-06
-5.9650630197702304e-06
-1.4135881060905561e-05
-2.2726553546200927e-05
-2.8922080682785477e-05
-3.1136182391983727e-05
-2.892208066032936e-05
-2.2726553483448064e-05
-1.4135880348067922e-05
-5.965062882389184e-06
-4.444443996946129e-08
4.444273856824791e-08
3.1136771118228104e-08
1.4966386504107953e-08
7.391988768052499e-15
-1.4966380850495067e-08
-3.1136762184019344e-08
-4.444270209553436e-08
4.444445416414276e-08
5.965063030116399e-06
1.4135881063233682e-05
2.272655354575791e-05
2.8922080687708104e-05
3.113618242137536e-05
2.8922080667075625e-05
2.2726553496172946e-05
1.4135880342266546e-05
5.9650628760825835e-06
4.4444458989254085e-08
-4.444272624363392e-08
-3.113675542167082e-08
-1.4966374767985354e-08
-3.2489473351243747e-15
1.4966390020256914e-08
3.113677619441524e-08
4.444270542727747e-08
-4.444443562534779e-08
4.835914875077243e-07
5.923873583663677e-07
3.508550296752442e-07
1.5529484758699348e-07
-9.70259300420856e-15
-1.552948397701262e-07
-3.5085503847003474e-07
-5.923875628203751e-07
-4.835913998032089e-07
1.2361447688106407e-06
1.8763452351387965e-06
1.3545615994150307e-06
6.030944659472657e-07
-5.29932272109318e-15
-6.030944537731389e-07
-1.3545616060281897e-06
-1.8763451252041115e-06
-1.2361446590989896e-06
1.5422246648010923e-06
3.0495126055799356e-06
3.3604041979747273e-06
1.8052605037347002e-06
-2.6226850552424352e-15
-1.805260494253596e-06
-3.3604041959346586e-06
-3.0495126057814346e-06
-1.5422246645332266e-06
1.5894418786064604e-06
3.0646562873031446e-06
4.954650543992557e-06
5.566735153870065e-06
-6.070014282877345e-15
-5.566735142468642e-06
-4.954650552074999e-06
-3.0646562781984485e-06
-1.5894418741607165e-06
1.583268217239097e-06
3.1465198857222407e-06
3.6672698859867455e-06
1.0664288071138766e-05
1.0270850467862525e-15
-1.0664288063227492e-05
-3.667269879030877e-06
-3.146519884627366e-06
-1.583268193276806e-06
1.5894418828107118e-06
3.0646562632589015e-06
4.9546505557354555e-06
5.566735130434676e-06
-6.82339926748321e-15
-5.566735137150841e-06
-4.954650551675098e-06
-3.0646562750506843e-06
-1.5894418816213488e-06
1.5422246524750282e-06
3.0495125999590114e-06
3.360404200807978e-06
1.8052605132075236e-06
-2.1744081145011473e-15
-1.8052604984382302e-06
-3.360404203828518e-06
-3.049512618714906e-06
-1.5422246499373751e-06
1.23614465815118e-06
1.8763451344431945e-06
1.3545616048683644e-06
6.030944616780163e-07
5.839119877719401e-15
-6.030944717312606e-07
-1.354561595071517e-06
-1.876345223739173e-06
-1.236144759594314e-06
4.835914071505895e-07
5.923875671300246e-07
3.508550379911833e-07
1.5529485401811485e-07
1.9757145138660226e-15
-1.552948437578489e-07
-3.508550335598525e-07
-5.923873468384356e-07
-4.835914688412594e-07
-2.5326307427240777e-06
-2.532630696426043e-06
2.5326307341504813e-06
2.5326307026572644e-06
-5.964938729888445e-06
-1.4135741744477267e-05
-2.2726310494455205e-05
-2.8922246076997638e-05
-3.112919756260219e-05
-2.8922246086069957e-05
-2.2726310462589677e-05
-1.4135741039785307e-05
-5.964938589894932e-06
-4.4371751022612886e-08
4.441943759082162e-08
3.127098417406507e-08
1.4667184548280629e-08
-1.2385356412333848e-14
-1.4667187943812098e-08
-3.1270991624472006e-08
-4.4419419747564366e-08
4.437172444583439e-08
5.9649387245642905e-06
1.4135741755565356e-05
2.2726310507168082e-05
2.8922246091466e-05
3.112919755564493e-05
2.8922246089913813e-05
2.272631046230239e-05
1.4135741058655601e-05
5.964938600678312e-06
4.437174239320385e-08
-4.441944538843075e-08
-3.127098752677055e-08
-1.4667188183637618e-08
9.572299008130114e-15
1.4667197988945226e-08
3.127098589717403e-08
4.4419418944482265e-08
-4.4371734518453736e-08
4.840436823998781e-07
5.92361623087212e-07
3.5133508807227705e-07
1.547858714721716e-07
1.3495606542013316e-14
-1.5478587688140533e-07
-3.513350954281822e-07
-5.923618484268022e-07
-4.84043616855127e-07
1.2366045479132216e-06
1.8764400154604763e-06
1.3533888094826148e-06
6.06464411006383e-07
3.2672161417307555e-15
-6.064644170531141e-07
-1.3533888054182797e-06
-1.8764399214810053e-06
-1.2366044437278032e-06
1.5429628044046095e-06
3.0479071613119437e-06
3.365089989181111e-06
1.793562231068818e-06
3.699812808552472e-15
-1.793562238477822e-06
-3.365089984518947e-06
-3.0479071600740694e-06
-1.5429628053374367e-06
1.5871487247733518e-06
3.074214118220365e-06
4.922295355170664e-06
5.633829180720659e-06
9.863800314729998e-16
-5.633829185598105e-06
-4.922295352642128e-06
-3.074214117326996e-06
-1.587148745048339e-06
1.604169935337605e-06
3.0775209840060695e-06
3.8833835387035805e-06
1.0089132644671103e-05
1.3948260949026015e-16
-1.0089132646698643e-05
-3.883383545971638e-06
-3.077520984821166e-06
-1.6041699580356418e-06
1.5871487294155532e-06
3.0742141430447457e-06
4.92229534084815e-06
5.633829197873835e-06
8.97394138166252e-15
-5.6338291982362294e-06
-4.922295350086379e-06
-3.0742141222877967e-06
-1.5871487325551011e-06
1.5429628219722354e-06
3.0479071565209085e-06
3.3650899818983354e-06
1.79356222955042e-06
3.169394000718251e-16
-1.7935622378717936e-06
-3.3650899865832746e-06
-3.047907154588508e-06
-1.5429628199036556e-06
1.2366044453391987e-06
1.876439919833682e-06
1.3533888122896007e-06
6.064644191296729e-07
-2.42509598557053e-15
-6.064644026501658e-07
-1.3533888141525107e-06
-1.8764400201735099e-06
-1.2366045562193927e-06
4.84043606103853e-07
5.923618432870741e-07
3.513350869015352e-07
1.5478586400790721e-07
6.8111003490890776e-15
-1.5478588004980322e-07
-3.513350870224441e-07
-5.923616421799581e-07
-4.840437052588444e-07
-2.5292577724737517e-06
-2.5292577262430864e-06
-5.963992341178573e-06
-1.4141167222171032e-05
-2.2738344592594596e-05
-2.8938719056766847e-05
-3.1150866692799856e-05
-2.8938719050169287e-05
-2.2738344545309856e-05
-1.4141166512872378e-05
-5.963992203415508e-06
2.529257767842545e-06
-4.3736202633468764e-08
4.492458661282603e-08
3.1496693609148196e-08
1.495624615517957e-08
-2.5216509652939423e-15
-1.4956245052525632e-08
-3.1496692702806e-08
-4.4924559377088085e-08
4.3736196169077635e-08
2.529257730687936e-06
5.963992343690307e-06
1.4141167228828118e-05
2.2738344598667108e-05
2.8938719066486604e-05
3.115086670395061e-05
2.8938719055397127e-05
2.2738344551466796e-05
1.4141166519490971e-05
5.96399220556933e-06
4.373620781951946e-08
-4.492458428141189e-08
-3.1496687435958524e-08
-1.4956242047286616e-08
3.165680608277488e-15
1.4956254560755068e-08
3.149669686129393e-08
4.492456068841367e-08
-4.3736191999979774e-08
4.852584199792695e-07
5.947821094690818e-07
3.5279155233740127e-07
1.5586599024322058e-07
1.85268467234323e-15
-1.5586598903303411e-07
-3.5279156034393616e-07
-5.947823241130175e-07
-4.852583426132587e-07
1.2393440783300025e-06
1.88240341244316e-06
1.3586776761582818e-06
6.06959250365596e-07
-9.561172383334982e-16
-6.069592474252804e-07
-1.3586776774468832e-06
-1.8824033101123779e-06
-1.2393439705545603e-06
1.5457167029733765e-06
3.057978058981347e-06
3.373471336775907e-06
1.8054052796082542e-06
5.103204100617709e-16
-1.805405278580932e-06
-3.3734713335011895e-06
-3.0579780584554547e-06
-1.5457167033006497e-06
1.5909758463330918e-06
3.078370985060963e-06
4.953735579542716e-06
5.617126568085911e-06
-2.507624099687411e-15
-5.617126564859332e-06
-4.953735582266395e-06
-3.078370980162063e-06
-1.5909758540864384e-06
1.5961375383498528e-06
3.121136918235131e-06
3.7861234660964307e-06
1.0409097025471684e-05
5.49338135744093e-16
-1.0409097022575637e-05
-3.786123466229625e-06
-3.1211369181117287e-06
-1.5961375377322845e-06
1.5909758506558737e-06
3.078370985520868e-06
4.95373557829854e-06
5.6171265649641e-06
1.0319436277717031e-15
-5.61712656842097e-06
-4.953735580822e-06
-3.078370981127118e-06
-1.5909758515977235e-06
1.5457167055396017e-06
3.0579780538489507e-06
3.3734713345961998e-06
1.805405283433428e-06
-8.466399239667743e-16
-1.8054052802901564e-06
-3.3734713383051538e-06
-3.057978062078777e-06
-1.5457167032637326e-06
1.239343970918256e-06
1.8824033137642554e-06
1.3586776801318692e-06
6.069592522330326e-07
1.586770537014004e-15
-6.069592490429032e-07
-1.358677676341634e-06
-1.882403409184665e-06
-1.2393440777544555e-06
4.852583409759644e-07
5.947823236321739e-07
3.5279155595431327e-07
1.5586598973331352e-07
4.276438957725309e-15
-1.558659926432986e-07
-3.5279155378401157e-07
-5.947821129148254e-07
-4.852584220109424e-07
SCALARS strain13 float
LOOKUP_TABLE default
-2.5326560199202125e-06
2.5326560632119716e-06
2.532656024841623e-06
-2.5326560657585456e-06
-4.4444469105876794e-08
4.444272848867781e-08
3.113676332044957e-08
1.4966389052552265e-08
4.8372764127613266e-15
-1.4966394134424688e-08
-3.11367705828694e-08
-4.444269995247663e-08
4.4444452174108307e-08
5.965063023610773e-06
1.4135881049441926e-05
2.2726553553105086e-05
2.892208065991258e-05
3.113618240374767e-05
2.892208066534313e-05
2.272655349369601e-05
1.4135880334137374e-05
5.9650628848589154e-06
4.4444457114600766e-08
-4.444272444850683e-08
-3.113676501700913e-08
-1.4966393450943638e-08
7.229460086133344e-15
1.4966384106855635e-08
3.113676253201775e-08
4.444269582210003e-08
-4.444443971358958e-08
-5.9650630171975e-06
-1.4135881058759993e-05
-2.2726553554683684e-05
-2.8922080679061324e-05
-3.113618240522739e-05
-2.8922080666998057e-05
-2.272655349400566e-05
-1.413588035000142e-05
-5.965062873109633e-06
4.835913966364305e-07
1.23614466240006e-06
1.5422246615803478e-06
1.5894418844307132e-06
1.5832682182404662e-06
1.5894418803671234e-06
1.5422246665546674e-06
1.2361447599452957e-06
4.835914852981474e-07
5.923875677025375e-07
1.8763451332345395e-06
3.0495125994461567e-06
3.0646562763411017e-06
3.146519892438006e-06
3.064656278440117e-06
3.0495126040722305e-06
1.8763452306735234e-06
5.923873467716251e-07
3.508550427931689e-07
1.3545616047794598e-06
3.3604042058430535e-06
4.954650554789313e-06
3.667269889865018e-06
4.9546505582473215e-06
3.3604042020356608e-06
1.3545616043806902e-06
3.508550247719941e-07
1.5529484514087075e-07
6.030944728693138e-07
1.8052605017593922e-06
5.566735143218687e-06
1.0664288050653281e-05
5.566735136643651e-06
1.8052605128915464e-06
6.030944534966267e-07
1.5529483488518556e-07
-2.979387569990166e-16
-3.1760076339704124e-15
-9.28814317124882e-15
-3.3063829452117943e-15
-9.59171977954476e-15
2.001003529539247e-15
1.6251756884688717e-14
-7.736433021987565e-15
-5.1918105231640865e-15
-1.5529484743764463e-07
-6.03094467358802e-07
-1.8052605152384105e-06
-5.5667351336165585e-06
-1.0664288055724312e-05
-5.566735147311333e-06
-1.8052605110078536e-06
-6.030944748551927e-07
-1.5529485217430708e-07
-3.5085503360043555e-07
-1.3545616069261801e-06
-3.360404206155412e-06
-4.954650548236544e-06
-3.66726987553051e-06
-4.954650554971256e-06
-3.360404199931116e-06
-1.3545616043637767e-06
-3.5085503366635504e-07
-5.923873479521044e-07
-1.8763452346551475e-06
-3.0495126196916807e-06
-3.064656278120928e-06
-3.1465198778463793e-06
-3.0646562770263175e-06
-3.049512602973283e-06
-1.8763451428444738e-06
-5.923875564615294e-07
-4.835914765386612e-07
-1.2361447741015066e-06
-1.542224656708377e-06
-1.5894418878576594e-06
-1.5832682045734472e-06
-1.5894418791788378e-06
-1.5422246512830293e-06
-1.236144662323732e-06
-4.835914008361961e-07
-2.5326307000819726e-06
2.532630723466045e-06
2.532630698284799e-06
-2.5326307207512028e-06
-4.4371737839554726e-08
4.441945433090316e-08
3.1270990684048594e-08
1.4667178126551161e-08
1.973247953923618e-16
-1.4667186553837808e-08
-3.127098151516766e-08
-4.441940545593659e-08
4.437171292805825e-08
5.9649387270065135e-06
1.4135741757409157e-05
2.2726310502804714e-05
2.8922246112834775e-05
3.112919757472087e-05
2.892224609345618e-05
2.272631046136911e-05
1.413574105912311e-05
5.964938585444404e-06
4.437173845971837e-08
-4.4419458568832615e-08
-3.1270993858592555e-08
-1.4667181328850698e-08
3.5730966796432284e-15
1.4667192274955831e-08
3.1270992491630456e-08
4.441942975073887e-08
-4.437173404224504e-08
-5.964938740112349e-06
-1.4135741757515842e-05
-2.2726310494236047e-05
-2.8922246095463254e-05
-3.1129197557696296e-05
-2.8922246085656862e-05
-2.2726310452812586e-05
-1.4135741040479169e-05
-5.964938592450952e-06
4.840436134819978e-07
1.2366044457251882e-06
1.5429628116908276e-06
1.5871487265067472e-06
1.6041699359009565e-06
1.5871487321324554e-06
1.5429628011558519e-06
1.2366045578160803e-06
4.84043684739234e-07
5.923618421636509e-07
1.8764399238192092e-06
3.047907162650066e-06
3.0742141235856613e-06
3.077520979118554e-06
3.074214117590457e-06
3.047907171834993e-06
1.876440013892991e-06
5.923616354869612e-07
3.5133508173232353e-07
1.3533888051603209e-06
3.3650899828521893e-06
4.922295345247775e-06
3.883383534680025e-06
4.922295346665301e-06
3.365089978636486e-06
1.3533888057110956e-06
3.513350939131181e-07
1.547858685829219e-07
6.064644055825668e-07
1.793562238804492e-06
5.633829188280218e-06
1.0089132660978575e-05
5.633829192937083e-06
1.793562228717292e-06
6.064644224938981e-07
1.5478588320707448e-07
-1.5929098318157031e-15
4.464663231132371e-15
9.70924729504219e-15
-1.4996684449819497e-15
8.202639956156332e-15
-1.0885389811754465e-16
-1.1689650983304212e-14
8.126583173756474e-15
5.48172618408671e-16
-1.5478587489297854e-07
-6.06464408228508e-07
-1.7935622279336306e-06
-5.633829197382312e-06
-1.0089132660480709e-05
-5.633829178835516e-06
-1.7935622328064688e-06
-6.064643999250372e-07
-1.54785872891975e-07
-3.513350868540946e-07
-1.3533888021915585e-06
-3.3650899771308545e-06
-4.922295354551639e-06
-3.883383552567789e-06
-4.922295344436304e-06
-3.365089984805488e-06
-1.3533888025322148e-06
-3.513350957714406e-07
-5.923616313747992e-07
-1.876440011104423e-06
-3.047907151839703e-06
-3.07421412889565e-06
-3.077520985320624e-06
-3.074214122308471e-06
-3.047907159710577e-06
-1.8764399149083684e-06
-5.923618506533876e-07
-4.840436921404317e-07
-1.2366045388330013e-06
-1.542962816333815e-06
-1.587148719684947e-06
-1.6041699496642525e-06
-1.5871487348976046e-06
-1.542962819084219e-06
-1.236604440902657e-06
-4.840436145219645e-07
-2.529257728811629e-06
2.529257762168627e-06
-4.3736210576794665e-08
4.4924589900560696e-08
3.1496693014138044e-08
1.4956244197977808e-08
2.478052485432869e-15
-1.495625092610281e-08
-3.1496691950752553e-08
-4.492455130383072e-08
4.373618951464958e-08
2.529257730268797e-06
5.963992341626728e-06
1.4141167222864529e-05
2.273834460024462e-05
2.8938719063275123e-05
3.115086670459413e-05
2.8938719056298065e-05
2.273834454994024e-05
1.4141166515667207e-05
5.963992202337107e-06
-2.529257762087095e-06
4.3736204877360685e-08
-4.492458997775589e-08
-3.149669532392235e-08
-1.4956247983144433e-08
5.418408777213557e-15
1.495624870565676e-08
3.1496693258734054e-08
4.492456127241917e-08
-4.3736193822835334e-08
-5.9639923450129084e-06
-1.4141167227560425e-05
-2.2738344596730936e-05
-2.893871906409131e-05
-3.115086669682864e-05
-2.893871905322587e-05
-2.2738344545813333e-05
-1.4141166514253407e-05
-5.963992199944923e-06
4.852583394372376e-07
1.2393439732995976e-06
1.5457167049197362e-06
1.5909758500302212e-06
1.5961375390612792e-06
1.5909758507570704e-06
1.5457167021606585e-06
1.2393440787603766e-06
4.852584199127943e-07
5.947823233393851e-07
1.8824033150878494e-06
3.057978056550132e-06
3.0783709822923035e-06
3.1211369190750626e-06
3.078370980418802e-06
3.057978063354151e-06
1.8824034094728527e-06
5.947821097298731e-07
3.5279155567377596e-07
1.3586776766547244e-06
3.373471337551762e-06
4.953735579905653e-06
3.786123465990992e-06
4.9537355823526836e-06
3.373471333512892e-06
1.3586776767833108e-06
3.5279155272648077e-07
1.5586598758974418e-07
6.069592511291589e-07
1.8054052823937052e-06
5.6171265665453e-06
1.040909702339915e-05
5.617126565607249e-06
1.8054052829678986e-06
6.069592499099194e-07
1.5586598982580274e-07
-9.020562075079397e-16
6.078037378953738e-16
2.448128505472269e-16
-2.394352077716988e-15
-6.72639027810007e-16
9.246076126956382e-16
2.138263524575912e-15
1.6501557065229377e-16
-2.2401785287895493e-15
-1.5586599186323546e-07
-6.069592497266892e-07
-1.8054052837476568e-06
-5.617126566256469e-06
-1.0409097025576228e-05
-5.6171265638950765e-06
-1.8054052839861813e-06
-6.069592493400627e-07
-1.5586599318509475e-07
-3.527915535990467e-07
-1.3586776762581233e-06
-3.373471334802442e-06
-4.9537355813100334e-06
-3.7861234677321123e-06
-4.953735579659336e-06
-3.373471335649746e-06
-1.3586776751548391e-06
-3.527915581071593e-07
-5.947821084010749e-07
-1.8824034101324813e-06
-3.0579780612282476e-06
-3.0783709858567265e-06
-3.1211369150895354e-06
-3.078370982150056e-06
-3.0579780568142437e-06
-1.8824033153224708e-06
-5.947823220209952e-07
-4.852584193021717e-07
-1.2393440763508456e-06
-1.545716704830398e-06
-1.5909758483041714e-06
-1.5961375391263313e-06
-1.5909758516357078e-06
-1.5457167036013464e-06
-1.2393439708449638e-06
-4.852583420028936e-07
SCALARS strain12 float
LOOKUP_TABLE default
-1.2898906475182145e-07
1.289890479306416e-07
-1.2898906961541687e-07
1.2898905894656934e-07
-2.3709880705470587e-07
-3.090028401946457e-07
-2.671243940462545e-07
-1.5142193388224812e-07
-3.230488793137809e-15
1.514219233372978e-07
2.6712438247651626e-07
3.090028378770551e-07
2.370988093575513e-07
2.3709878854303798e-07
3.090028399179573e-07
2.671244024577118e-07
1.5142192751776452e-07
-7.250276767845065e-15
-1.514219426148461e-07
-2.6712437046160463e-07
-3.0900284504016204e-07
-2.3709880162437087e-07
-2.3709881437552355e-07
-3.090028488813819e-07
-2.671243871268762e-07
-1.5142193890448942e-07
-6.7285586824450405e-15
1.5142192026054886e-07
2.6712438361557907e-07
3.090028377289531e-07
2.3709880698661798e-07
2.3709881642481473e-07
3.09002864388834e-07
2.6712438650107473e-07
1.5142192374322308e-07
-3.522356017970907e-15
-1.51421916574912e-07
-2.6712438380574813e-07
-3.090028267292884e-07
-2.3709880385067161e-07
-6.089172354863809e-07
-8.771091074897923e-07
-7.828143780965954e-07
-4.4674615382435737e-07
6.804019153650032e-15
4.4674615238757265e-07
7.828143741509669e-07
8.771090884021962e-07
6.089172391113024e-07
-8.771091109605403e-07
-1.4126999463202027e-06
-1.4090352679404367e-06
-8.441321958504652e-07
9.573505183047004e-15
8.44132179619525e-07
1.4090352762176697e-06
1.4126999572819203e-06
8.771091309009698e-07
-7.828143717856714e-07
-1.4090352665691377e-06
-1.7412166747939745e-06
-1.2665711004822104e-06
1.98582469912445e-15
1.2665711089073287e-06
1.7412166855631378e-06
1.4090352505409433e-06
7.828143893618897e-07
-4.467461618413819e-07
-8.441321896045934e-07
-1.266571094627085e-06
-1.5096140515188494e-06
-6.116418135859725e-15
1.509614049538012e-06
1.2665711052722156e-06
8.441321961026507e-07
4.467461589979533e-07
1.9051600574915284e-15
1.6939574742913521e-15
7.142723912334503e-16
-8.039359108980015e-15
2.261212050935768e-15
8.480846233616113e-15
-8.953124699950799e-15
-1.3310099550301047e-14
4.0288952729561345e-16
4.4674615838841483e-07
8.441322026885283e-07
1.2665711009425627e-06
1.5096140394961315e-06
-4.367383191206109e-15
-1.5096140495425656e-06
-1.2665711034403476e-06
-8.441321979290976e-07
-4.467461593027225e-07
7.828143768818553e-07
1.4090352527520653e-06
1.7412166909997612e-06
1.2665710904054186e-06
-9.240004594790463e-15
-1.266571099420126e-06
-1.7412166886514877e-06
-1.4090352523068918e-06
-7.828143770565203e-07
8.771091030966051e-07
1.4126999509425902e-06
1.409035256754506e-06
8.441321862407477e-07
-7.632349613428957e-15
-8.441321922375783e-07
-1.4090352556413556e-06
-1.412699954575318e-06
-8.771090920235941e-07
6.089172366633908e-07
8.771090883757417e-07
7.828143766320551e-07
4.467461594446446e-07
8.514890181832158e-15
-4.4674614578337195e-07
-7.828143735056498e-07
-8.771091203676204e-07
-6.089172451717486e-07
1.285959321671755e-07
-1.2859591944601456e-07
1.285959295443007e-07
-1.2859593404804942e-07
2.3574308918123885e-07
3.0677962861627023e-07
2.6481532055437976e-07
1.496297280137275e-07
-4.814291326704634e-15
-1.4962973902575213e-07
-2.648153128188141e-07
-3.067796193402701e-07
-2.3574308997877796e-07
-2.357430928662252e-07
-3.067796247274539e-07
-2.648153237503909e-07
-1.4962972238520035e-07
5.132613084546378e-16
1.4962974818899522e-07
2.6481531096721363e-07
3.0677962806679657e-07
2.3574309388136368e-07
2.3574310486778759e-07
3.0677964127790846e-07
2.648153333946945e-07
1.4962973777154706e-07
1.9051708995132532e-14
-1.4962972596154964e-07
-2.6481531912149817e-07
-3.067796323062439e-07
-2.3574309869793184e-07
-2.357431153673234e-07
-3.067796421206588e-07
-2.648153261432251e-07
-1.496297320153009e-07
-1.3257624165152748e-15
1.4962973200532623e-07
2.648153161854787e-07
3.0677962343595225e-07
2.357431046402271e-07
6.066837847048569e-07
8.741930104154763e-07
7.789639415011623e-07
4.4465476729121933e-07
7.511352650979575e-16
-4.446547657637953e-07
-7.789639424144942e-07
-8.741929958661337e-07
-6.066837884937098e-07
8.741930055630211e-07
1.4081981543046483e-06
1.4035463121783026e-06
8.355136374453218e-07
-8.470221052325755e-15
-8.355136292947235e-07
-1.4035463077332905e-06
-1.4081981756304714e-06
-8.741930293718839e-07
7.789639354946823e-07
1.4035463059922787e-06
1.7278201228528543e-06
1.2590410849206042e-06
1.5014031684579265e-15
-1.2590410940112057e-06
-1.7278201261820055e-06
-1.4035462909173149e-06
-7.789639501409526e-07
4.446547700871599e-07
8.355136324744716e-07
1.2590410809680368e-06
1.421310232829591e-06
-2.121783651554132e-15
-1.4213102357387222e-06
-1.2590410951240309e-06
-8.355136347306964e-07
-4.446547753206038e-07
8.765557724110806e-15
-3.308117668687771e-15
4.5254598679544955e-15
1.3663115777662327e-15
6.119237061508187e-15
-3.3772897672923463e-15
1.1255319593006519e-14
1.129782031816795e-14
-6.1480768392963014e-15
-4.446547693702854e-07
-8.355136502983217e-07
-1.2590410900790213e-06
-1.421310224258539e-06
4.393404043345761e-15
1.421310235196838e-06
1.2590410875838384e-06
8.355136420458084e-07
4.446547745040911e-07
-7.789639409950568e-07
-1.4035462983933225e-06
-1.727820135702168e-06
-1.259041078237582e-06
9.189697613987136e-15
1.2590410819546607e-06
1.7278201348341557e-06
1.4035462942453818e-06
7.789639346541003e-07
-8.741930008619204e-07
-1.4081981722514469e-06
-1.4035462927903825e-06
-8.355136322205515e-07
3.7905876354438206e-15
8.355136367182558e-07
1.4035462951049373e-06
1.408198169771226e-06
8.741929904573743e-07
-6.066837813269166e-07
-8.741929905299074e-07
-7.789639403295735e-07
-4.44654770252826e-07
2.3288662664988635e-16
4.446547483509663e-07
7.789639346593045e-07
8.741930246887811e-07
6.066837871408423e-07
-1.9626263765212815e-10
1.9626051998844485e-10
-6.777651621360514e-10
-1.1116838617188096e-09
-1.1545963998250974e-09
-8.96095725400059e-10
-4.0054765060304476e-15
8.960850763663208e-10
1.1545942930034359e-09
1.1116874417543832e-09
6.77765660001689e-10
-1.9626647746254222e-10
6.777539840116531e-10
1.111685697923609e-09
1.1545990806233891e-09
8.960953520008308e-10
-3.4204410137572694e-15
-8.960901120517312e-10
-1.1545893680150673e-09
-1.111686594721436e-09
-6.777599623024322e-10
1.962588715674618e-10
-6.777608820311351e-10
-1.1116820537574769e-09
-1.1545867691824599e-09
-8.96093311966023e-10
6.14666737647207e-15
8.960902135330545e-10
1.1545919608845628e-09
1.1116808422157592e-09
6.777601414126311e-10
6.777567014559782e-10
1.111689282729672e-09
1.1545900294868128e-09
8.960887132140882e-10
-2.430781270712501e-15
-8.960852233841354e-10
-1.1545934408205283e-09
-1.1116798488697288e-09
-6.777556402388918e-10
-1.116831736033136e-09
-1.4579643078764526e-09
-1.9257401740954694e-09
-1.0446762209632976e-09
3.6871547481887035e-15
1.0446763909661982e-09
1.925737678695749e-09
1.45796197597442e-09
1.1168316399728234e-09
-1.4579681260028232e-09
-2.2518898191471737e-09
-2.7425815203943604e-09
-4.313574358382616e-09
6.119237061508187e-16
4.3135704765051575e-09
2.7425877816619065e-09
2.2518848263961694e-09
1.4579663654753355e-09
-1.9257398748556698e-09
-2.742583818902966e-09
-6.706408125882468e-09
-3.747198718418582e-09
1.6885364634289246e-15
3.7471984293702826e-09
6.706411704616999e-09
2.7425833219046902e-09
1.9257414786075233e-09
-1.0446788867995993e-09
-4.313573804138465e-09
-3.747197877945058e-09
-4.420368910186892e-08
-4.14967539497102e-15
4.420368669971059e-08
3.747196123055421e-09
4.3135757745674935e-09
1.0446748754684015e-09
5.179884299266746e-15
-8.148863528401051e-16
2.5914600326748527e-15
-3.2658337839608365e-15
4.092646360698282e-15
2.4810882515158283e-15
1.2184264014392099e-15
-9.280770596475918e-16
-2.7970247645781043e-15
1.0446774231266664e-09
4.313571310907149e-09
3.747196555218407e-09
4.420368741528402e-08
-8.825405684032006e-17
-4.420368695493178e-08
-3.747198963014592e-09
-4.313573113826942e-09
-1.0446754114979556e-09
1.925739764700729e-09
2.742580815446108e-09
6.706409715756534e-09
3.747197236747893e-09
-1.5612511283791264e-17
-3.747199795898701e-09
-6.70640896039288e-09
-2.7425826318100074e-09
-1.9257428602063517e-09
1.457966765979618e-09
2.2518833221740753e-09
2.742585550590676e-09
4.313572180003611e-09
-1.898221163587621e-15
-4.3135729039254014e-09
-2.7425837941831566e-09
-2.251886281070224e-09
-1.4579663540370026e-09
1.1168339664538451e-09
1.457964639425477e-09
1.9257398512200624e-09
1.0446775896601201e-09
4.262649261344009e-15
-1.0446815722599603e-09
-1.925741168525702e-09
-1.4579634984653207e-09
-1.1168351369314055e-09
SCALARS disp_x float
LOOKUP_TABLE default
0.0
0.0
0.0
0.0
0.0
0.0
0.0
0.0
0.0
0.0
0.0
0.0
0.0
0.0
0.0
0.0
0.0
0.0
0.0
0.0
0.0
0.0
0.0
0.0
0.0
0.0
0.0
0.0
0.0
0.0
0.0
0.0
0.0
0.0
0.0
0.0
0.0
0.0
0.0
0.0
-4.057315339596811e-07
-1.3129543032324196e-06
-2.259759557746305e-06
-2.932748260962679e-06
-3.1778107456486263e-06
-2.932748260962852e-06
-2.2597595577543736e-06
-1.3129543032374842e-06
-4.057315339620235e-07
-5.270126617311494e-07
-1.8673664841249053e-06
-3.525259469911014e-06
-4.7629037341549985e-06
-5.223834454854127e-06
-4.762903734164227e-06
-3.5252594699186998e-06
-1.8673664841395555e-06
-5.270126617388928e-07
-4.4265463392116086e-07
-1.6484139929054203e-06
-3.4763043992780945e-06
-5.388510744553876e-06
-5.9840398676708955e-06
-5.38851074455752e-06
-3.4763043992999416e-06
-1.6484139929236692e-06
-4.4265463392658346e-07
-2.4666517887642113e-07
-9.317987270764698e-07
-2.0467794585123963e-06
-3.790474988890494e-06
-5.634692653648377e-06
-3.7904749888866727e-06
-2.0467794585204863e-06
-9.317987270814198e-07
-2.466651788776476e-07
-7.132035407059532e-18
-2.666036031666032e-17
-4.178709193627056e-17
-2.8750869993633494e-17
-3.6639257166432015e-17
-3.1218589881290276e-17
-2.2487301378562623e-17
-1.180394782724012e-17
-3.0344445585332824e-18
2.466651788663087e-07
9.317987270441412e-07
2.0467794584634065e-06
3.7904749888322343e-06
5.634692653612902e-06
3.7904749888343735e-06
2.0467794584836146e-06
9.317987270626241e-07
2.466651788736915e-07
4.4265463392230287e-07
1.6484139929114586e-06
3.4763043992777138e-06
5.388510744543228e-06
5.98403986766762e-06
5.388510744555262e-06
3.4763043992975517e-06
1.6484139929238702e-06
4.4265463392697844e-07
5.270126617397522e-07
1.8673664841508973e-06
3.525259469951709e-06
4.762903734200211e-06
5.223834454876324e-06
4.762903734205346e-06
3.525259469952054e-06
1.8673664841551752e-06
5.270126617421826e-07
4.057315339666085e-07
1.3129543032572588e-06
2.2597595577945644e-06
2.9327482610110097e-06
3.1778107456964434e-06
2.932748261000531e-06
2.259759557783643e-06
1.3129543032523416e-06
4.057315339660114e-07
0.0
0.0
0.0
0.0
0.0
0.0
0.0
0.0
0.0
0.0
0.0
0.0
0.0
0.0
0.0
0.0
0.0
0.0
0.0
0.0
0.0
0.0
0.0
0.0
0.0
0.0
0.0
0.0
0.0
0.0
0.0
0.0
0.0
0.0
0.0
0.0
0.0
0.0
0.0
0.0
4.030475549402295e-07
1.3084143649160492e-06
2.2533811882830113e-06
2.923631500003208e-06
3.169405674576077e-06
2.923631500004167e-06
2.2533811882911644e-06
1.3084143649213928e-06
4.0304755494237097e-07
5.223257947383795e-07
1.859653341391201e-06
3.51123607896881e-06
4.743963962738315e-06
5.193556969805744e-06
4.743963962747251e-06
3.5112360789768926e-06
1.859653341405387e-06
5.223257947460011e-07
4.380968594340714e-07
1.6368445280200091e-06
3.463486801152919e-06
5.346001034931648e-06
5.959561039361839e-06
5.3460010349344055e-06
3.463486801175271e-06
1.636844528037143e-06
4.380968594396901e-07
2.426357325969562e-07
9.271586057554581e-07
2.018379843230318e-06
3.791387282757471e-06
5.3826763725728615e-06
3.791387282752221e-06
2.018379843237887e-06
9.271586057612902e-07
2.426357325983555e-07
6.77616407130757e-18
2.630678066105031e-17
4.2905223692701816e-17
3.000889666792339e-17
3.7621530006092876e-17
3.177577732322169e-17
2.430570961989367e-17
1.2935280019898061e-17
3.499055246508929e-18
-2.426357325871214e-07
-9.271586057228539e-07
-2.018379843179549e-06
-3.7913872826955996e-06
-5.382676372536586e-06
-3.7913872827011583e-06
-2.018379843198607e-06
-9.271586057408873e-07
-2.426357325934448e-07
-4.380968594349385e-07
-1.6368445280243455e-06
-3.4634868011512194e-06
-5.346001034919007e-06
-5.959561039357833e-06
-5.346001034934493e-06
-3.463486801171287e-06
-1.636844528036711e-06
-4.3809685943927417e-07
-5.223257947465207e-07
-1.8596533414163413e-06
-3.5112360790084776e-06
-4.743963962783631e-06
-5.193556969827034e-06
-4.7439639627892985e-06
-3.5112360790092518e-06
-1.8596533414202152e-06
-5.223257947489309e-07
-4.030475549467926e-07
-1.3084143649406577e-06
-2.253381188331164e-06
-2.923631500051609e-06
-3.169405674623841e-06
-2.9236315000416814e-06
-2.2533811883202427e-06
-1.308414364935848e-06
-4.0304755494625377e-07
0.0
0.0
0.0
0.0
0.0
0.0
0.0
0.0
0.0
0.0
0.0
0.0
0.0
0.0
0.0
0.0
0.0
0.0
0.0
0.0
0.0
0.0
0.0
0.0
0.0
0.0
0.0
0.0
0.0
0.0
0.0
0.0
0.0
0.0
0.0
0.0
0.0
0.0
0.0
0.0
-1.3416194065659926e-09
-2.269935370471854e-09
-3.187257891410991e-09
-4.566321533440485e-09
-4.171740285615549e-09
-4.5663215330449416e-09
-3.187257891368499e-09
-2.2699353703320042e-09
-1.3416194066664615e-09
-2.343701659449551e-09
-3.855533299942338e-09
-7.01749191988946e-09
-9.443135330522863e-09
-1.523711599331469e-08
-9.443135330671768e-09
-7.017491919691395e-09
-3.855533300173688e-09
-2.3437016595102483e-09
-2.2779637311470502e-09
-5.78821259095327e-09
-6.393360282828755e-09
-2.1327095287731487e-08
-1.1972997995922613e-08
-2.132709528817395e-08
-6.393360282572627e-09
-5.78821259151242e-09
-2.2779637310486207e-09
-2.0160507545724213e-09
-2.313414838257301e-09
-1.4227476650109277e-08
5.858129204407051e-10
-1.2652429715561263e-07
5.85812919726201e-10
-1.4227476650372704e-08
-2.3134148378156503e-09
-2.0160507544858614e-09
-1.7736501061473711e-19
-1.7937834849379687e-19
5.625645006215484e-19
6.297220819822198e-19
4.907972877977584e-19
2.785507707751351e-19
9.121047338058538e-19
5.655592983642361e-19
2.325622028241222e-19
2.0160507544327026e-09
2.3134148383981422e-09
1.422747665099954e-08
-5.858129186347377e-10
1.2652429715601587e-07
-5.858129203499361e-10
1.4227476651576645e-08
2.313414838618877e-09
2.0160507549629816e-09
2.277963731284827e-09
5.788212591804484e-09
6.393360283486019e-09
2.132709528873006e-08
1.1972997996282017e-08
2.1327095286998258e-08
6.393360283370906e-09
5.788212591827974e-09
2.277963731454896e-09
2.3437016596797285e-09
3.855533300367402e-09
7.017491920404558e-09
9.443135330471354e-09
1.5237115993769927e-08
9.443135330205967e-09
7.017491920190754e-09
3.8555333005705925e-09
2.3437016596898826e-09
1.341619406748185e-09
2.2699353705875815e-09
3.187257891464586e-09
4.566321533403344e-09
4.171740285641645e-09
4.566321533127845e-09
3.1872578914639586e-09
2.2699353705332676e-09
1.3416194067190942e-09
SCALARS disp_y float
LOOKUP_TABLE default
0.0
0.0
0.0
0.0
0.0
0.0
0.0
0.0
0.0
0.0
0.0
0.0
0.0
0.0
0.0
0.0
0.0
0.0
0.0
0.0
0.0
0.0
0.0
0.0
0.0
0.0
0.0
0.0
0.0
0.0
0.0
0.0
0.0
0.0
0.0
0.0
0.0
0.0
0.0
0.0
-4.0573153395882427e-07
-5.270126617307966e-07
-4.42654633922021e-07
-2.466651788729216e-07
3.097760312849243e-19
2.4666517887138255e-07
4.4265463392107017e-07
5.270126617330718e-07
4.057315339603067e-07
-1.3129543032335154e-06
-1.8673664841199529e-06
-1.6484139929077257e-06
-9.317987270787879e-07
2.286988957586611e-19
9.31798727071525e-07
1.6484139929027206e-06
1.867366484125925e-06
1.3129543032411824e-06
-2.2597595577493308e-06
-3.525259469910358e-06
-3.4763043992722563e-06
-2.046779458518361e-06
-7.386747484205258e-18
2.0467794585080638e-06
3.4763043992645937e-06
3.5252594699160053e-06
2.2597595577703075e-06
-2.932748260961695e-06
-4.762903734152019e-06
-5.388510744555918e-06
-3.7904749888773134e-06
1.4842742599764309e-18
3.790474988849424e-06
5.388510744534719e-06
4.762903734175544e-06
2.932748260987326e-06
-3.177810745656888e-06
-5.223834454846798e-06
-5.9840398676793896e-06
-5.63469265364877e-06
-2.201456244209565e-18
5.634692653628485e-06
5.984039867661541e-06
5.2238344548607325e-06
3.177810745681999e-06
-2.9327482609873186e-06
-4.762903734192127e-06
-5.388510744560699e-06
-3.790474988869102e-06
-4.7645603283054394e-18
3.790474988858537e-06
5.388510744553323e-06
4.762903734196236e-06
2.9327482609997543e-06
-2.2597595577836127e-06
-3.5252594699543205e-06
-3.4763043993021354e-06
-2.046779458498164e-06
-2.529989754998718e-18
2.046779458500948e-06
3.476304399298715e-06
3.5252594699469835e-06
2.259759557788258e-06
-1.3129543032554648e-06
-1.8673664841598032e-06
-1.6484139929290942e-06
-9.317987270706548e-07
6.3448256520841975e-18
9.317987270787266e-07
1.6484139929232563e-06
1.8673664841496393e-06
1.3129543032534258e-06
-4.057315339673218e-07
-5.270126617434114e-07
-4.426546339305497e-07
-2.4666517887579057e-07
4.482817982651342e-18
2.466651788794461e-07
4.426546339268846e-07
5.270126617391713e-07
4.0573153396559445e-07
0.0
0.0
0.0
0.0
0.0
0.0
0.0
0.0
0.0
0.0
0.0
0.0
0.0
0.0
0.0
0.0
0.0
0.0
0.0
0.0
0.0
0.0
0.0
0.0
0.0
0.0
0.0
0.0
0.0
0.0
0.0
0.0
0.0
0.0
0.0
0.0
0.0
0.0
0.0
0.0
4.0304755493923997e-07
5.223257947377225e-07
4.380968594347252e-07
2.4263573259348447e-07
3.4544944216107994e-19
-2.4263573259079604e-07
-4.380968594329541e-07
-5.223257947397122e-07
-4.030475549404957e-07
1.30841436491745e-06
1.8596533413861219e-06
1.636844528020499e-06
9.271586057578e-07
1.691324489130064e-18
-9.271586057482244e-07
-1.6368445280150745e-06
-1.8596533413908862e-06
-1.3084143649247036e-06
2.2533811882867154e-06
3.511236078969021e-06
3.463486801149401e-06
2.0183798432355652e-06
7.949667947311075e-18
-2.0183798432226874e-06
-3.463486801137294e-06
-3.511236078973853e-06
-2.2533811883071573e-06
2.9236315000038186e-06
4.74396396273698e-06
5.346001034937296e-06
3.7913872827498787e-06
4.942957631799094e-19
-3.7913872827162587e-06
-5.346001034913646e-06
-4.74396396276025e-06
-2.9236315000293588e-06
3.1694056745850034e-06
5.193556969800642e-06
5.959561039375138e-06
5.382676372576051e-06
2.2099089593864696e-18
-5.382676372555113e-06
-5.959561039354676e-06
-5.19355696981336e-06
-3.1694056746098457e-06
2.9236315000281848e-06
4.743963962773659e-06
5.346001034938261e-06
3.791387282736709e-06
4.391412652146691e-18
-3.7913872827262724e-06
-5.346001034934236e-06
-4.74396396278078e-06
-2.9236315000411486e-06
2.2533811883198594e-06
3.5112360790104745e-06
3.4634868011753755e-06
2.018379843212921e-06
7.689621094649427e-19
-2.0183798432186313e-06
-3.4634868011741316e-06
-3.5112360790051598e-06
-2.253381188325244e-06
1.308414364938333e-06
1.8596533414239656e-06
1.6368445280410643e-06
9.271586057491695e-07
-7.073792809040865e-18
-9.271586057584098e-07
-1.6368445280371455e-06
-1.859653341415694e-06
-1.3084143649372685e-06
4.0304755494731897e-07
5.223257947497685e-07
4.3809685944258623e-07
2.42635732595344e-07
-4.845761607480843e-18
-2.426357325999687e-07
-4.3809685943975163e-07
-5.22325794746251e-07
-4.0304755494595636e-07
0.0
0.0
0.0
0.0
0.0
0.0
0.0
0.0
0.0
0.0
0.0
0.0
0.0
0.0
0.0
0.0
0.0
0.0
0.0
0.0
0.0
0.0
0.0
0.0
0.0
0.0
0.0
0.0
0.0
0.0
0.0
0.0
0.0
0.0
0.0
0.0
0.0
0.0
0.0
0.0
-1.3416194066322888e-09
-2.343701659601642e-09
-2.277963731249664e-09
-2.0160507545575027e-09
3.270102685232008e-19
2.0160507551342043e-09
2.2779637316602815e-09
2.3437016597437527e-09
1.3416194067456573e-09
-2.269935370319718e-09
-3.855533300004396e-09
-5.788212591864682e-09
-2.3134148382474895e-09
9.627441378378146e-19
2.3134148393978707e-09
5.788212592071701e-09
3.8555333006100466e-09
2.269935370525685e-09
-3.187257891071278e-09
-7.017491919457069e-09
-6.393360281661603e-09
-1.4227476650471969e-08
2.800942700649279e-19
1.4227476651760448e-08
6.393360283886267e-09
7.017491919862431e-09
3.1872578913395048e-09
-4.566321532641828e-09
-9.44313532970095e-09
-2.1327095285934868e-08
5.858129232495143e-10
9.83995393430511e-19
-5.858129203711661e-10
2.132709528715437e-08
9.443135329832306e-09
4.566321532686023e-09
-4.171740285281497e-09
-1.5237115992199985e-08
-1.1972997993518549e-08
-1.2652429715422436e-07
5.97643650878568e-21
1.2652429715454674e-07
1.1972997994822331e-08
1.5237115992810308e-08
4.171740285416957e-09
-4.566321533270989e-09
-9.443135331420102e-09
-2.132709528783681e-08
5.858129207588033e-10
-1.82208450201037e-19
-5.858129208238641e-10
2.132709528616662e-08
9.443135329909341e-09
4.566321533006544e-09
-3.18725789163974e-09
-7.017491920711513e-09
-6.393360283615819e-09
-1.4227476651690267e-08
-8.82701169307265e-19
1.4227476650231254e-08
6.393360282528384e-09
7.017491919700502e-09
3.1872578912708215e-09
-2.2699353708529237e-09
-3.855533301009521e-09
-5.7882125922643444e-09
-2.3134148384948603e-09
-3.6382360510772034e-19
2.3134148379094927e-09
5.788212591305517e-09
3.855533300063419e-09
2.269935370365422e-09
-1.3416194068417647e-09
-2.3437016598855e-09
-2.2779637315838645e-09
-2.01605075506284e-09
-1.817835418343329e-19
2.016050754578395e-09
2.277963731168334e-09
2.3437016595243034e-09
1.341619406659344e-09
SCALARS disp_z float
LOOKUP_TABLE default
0.0
0.0
0.0
0.0
0.0
0.0
0.0
0.0
0.0
0.0
0.0
0.0
0.0
0.0
0.0
0.0
0.0
0.0
0.0
0.0
0.0
0.0
0.0
0.0
0.0
0.0
0.0
0.0
0.0
0.0
0.0
0.0
0.0
0.0
0.0
0.0
0.0
0.0
0.0
0.0
-9.084167526330552e-06
-2.854799463160355e-05
-4.8290817174272904e-05
-6.225473574848517e-05
-6.718745924775738e-05
-6.225473574851412e-05
-4.829081717440427e-05
-2.8547994631704848e-05
-9.084167526347905e-06
-2.8547994631659667e-05
-9.479384538002815e-05
-0.00016733309058639904
-0.00021964017060717095
-0.00023880363691353948
-0.00021964017060732162
-0.00016733309058693748
-9.479384538049793e-05
-2.854799463188138e-05
-4.829081717430195e-05
-0.00016733309058657617
-0.0003123520335894404
-0.00042646272558968996
-0.00046701811334344436
-0.0004264627255902544
-0.00031235203359039436
-0.0001673330905877525
-4.829081717483273e-05
-6.225473574855388e-05
-0.00021964017060713186
-0.0004264627255896923
-0.0006199659224290526
-0.0007003229801284888
-0.0006199659224294345
-0.00042646272559162076
-0.0002196401706088104
-6.225473574918965e-05
-6.718745924805494e-05
-0.00023880363691391562
-0.0004670181133436669
-0.0007003229801293889
-0.000840794422734591
-0.0007003229801297803
-0.00046701811334508146
-0.00023880363691542746
-6.71874592486801e-05
-6.22547357490572e-05
-0.0002196401706089784
-0.0004264627255926183
-0.00061996592243142
-0.0007003229801309491
-0.0006199659224318043
-0.0004264627255933767
-0.00021964017060973148
-6.225473574942275e-05
-4.8290817175005465e-05
-0.00016733309058894572
-0.00031235203359324505
-0.00042646272559383595
-0.00046701811334639486
-0.00042646272559386766
-0.000312352033593093
-0.00016733309058912963
-4.829081717515604e-05
-2.8547994632130692e-05
-9.479384538168882e-05
-0.00016733309058950959
-0.00021964017061035704
-0.00023880363691638202
-0.00021964017060988327
-0.00016733309058893314
-9.479384538148327e-05
-2.8547994632132603e-05
-9.084167526484404e-06
-2.8547994632209747e-05
-4.8290817175303655e-05
-6.225473574972409e-05
-6.718745924896148e-05
-6.225473574941985e-05
-4.8290817175001806e-05
-2.8547994632075686e-05
-9.084167526453343e-06
0.0
0.0
0.0
0.0
0.0
0.0
0.0
0.0
0.0
0.0
0.0
0.0
0.0
0.0
0.0
0.0
0.0
0.0
0.0
0.0
0.0
0.0
0.0
0.0
0.0
0.0
0.0
0.0
0.0
0.0
0.0
0.0
0.0
0.0
0.0
0.0
0.0
0.0
0.0
0.0
-9.084097482128804e-06
-2.8547929943313218e-05
-4.8290735327967644e-05
-6.225455947130306e-05
-6.718760961548443e-05
-6.225455947133206e-05
-4.829073532809894e-05
-2.8547929943414533e-05
-9.084097482146138e-06
-2.8547929943369302e-05
-9.479378281368329e-05
-0.00016733298808302611
-0.00021964044087332751
-0.00023880230387055007
-0.00021964044087347792
-0.00016733298808356483
-9.479378281415296e-05
-2.8547929943591062e-05
-4.829073532799663e-05
-0.00016733298808320346
-0.00031235226403711894
-0.00042646110953047605
-0.0004670234302312377
-0.0004264611095310406
-0.0003123522640380726
-0.00016733298808437974
-4.829073532852744e-05
-6.22545594713718e-05
-0.00021964044087328824
-0.000426461109530478
-0.0006199732868963765
-0.0007002975071626528
-0.0006199732868967581
-0.00042646110953240674
-0.00021964044087496688
-6.225455947200752e-05
-6.718760961578193e-05
-0.00023880230387092618
-0.0004670234302314607
-0.0007002975071635525
-0.000840895768060368
-0.0007002975071639441
-0.00046702343023287505
-0.00023880230387243818
-6.718760961640714e-05
-6.225455947187511e-05
-0.00021964044087513464
-0.0004264611095334043
-0.0006199732868987437
-0.0007002975071651133
-0.0006199732868991277
-0.00042646110953416277
-0.00021964044087588788
-6.225455947224066e-05
-4.829073532870015e-05
-0.00016733298808557296
-0.00031235226404092357
-0.0004264611095346219
-0.00046702343023418823
-0.00042646110953465364
-0.00031235226404077146
-0.00016733298808575692
-4.8290735328850754e-05
-2.854792994384037e-05
-9.479378281534389e-05
-0.00016733298808613685
-0.00021964044087651344
-0.0002388023038733926
-0.00021964044087603965
-0.00016733298808556044
-9.47937828151383e-05
-2.854792994384228e-05
-9.084097482282632e-06
-2.8547929943919426e-05
-4.829073532899833e-05
-6.225455947254199e-05
-6.71876096166885e-05
-6.225455947223775e-05
-4.829073532869653e-05
-2.854792994378535e-05
-9.08409748225158e-06
0.0
0.0
0.0
0.0
0.0
0.0
0.0
0.0
0.0
0.0
0.0
0.0
0.0
0.0
0.0
0.0
0.0
0.0
0.0
0.0
0.0
0.0
0.0
0.0
0.0
0.0
0.0
0.0
0.0
0.0
0.0
0.0
0.0
0.0
0.0
0.0
0.0
0.0
0.0
0.0
-9.07981381414032e-06
-2.8540712817442894e-05
-4.827802568819458e-05
-6.223825638979039e-05
-6.716918941273866e-05
-6.22382563898193e-05
-4.827802568832592e-05
-2.8540712817544155e-05
-9.07981381415762e-06
-2.8540712817499018e-05
-9.47935564226801e-05
-0.00016733317327408345
-0.00021963910878591435
-0.00023880316074405278
-0.00021963910878606494
-0.000167333173274622
-9.479355642314984e-05
-2.854071281772071e-05
-4.8278025688223596e-05
-0.00016733317327426072
-0.00031236017452384473
-0.0004264738842425869
-0.00046702656513199106
-0.0004264738842431512
-0.0003123601745247985
-0.00016733317327543727
-4.827802568875434e-05
-6.223825638985907e-05
-0.00021963910878587513
-0.00042647388424258873
-0.000619999012031452
-0.0007003550228000499
-0.0006199990120318335
-0.000426473884244518
-0.00021963910878755388
-6.223825639049474e-05
-6.716918941303622e-05
-0.00023880316074442878
-0.00046702656513221343
-0.0007003550228009499
-0.0008408945478529486
-0.0007003550228013415
-0.00046702656513362804
-0.00023880316074594108
-6.716918941366129e-05
-6.223825639036228e-05
-0.00021963910878772188
-0.0004264738842455155
-0.0006199990120338191
-0.0007003550228025107
-0.0006199990120342035
-0.00042647388424627404
-0.00021963910878847507
-6.223825639072779e-05
-4.827802568892699e-05
-0.0001673331732766305
-0.00031236017452764974
-0.00042647388424673315
-0.00046702656513494145
-0.0004264738842467651
-0.0003123601745274975
-0.00016733317327681442
-4.8278025689077575e-05
-2.8540712817969938e-05
-9.47935564243408e-05
-0.0001673331732771945
-0.0002196391087891007
-0.00023880316074689555
-0.0002196391087886267
-0.00016733317327661786
-9.479355642413516e-05
-2.854071281797187e-05
-9.079813814294063e-06
-2.854071281804898e-05
-4.8278025689225115e-05
-6.223825639102908e-05
-6.716918941394264e-05
-6.223825639072482e-05
-4.82780256889233e-05
-2.8540712817914925e-05
-9.079813814263012e-06
SCALARS von_mises_stress float
LOOKUP_TABLE default
74.40606654922772
74.40604790379916
74.40607391265388
74.40606293485581
122.18267310598671
285.51335536807403
458.31046660020866
583.0361985057673
627.7861251586677
583.036207218915
458.3104702584059
285.51332971290805
122.18266957119909
122.18266481703361
285.51333790988406
458.3104609545738
583.0361982677052
627.786138619207
583.036205489875
458.3104666427018
285.51332229866074
122.18266460302297
122.18266719710171
285.5133483220467
458.3104648563566
583.0361968695628
627.7861299658043
583.036200068684
458.31047164855187
285.5133348291188
122.18267439076784
122.18267415813094
285.5133427307981
458.310467182575
583.0362044293113
627.7861334565678
583.0362015964423
458.3104667376368
285.5133258421593
122.18267585458705
89.93689272072828
139.25002469816593
224.49312408403884
289.6261783068074
317.6684047818698
289.6262693480177
224.49309593018364
139.24999286518306
89.93699339952725
139.25002016386475
69.52743238976586
74.06778947240659
72.45951301132197
70.98518059046562
72.45952997003008
74.06779255750659
69.52743994219391
139.2499689735101
224.49308810267513
74.06779300562582
192.33071406346144
282.20447508975275
236.84306645796028
282.2044105129996
192.33074415800667
74.06779194416212
224.49308234109864
289.6261818751355
72.45951874776273
282.2044221975145
656.4863402521149
891.6836264920441
656.4863348864332
282.20449985314826
72.45952571875837
289.6261714886484
317.668411205979
70.98519753002768
236.84315484569788
891.6836536587184
1020.8011794181366
891.683601103053
236.84307325209645
70.98521210560943
317.66832826646106
289.6262676410783
72.45951041870488
282.2043954940878
656.4863529063304
891.6836822055856
656.4864160567925
282.20445730574176
72.4595285419197
289.6261420345153
224.49317845092926
74.06778459300591
192.33079624170853
282.2044349231909
236.8430934399122
282.2044993960496
192.33070633194916
74.0677935764393
224.49315104282294
139.2500473472813
69.52744042273073
74.0677897564498
72.45951874746765
70.98519982518889
72.45950427589102
74.06779696320042
69.52742752003722
139.25002734379223
89.93699049471321
139.25005766585718
224.49309202404092
289.62623687729246
317.66835873000116
289.6262737823739
224.49311783932606
139.25001857383225
89.93688848494276
74.40676664691952
74.40676175807687
74.40678197485279
74.40675721533204
122.18245457601454
285.5116632060918
458.3069646465241
583.0435432525961
627.6501768273879
583.0435476004959
458.3069565821229
285.5116542616484
122.18244330834311
122.18245506569055
285.51167161265215
458.306963672894
583.043542333708
627.6501826949855
583.0435536399492
458.30696683640235
285.5116537228482
122.18243409333986
122.18245546838756
285.5116723976895
458.30695924256537
583.0435352648805
627.6501836218831
583.043556950701
458.30696074628423
285.5116670134826
122.18243111107101
122.18244601654509
285.511671564123
458.30697399537485
583.0435571893476
627.6501838177242
583.043544996174
458.30696794616074
285.51164732388276
122.18244615241245
89.98532557111226
139.297803010395
224.5579715018208
289.7023756896974
317.74791584654326
289.70239177418
224.55798220948296
139.29778947536917
89.98541653748109
139.29784622953966
69.52763852072755
73.99063202951069
72.55555162984987
69.81573388594094
72.55556387373684
73.99063756905396
69.52764426800171
139.29775994703442
224.5579146736318
73.99064036617952
192.28124400227637
281.8111491382892
238.70141044564068
281.81106810962183
192.28128598445852
73.99063784498875
224.55795020255206
289.70236522071303
72.55555287234651
281.8110996343323
658.0284327074119
884.3328963278719
658.028472824191
281.81116995074217
72.55555405350272
289.702292705622
317.7478798109042
69.81574815591
238.7014894813878
884.3329208116106
1053.9884664216079
884.3328168596097
238.70147051396643
69.8157712700152
317.74784029547857
289.7024155399863
72.55554730240453
281.81109378885424
658.0284377025342
884.3329313405853
658.0285467104229
281.8111217258654
72.55557341331452
289.7022972957362
224.557987071602
73.99063070526476
192.2812788084635
281.81114898123747
238.70143401815608
281.811157705556
192.2812121084826
73.99063567317175
224.55796261909936
139.2978417136829
69.52763741672837
73.99063844245227
72.55555853352018
69.81573819387081
72.55554102533505
73.99063679506453
69.52767382861518
139.29782819985599
89.98539615806972
139.2978645272309
224.5579016786637
289.7023655427939
317.74783334268744
289.7024386705083
224.55794101208386
139.29780553353373
89.98531004801538
71.48525693981935
71.48525675629786
119.1947322545621
282.61536221467736
454.43099026362995
578.3462219177205
622.555701274842
578.3462217840967
454.4309893174805
282.6153480415099
119.19472949674255
71.4852568942149
119.19473226311752
282.615362232685
454.43099041775275
578.3462220465915
622.555701508991
578.3462219092012
454.43098941111066
282.6153480944053
119.19472947548415
71.48525682100245
119.19473230698969
282.6153623504068
454.43099038471996
578.3462221100347
622.5557014989994
578.3462218919992
454.4309894419806
282.6153481727488
119.19472953790103
119.1947323316014
282.6153623238413
454.4309903474203
578.3462220680672
622.5557013547975
578.3462218454138
454.43098932664907
282.6153480671812
119.19472942684229
13.715074443501244
27.473274724980637
31.685986688837893
31.948336291619434
31.899191074558775
31.948336249491078
31.68598669160832
27.47327848975974
13.715074477708976
27.473278496098487
53.20303775941675
66.8750380751003
62.70650006453097
62.37684132140944
62.70650001056228
66.87503821303734
53.203037642753785
27.473274683518284
31.68598665185714
66.87503812813434
95.34560547402825
105.37149994157654
75.66911250145239
105.3714999854723
95.34560536684788
66.87503811732078
31.685986666431745
31.9483362007262
62.706500115006
105.37149995006064
158.76237412806532
208.04173093534192
158.76237415902438
105.37150000841474
62.70650000941581
31.94833631467281
31.89919104088382
62.376841290500984
75.66911247825712
208.04173099737406
16.61583838227671
208.04173123872658
75.6691126124832
62.37684131831185
31.899191044457485
31.948336269465678
62.7065001172922
105.37149993035534
158.76237406519854
208.04173109723692
158.76237416865516
105.37149998983341
62.70650003514421
31.948336298060404
31.685986681174775
66.87503802878278
95.34560541432458
105.37149997866764
75.66911252384631
105.37149994531585
95.34560547249464
66.87503816643479
31.68598665720422
27.473274679233466
53.203037697574615
66.87503819885704
62.70650013619588
62.37684118108177
62.70650005125731
66.87503807715127
53.20303773963628
27.47327845665363
13.715074430160591
27.47327844978078
31.685986677388087
31.948336208042633
31.89919105849098
31.948336305461968
31.685986651046193
27.473274713089143
13.715074496934365
