# vtk DataFile Version 2.0
Generated Volume Mesh
ASCII
DATASET UNSTRUCTURED_GRID
POINTS 165 float
0.0 -0.009999999776482582 0.0
0.1599999964237213 -0.009999999776482582 0.0
0.1599999964237213 0.009999999776482582 0.0
0.0 0.009999999776482582 0.0
0.004999999888241291 -0.009999999776482582 0.0
0.009999999776482582 -0.009999999776482582 0.0
0.014999999664723873 -0.009999999776482582 0.0
0.019999999552965164 -0.009999999776482582 0.0
0.02500000037252903 -0.009999999776482582 0.0
0.029999999329447746 -0.009999999776482582 0.0
0.03500000014901161 -0.009999999776482582 0.0
0.03999999910593033 -0.009999999776482582 0.0
0.04500000178813934 -0.009999999776482582 0.0
0.05000000074505806 -0.009999999776482582 0.0
0.054999999701976776 -0.009999999776482582 0.0
0.05999999865889549 -0.009999999776482582 0.0
0.06499999761581421 -0.009999999776482582 0.0
0.07000000029802322 -0.009999999776482582 0.0
0.07500000298023224 -0.009999999776482582 0.0
0.07999999821186066 -0.009999999776482582 0.0
0.08500000089406967 -0.009999999776482582 0.0
0.09000000357627869 -0.009999999776482582 0.0
0.0949999988079071 -0.009999999776482582 0.0
0.10000000149011612 -0.009999999776482582 0.0
0.10499999672174454 -0.009999999776482582 0.0
0.10999999940395355 -0.009999999776482582 0.0
0.11500000208616257 -0.009999999776482582 0.0
0.11999999731779099 -0.009999999776482582 0.0
0.125 -0.009999999776482582 0.0
0.12999999523162842 -0.009999999776482582 0.0
0.13500000536441803 -0.009999999776482582 0.0
0.14000000059604645 -0.009999999776482582 0.0
0.14499999582767487 -0.009999999776482582 0.0
0.15000000596046448 -0.009999999776482582 0.0
0.1550000011920929 -0.009999999776482582 0.0
0.1599999964237213 -0.004999999888241291 0.0
0.1599999964237213 -2.538941279439655e-14 0.0
0.1599999964237213 0.004999999888241291 0.0
0.1550000011920929 0.009999999776482582 0.0
0.15000000596046448 0.009999999776482582 0.0
0.14499999582767487 0.009999999776482582 0.0
0.14000000059604645 0.009999999776482582 0.0
0.13500000536441803 0.009999999776482582 0.0
0.12999999523162842 0.009999999776482582 0.0
0.125 0.009999999776482582 0.0
0.11999999731779099 0.009999999776482582 0.0
0.11500000208616257 0.009999999776482582 0.0
0.10999999940395355 0.009999999776482582 0.0
0.10499999672174454 0.009999999776482582 0.0
0.10000000149011612 0.009999999776482582 0.0
0.0949999988079071 0.009999999776482582 0.0
0.09000000357627869 0.009999999776482582 0.0
0.08500000089406967 0.009999999776482582 0.0
0.07999999821186066 0.009999999776482582 0.0
0.07500000298023224 0.009999999776482582 0.0
0.07000000029802322 0.009999999776482582 0.0
0.06499999761581421 0.009999999776482582 0.0
0.05999999865889549 0.009999999776482582 0.0
0.054999999701976776 0.009999999776482582 0.0
0.05000000074505806 0.009999999776482582 0.0
0.04500000178813934 0.009999999776482582 0.0
0.03999999910593033 0.009999999776482582 0.0
0.03500000014901161 0.009999999776482582 0.0
0.029999999329447746 0.009999999776482582 0.0
0.02500000037252903 0.009999999776482582 0.0
0.019999999552965164 0.009999999776482582 0.0
0.014999999664723873 0.009999999776482582 0.0
0.009999999776482582 0.009999999776482582 0.0
0.004999999888241291 0.009999999776482582 0.0
0.0 0.004999999888241291 0.0
0.0 2.538941279439655e-14 0.0
0.0 -0.004999999888241291 0.0
0.004999999888241291 -0.004999999888241291 0.0
0.004999999888241291 2.380214081387777e-14 0.0
0.004999999888241291 0.004999999888241291 0.0
0.009999999776482582 -0.004999999888241291 0.0
0.009999999776482582 2.221573619509698e-14 0.0
0.009999999776482582 0.004999999888241291 0.0
0.014999999664723873 -0.004999999888241291 0.0
0.014999999664723873 2.06284642145782e-14 0.0
0.014999999664723873 0.004999999888241291 0.0
0.019999999552965164 -0.004999999888241291 0.0
0.019999999552965164 1.904205959579741e-14 0.0
0.019999999552965164 0.004999999888241291 0.0
0.02500000037252903 -0.004999999888241291 0.0
0.02500000037252903 1.7454787615278633e-14 0.0
0.02500000037252903 0.004999999888241291 0.0
0.029999999329447746 -0.004999999888241291 0.0
0.029999999329447746 1.5868382996497843e-14 0.0
0.029999999329447746 0.004999999888241291 0.0
0.03500000014901161 -0.004999999888241291 0.0
0.03500000014901161 1.428067733511007e-14 0.0
0.03500000014901161 0.004999999888241291 0.0
0.03999999910593033 -0.004999999888241291 0.0
0.03999999910593033 1.2695140078067269e-14 0.0
0.03999999910593033 0.004999999888241291 0.0
0.04500000178813934 -0.004999999888241291 0.0
0.04500000178813934 1.110786809754849e-14 0.0
0.04500000178813934 0.004999999888241291 0.0
0.05000000074505806 -0.004999999888241291 0.0
0.05000000074505806 9.5214634787677e-15 0.0
0.05000000074505806 0.004999999888241291 0.0
0.054999999701976776 -0.004999999888241291 0.0
0.054999999701976776 7.933757817379927e-15 0.0
0.054999999701976776 0.004999999888241291 0.0
0.05999999865889549 -0.004999999888241291 0.0
0.05999999865889549 6.346919517730143e-15 0.0
0.05999999865889549 0.004999999888241291 0.0
0.06499999761581421 -0.004999999888241291 0.0
0.06499999761581421 4.760514898949353e-15 0.0
0.06499999761581421 0.004999999888241291 0.0
0.07000000029802322 -0.004999999888241291 0.0
0.07000000029802322 3.1736765992995686e-15 0.0
0.07000000029802322 0.004999999888241291 0.0
0.07500000298023224 -0.004999999888241291 0.0
0.07500000298023224 1.58640461878079e-15 0.0
0.07500000298023224 0.004999999888241291 0.0
0.07999999821186066 -0.004999999888241291 0.0
0.07999999821186066 0.0 0.0
0.07999999821186066 0.004999999888241291 0.0
0.08500000089406967 -0.004999999888241291 0.0
0.08500000089406967 -1.5872719805187785e-15 0.0
0.08500000089406967 0.004999999888241291 0.0
0.09000000357627869 -0.004999999888241291 0.0
0.09000000357627869 -3.1736765992995686e-15 0.0
0.09000000357627869 0.004999999888241291 0.0
0.0949999988079071 -0.004999999888241291 0.0
0.0949999988079071 -4.760948579818347e-15 0.0
0.0949999988079071 0.004999999888241291 0.0
0.10000000149011612 -0.004999999888241291 0.0
0.10000000149011612 -6.347353198599137e-15 0.0
0.10000000149011612 0.004999999888241291 0.0
0.10499999672174454 -0.004999999888241291 0.0
0.10499999672174454 -7.934408338683419e-15 0.0
0.10499999672174454 0.004999999888241291 0.0
0.10999999940395355 -0.004999999888241291 0.0
0.10999999940395355 -9.521246638333203e-15 0.0
0.10999999940395355 0.004999999888241291 0.0
0.11500000208616257 -0.004999999888241291 0.0
0.11500000208616257 -1.1107434416679496e-14 0.0
0.11500000208616257 0.004999999888241291 0.0
0.11999999731779099 -0.004999999888241291 0.0
0.11999999731779099 -1.2694923237632771e-14 0.0
0.11999999731779099 0.004999999888241291 0.0
0.125 -0.004999999888241291 0.0
0.125 -1.4280894175544567e-14 0.0
0.125 0.004999999888241291 0.0
0.12999999523162842 -0.004999999888241291 0.0
0.12999999523162842 -1.5868057735846097e-14 0.0
0.12999999523162842 0.004999999888241291 0.0
0.13500000536441803 -0.004999999888241291 0.0
0.13500000536441803 -1.7455438136582124e-14 0.0
0.13500000536441803 0.004999999888241291 0.0
0.14000000059604645 -0.004999999888241291 0.0
0.14000000059604645 -1.904205959579741e-14 0.0
0.14000000059604645 0.004999999888241291 0.0
0.14499999582767487 -0.004999999888241291 0.0
0.14499999582767487 -2.0628410004469577e-14 0.0
0.14499999582767487 0.004999999888241291 0.0
0.15000000596046448 -0.004999999888241291 0.0
0.15000000596046448 -2.221573619509698e-14 0.0
0.15000000596046448 0.004999999888241291 0.0
0.1550000011920929 -0.004999999888241291 0.0
0.1550000011920929 -2.3802357654312267e-14 0.0
0.1550000011920929 0.004999999888241291 0.0
CELLS 128 640
4 0 4 72 71
4 71 72 73 70
4 70 73 74 69
4 69 74 68 3
4 4 5 75 72
4 72 75 76 73
4 73 76 77 74
4 74 77 67 68
4 5 6 78 75
4 75 78 79 76
4 76 79 80 77
4 77 80 66 67
4 6 7 81 78
4 78 81 82 79
4 79 82 83 80
4 80 83 65 66
4 7 8 84 81
4 81 84 85 82
4 82 85 86 83
4 83 86 64 65
4 8 9 87 84
4 84 87 88 85
4 85 88 89 86
4 86 89 63 64
4 9 10 90 87
4 87 90 91 88
4 88 91 92 89
4 89 92 62 63
4 10 11 93 90
4 90 93 94 91
4 91 94 95 92
4 92 95 61 62
4 11 12 96 93
4 93 96 97 94
4 94 97 98 95
4 95 98 60 61
4 12 13 99 96
4 96 99 100 97
4 97 100 101 98
4 98 101 59 60
4 13 14 102 99
4 99 102 103 100
4 100 103 104 101
4 101 104 58 59
4 14 15 105 102
4 102 105 106 103
4 103 106 107 104
4 104 107 57 58
4 15 16 108 105
4 105 108 109 106
4 106 109 110 107
4 107 110 56 57
4 16 17 111 108
4 108 111 112 109
4 109 112 113 110
4 110 113 55 56
4 17 18 114 111
4 111 114 115 112
4 112 115 116 113
4 113 116 54 55
4 18 19 117 114
4 114 117 118 115
4 115 118 119 116
4 116 119 53 54
4 19 20 120 117
4 117 120 121 118
4 118 121 122 119
4 119 122 52 53
4 20 21 123 120
4 120 123 124 121
4 121 124 125 122
4 122 125 51 52
4 21 22 126 123
4 123 126 127 124
4 124 127 128 125
4 125 128 50 51
4 22 23 129 126
4 126 129 130 127
4 127 130 131 128
4 128 131 49 50
4 23 24 132 129
4 129 132 133 130
4 130 133 134 131
4 131 134 48 49
4 24 25 135 132
4 132 135 136 133
4 133 136 137 134
4 134 137 47 48
4 25 26 138 135
4 135 138 139 136
4 136 139 140 137
4 137 140 46 47
4 26 27 141 138
4 138 141 142 139
4 139 142 143 140
4 140 143 45 46
4 27 28 144 141
4 141 144 145 142
4 142 145 146 143
4 143 146 44 45
4 28 29 147 144
4 144 147 148 145
4 145 148 149 146
4 146 149 43 44
4 29 30 150 147
4 147 150 151 148
4 148 151 152 149
4 149 152 42 43
4 30 31 153 150
4 150 153 154 151
4 151 154 155 152
4 152 155 41 42
4 31 32 156 153
4 153 156 157 154
4 154 157 158 155
4 155 158 40 41
4 32 33 159 156
4 156 159 160 157
4 157 160 161 158
4 158 161 39 40
4 33 34 162 159
4 159 162 163 160
4 160 163 164 161
4 161 164 38 39
4 34 1 35 162
4 162 35 36 163
4 163 36 37 164
4 164 37 2 38
CELL_TYPES 128
9
9
9
9
9
9
9
9
9
9
9
9
9
9
9
9
9
9
9
9
9
9
9
9
9
9
9
9
9
9
9
9
9
9
9
9
9
9
9
9
9
9
9
9
9
9
9
9
9
9
9
9
9
9
9
9
9
9
9
9
9
9
9
9
9
9
9
9
9
9
9
9
9
9
9
9
9
9
9
9
9
9
9
9
9
9
9
9
9
9
9
9
9
9
9
9
9
9
9
9
9
9
9
9
9
9
9
9
9
9
9
9
9
9
9
9
9
9
9
9
9
9
9
9
9
9
9
9
POINT_DATA 165
SCALARS stress11 float
LOOKUP_TABLE default
-6454435246.381592
-210970028068.89185
210969985820.40552
6454301285.048096
-6111129626.109375
-12239922439.265625
-19903645714.421875
-26169023949.862793
-32550975657.421875
-38914513551.12842
-45298547782.40039
-51682679817.55469
-58070886087.0625
-64461901828.36719
-70854180932.69385
-77247366336.23926
-83640363193.74658
-90034176526.51855
-96426428354.88281
-102818407700.04688
-109208211575.71875
-115596195042.08301
-121980726977.04297
-128362279133.74512
-134738878793.85889
-141109942094.22266
-147472750596.0625
-153826867158.97656
-160163297345.12012
-166493715901.9536
-172752422213.6875
-179173158206.7173
-184647303601.90234
-188997469071.60547
-190386981983.96875
-100742555702.38904
59753.531799316406
100742687821.80115
190387092789.71973
188997618309.2461
184647232050.51562
179172827745.3203
172752757743.7339
166494117683.86816
160163673402.8203
153827046443.74756
147472753046.25
141109856615.48828
134739226160.42969
128362365353.89844
121981203728.0127
115596057943.43506
109208511948.23584
102818338008.19531
96427143174.98438
90033979223.10156
83641152703.88867
77247190811.84521
70854082817.2373
64461858367.52051
58071594457.546875
51682533870.58594
45298103967.84375
38914842602.978516
32551335902.876953
26170882015.340332
19903255607.63379
12240795778.078125
6111019194.828125
5626494282.4375
-91478.42309570312
-5626673449.208008
-3371282193.17749
-129981.34411621094
3371026451.65625
-6920272563.53125
448941.90625
6921167178.149658
-9205455145.539062
-278657.5617675781
9204905165.123535
-12164560416.125
1074416.421875
12166699735.796875
-15203892061.538086
175305.759765625
15204244682.57666
-18238609741.432617
189715.0625
18238987393.28125
-21272102732.3125
-231570.8768310547
21271642897.145752
-24305673020.70508
-56534.836669921875
24305562695.78125
-27339168699.046875
377186.453125
27339923516.019043
-30373702302.810547
-80848.52307128906
30373545497.42798
-33407820101.65625
-42732.78125
33407732994.0
-36442087463.53711
-86664.65545654297
36441913877.409424
-39475773814.12451
460641.6640625
39476690809.77344
-42510571448.61719
-116129.53692626953
42510339600.43408
-45544282272.48389
367404.89099121094
45545018105.66406
-48578882008.90625
-108592.921875
48578669998.72656
-51612603891.95581
217556.89111328125
51613034053.79419
-54646742834.078125
-23025.46484375
54646691376.46484
-57680106891.95459
304523.6099243164
57680706421.751465
-60713982850.99536
-34446.0625
60713920993.77734
-63747055742.57422
167618.30615234375
63747391860.50195
-66780087509.14453
9702.228576660156
66780098963.05469
-69812434939.39844
60805.76953125
69812545011.07129
-72844077726.03687
207972.70123291016
72844478220.48438
-75875538047.23828
190768.8984375
75875922064.48438
-78905262528.36938
133732.69912719727
78905537423.67969
-81929437498.13965
253908.984375
81929933977.79297
-84927894685.8418
-97033.51835632324
84927689971.59644
-88265023564.66406
-53991.37890625
88264917395.30469
-92878846999.12793
-10401.728256225586
92878825334.3186
-88400377294.43896
63332.8359375
88400515973.67969
SCALARS stress22 float
LOOKUP_TABLE default
-5493174887.399658
-86764677865.89484
86764933622.22955
5492865537.354492
-1791640996.3125
-1552557833.71875
-3748069855.625
-4717639684.015869
-5850855587.958984
-6944442059.4123535
-8059031702.537109
-9169939107.25
-10283197317.71875
-11399112241.5625
-12515107968.726807
-13631632504.559326
-14747204043.903076
-15865030054.864746
-16980587727.484375
-18097631236.09375
-19212673786.46875
-20327885223.914062
-21440720050.18579
-22553491144.223633
-23663537474.69507
-24772033370.953125
-25876570254.875
-26978614089.65625
-28070185402.850586
-29171491143.483154
-30204410516.254883
-31458664734.56079
-31765275407.40625
-32663620576.265625
-29892382751.203125
-41264031006.095764
111942.16306686401
41264294633.52133
29892673221.671143
32663778876.046875
31765111667.15625
31458210796.578125
30205426545.206543
29172252974.95923
28070979437.532227
26979280201.145996
25876770510.921875
24772019657.09375
23664284910.84375
22553613564.01123
21441973798.968506
20327700086.433594
19213510497.760254
18097452025.34375
16982203572.390625
15864683128.890625
14749084262.600342
13631268133.91455
12514906405.074219
11398971311.98169
10284784326.5625
9169537164.8125
8057980662.84375
6945225952.091553
5851710758.103516
4721978289.579346
3747162722.763672
1554600437.46875
1791385410.5625
9492644023.3125
-213131.18743896484
-9493061513.76593
276595883.4692383
-303369.21240234375
-277192757.75
-291433004.78125
1047032.65625
293520160.09851074
-335349621.48168945
-650561.7152099609
334065821.7409668
-379709108.28125
2507116.15625
384699829.90625
-473261210.7171631
407821.6370239258
474082529.90649414
-563995306.5797119
441299.59375
564875390.46875
-656426509.3125
-538831.6702575684
655353959.1850586
-747332054.9871826
-126622.23748779297
747079086.875
-837825958.34375
886516.625
839593463.0684814
-930443423.6411133
-185029.91348266602
930083045.2143555
-1021969641.28125
-102528.21875
1021765044.5
-1113708647.4301758
-206123.0711364746
1113300121.5742188
-1204084524.5863037
1071901.359375
1206219915.4375
-1297075934.75
-281800.9750061035
1296525443.2955322
-1387580470.0908203
862551.9231872559
1389306670.453125
-1480305262.953125
-252140.03125
1479818476.7774658
-1571157382.829834
494384.95739746094
1572141725.0969238
-1663246801.140625
-67125.8125
1663115374.515625
-1753935606.3204346
697776.2053222656
1755323689.164917
-1846093201.6813965
-73529.171875
1845958853.5
-1936917248.96875
397165.2873840332
1937711394.3045654
-2028440681.6556396
3957.146240234375
2028448089.5625
-2119238736.78125
123868.015625
2119478093.168213
-2209701098.6367188
459296.70712280273
2210601096.802002
-2299942000.265625
454064.453125
2300848248.734375
-2390648185.9593506
330306.86434936523
2391315350.7071533
-2475597717.064209
571421.8125
2476732067.453125
-2581971829.2747803
-257665.35703277588
2581460477.0878906
-2737370640.0494385
-126310.859375
2737125021.125
-2907312354.3988647
-10517.929458618164
2907285788.278015
-84117465.79187012
151636.828125
84444027.234375
SCALARS stress12 float
LOOKUP_TABLE default
1732088320.625
38483067069.875
38483170065.75
1732184148.375
2239977845.5
2429817890.125
2555204400.0
2485367315.0625
2504502499.8125
2501060493.6875
2502668921.875
2502553294.4375
2502951478.625
2503427687.3125
2504132792.125
2504805345.0625
2505562494.1875
2506552552.75
2507600973.1875
2509219975.03125
2511428227.53125
2513688001.8125
2516232913.0
2519693511.15625
2524342487.0625
2529986407.875
2537324919.4375
2546759447.40625
2562313856.625
2577378148.40625
2629337829.59375
2625090318.53125
2894498644.875
2517781240.0625
10930305229.6875
23623678997.1875
18672603337.625
23623759715.0625
10930431231.3125
2517944031.8125
2894476102.625
2624915435.0
2629343207.9375
2577595892.4375
2562442802.78125
2546663934.1875
2537104822.28125
2529777936.75
2524493698.90625
2519815137.8125
2516040993.65625
2513438261.65625
2511160657.0
2509413632.21875
2507919424.5625
2506376014.9375
2505545280.4375
2504657197.4375
2504033380.25
2503774241.6875
2503469728.125
2502970816.75
2502812038.25
2500983285.25
2504456956.3125
2485493896.9375
2555182054.5
2429813785.25
2239983305.625
2998112156.75
7393372439.375
2998049828.125
3454803577.0
5929715615.5
3454828719.75
3815653909.5
4791456922.875
3815707408.875
3784181082.125
5085893526.375
3784192535.0
3813634648.75
5087633661.0
3813727900.4375
3807054801.75
5093009199.875
3807096485.3125
3809093679.4375
5090150149.5
3809136189.0625
3808515862.8125
5090855676.9375
3808540795.0625
3808807397.0
5090792471.375
3808863409.75
3808754885.5
5090850780.875
3808848051.125
3808824040.4375
5090849517.5625
3808877246.875
3808812927.3125
5090809511.0
3808836519.4375
3808849248.6875
5090799918.6875
3808845241.375
3808857872.3125
5090801950.625
3808912636.1875
3808828832.375
5090702987.1875
3808834110.375
3808900504.78125
5090758754.875
3808984040.46875
3809048919.40625
5090816127.5
3809084531.875
3809287365.46875
5090956566.3125
3809289307.59375
3809410867.09375
5090979280.4375
3809411461.6875
3809349642.71875
5090800745.625
3809361656.75
3809682407.5
5090985669.1875
3809709038.3125
3810205905.9375
5091335336.53125
3810246607.90625
3810462466.6875
5091286648.53125
3810458671.28125
3810683036.59375
5091306345.65625
3810681252.28125
3811507044.1875
5091288632.71875
3811530292.3125
3811967803.40625
5092633525.9375
3812017611.65625
3815629276.1875
5090553139.46875
3815683193.5625
3810293292.15625
5098315276.4375
3810348990.21875
3844815751.75
5067636474.1875
3844782883.15625
3812103883.375
5319067892.4375
3812091099.5625
4453366168.6875
5615036319.125
4453369070.0
4718552014.6875
4162249084.875
4718621119.0
SCALARS strain11 float
LOOKUP_TABLE default
-0.0037311977763332393
-0.15814450105407207
0.15814434608040218
0.0037311967091988585
-0.004862388009930996
-0.01053283207823874
-0.01665057113351942
-0.021973932485022996
-0.027339554458067905
-0.032703875320091225
-0.038078653707344756
-0.043454962483570725
-0.04883405860466805
-0.05421467789797152
-0.05959641435438057
-0.06497876792790303
-0.07036132035666753
-0.07574373560243464
-0.08112561729553214
-0.08650667307399384
-0.09188652896027438
-0.09726466277745471
-0.10264057840348384
-0.10801381559647583
-0.1133836021424166
-0.11874895348518066
-0.12410833401321497
-0.12946078970218267
-0.13480123013402912
-0.14013240313379294
-0.14542498373624113
-0.15077869097257768
-0.15564058602201847
-0.15924887367944507
-0.1615941185898535
-0.07558275608503529
1.0252004613298116e-08
0.07558276886207382
0.1615941132859129
0.15924896769137042
0.1556405823463134
0.1507785665412591
0.14542489541077508
0.14013246878978425
0.13480126076044385
0.12946069343058575
0.12410826778119777
0.11874888740557132
0.11338362552137138
0.10801383960283761
0.10264052079588248
0.097264607560267
0.09188647595464383
0.08650668059731714
0.08112563738562706
0.07574369398957614
0.07036130647517913
0.0649787484438713
0.059596399473368145
0.05421469221067454
0.048834085098429014
0.0434549856449582
0.03807866282502648
0.03270387041330558
0.02733954984674325
0.021973932028455767
0.016650570035570578
0.010532830556519102
0.004862387227172249
0.0014179785545529455
-1.3409817700704707e-10
-0.0014179788652418646
-0.0031757391806070956
3.274913673578794e-11
0.003175739162070812
-0.006183789112919058
1.5488232918414724e-10
0.006183789246365867
-0.008246177804962729
1.1416545486753193e-10
0.008246177930633092
-0.010921663471617826
5.4996007747831754e-12
0.010921663488129951
-0.013650969547438052
4.149132148967283e-10
0.013650970196898982
-0.01637717596013677
6.793188234155423e-10
0.016377177051561276
-0.01910160713211173
-5.492795107642223e-10
0.019101606851148256
-0.021826703151665905
-2.0973163206150502e-09
0.021826701137031
-0.02455189095592214
-2.667132292799579e-09
0.02455188885062065
-0.0272771953259221
-1.7692827203319439e-09
0.027277194563631646
-0.030002548294223885
9.816005785978632e-10
0.03000255017072373
-0.032727951661051025
1.5276426235111273e-09
0.032727954270480586
-0.035453360683112445
1.0684750861855719e-09
0.03545336247583819
-0.03817875973956131
3.944612914086321e-09
0.038178765142377724
-0.040904139413427965
-2.4022138722656905e-09
0.04090413786446856
-0.04362946348154839
-5.600355734713958e-10
0.04362946259446021
-0.046354720046250186
5.594725516200327e-09
0.04635472476962299
-0.04907986938358189
5.3359592300239456e-09
0.04907987360618371
-0.0518048619480771
5.691013271746925e-09
0.0518048671596103
-0.054529746552104186
-2.5552768789793845e-09
0.05452974358545237
-0.05725442313469031
-2.3027323381441533e-09
0.05725442021985638
-0.059978785682470726
6.971937804856054e-09
0.059978792954932914
-0.06270281345757844
6.354587966939107e-09
0.06270282002957783
-0.06542632829825656
1.0009294754143028e-08
0.06542634132709058
-0.0681497624089289
-3.1455957838488757e-09
0.06814975944544521
-0.07087143754814784
-7.1053500722007e-09
0.07087142879820818
-0.0735903067878263
8.618993518894058e-09
0.07359031576569386
-0.0762774145825178
1.2127061951860973e-08
0.07627742761775624
-0.07925359617982386
-1.8600054829676083e-10
0.07925359680590205
-0.08338590259250167
-5.226259501556196e-09
0.08338588980097494
-0.08041153709131865
-1.611425659575616e-09
0.0804115360171167
SCALARS strain22 float
LOOKUP_TABLE default
-0.002481559395638197
0.0033224544833546504
-0.003322200259748012
0.0024813299398054045
0.0007529472138401161
0.003360742173441622
0.004351678385518198
0.005912866707296412
0.007370601653984753
0.008857218191245547
0.010332714035525055
0.011811600659541455
0.013289935109781936
0.014766950162339754
0.016244383387825585
0.017721688177708902
0.01919978574157169
0.02067615212269111
0.022153971906021752
0.023630334642803064
0.025107670010029892
0.026584140570743802
0.028061426175026216
0.029537613399959382
0.031014344642060293
0.03249032800918883
0.033966693604810416
0.035441939106249265
0.03691981724329602
0.038386490274938526
0.0398874289262916
0.04125014476583554
0.04310604581169741
0.04398511426609275
0.04704885251554458
0.0017393302525245818
7.896720985445249e-08
-0.00173913871377801
-0.04704863701494879
-0.04398503298743606
-0.04310616516973198
-0.04125043107796955
-0.039886637358349755
-0.03838595427912867
-0.03691924214915589
-0.03544140443677092
-0.03396651319269495
-0.03249030687504728
-0.03101379803808868
-0.029537533186901298
-0.02806047152774261
-0.026584255840797443
-0.02510702469584197
-0.02363047107367322
-0.022152780665948058
-0.02067639049148795
-0.019198382162012466
-0.017721949959101327
-0.016244527218900275
-0.014767061998062561
-0.013288769003764855
-0.011811909502483786
-0.01033349845923226
-0.008856633109849188
-0.0073699645438346575
-0.005909643682440416
-0.004352351786041944
-0.0033592239974780114
-0.0007531367770923225
0.00644397353235604
-1.58267591948702e-07
-0.006444283444951779
0.0015665023099857775
-2.2537948999451496e-07
-0.00156694570503646
0.002433702227875756
7.777211123993766e-07
-0.002432151944294164
0.003284959320076705
-4.833160050787821e-07
-0.0032859130682356963
0.00439864357790043
1.862449749978623e-06
-0.004394935910738695
0.005498850228064803
3.027907594724266e-07
-0.00549824035046928
0.006599821790601201
3.275834217220108e-07
-0.006599168503697683
0.007698771980301444
-4.000831674566552e-07
-0.007699568707687107
0.00879914033003433
-9.326570723361405e-08
-0.008799327431830761
0.009899853765631406
6.596910111511534e-07
-0.009898540156736614
0.010999040579926914
-1.3667644831877324e-07
-0.010999307280543609
0.012099057504187272
-7.67198997664309e-08
-0.012099209798094535
0.013198938967831815
-1.5376044287807034e-07
-0.013199243016928389
0.01429983492483812
7.96138550640535e-07
-0.014298248940704639
0.015398783796470639
-2.1133922888799672e-07
-0.01539919423132901
0.016499571725753663
6.414838036039594e-07
-0.016498287840818193
0.017598685276396964
-1.871116381835236e-07
-0.01759904725726842
0.01869916297627778
3.6511813099673884e-07
-0.018698434277596772
0.019798674017664553
-5.207672870710667e-08
-0.019798774775594552
0.020899160285793607
5.159229983509039e-07
-0.020898131268718437
0.021998507862467633
-5.308439199325221e-08
-0.02199860691577271
0.02309875732144917
2.9622730252781837e-07
-0.023098166616636044
0.024198352649369894
-2.265030246695332e-10
-0.024198350616387643
0.025298342679235475
8.961761466252938e-08
-0.025298168915323525
0.026398363462492455
3.372989105104862e-07
-0.026397699259360533
0.027498512063104386
3.3886463768340036e-07
-0.027497837216827747
0.028597561819005364
2.485168509799851e-07
-0.028597063322198503
0.029699688079820083
4.2048782233905513e-07
-0.02969884803243872
0.030772284785433347
-1.9650615485158895e-07
-0.030772669426770375
0.03193235235281113
-9.380762833188783e-08
-0.03193253382072214
0.033577096926756755
-5.294089586854733e-09
-0.03357711160991779
0.03439960030859625
1.1314433834286319e-07
-0.03439935764816937
SCALARS strain12 float
LOOKUP_TABLE default
0.0045034293621029065
0.1000559783284416
0.10005624489940601
0.004503678588434923
0.005823942541837823
0.006317526574548538
0.006643531419513238
0.00646195444278419
0.006511706354785929
0.006502757487396593
0.006506938923848793
0.006506638509108598
0.006507673667556446
0.00650891148370647
0.006510745516834504
0.006512493935929342
0.006514462385212028
0.006517037459730091
0.006519762247762628
0.006523972138325007
0.0065297127332542
0.006535587891448813
0.006542205578739413
0.006551202755076702
0.006563290469102867
0.006577965089491045
0.006597044981504041
0.006621575555072923
0.0066620158128216644
0.006701184636654034
0.006836279185563399
0.006825234970506244
0.0075256969109886995
0.006546231115635237
0.0284187941649634
0.061421564231977754
0.048548768612022286
0.06142177760057166
0.028419121660249402
0.006546654276689878
0.007525638436959525
0.00682478059661662
0.0068362929644081305
0.006701750494244152
0.00666234977120439
0.006621327422408285
0.006596473647732637
0.006577423469025234
0.006563683057720482
0.006551519669528716
0.006541707339579261
0.0065349387978130835
0.006529017296770689
0.006524475760556925
0.006520590401123627
0.00651657721095944
0.006514417901030356
0.006512108776405512
0.006510486517072422
0.006509812982926633
0.00650902131019393
0.006507723754111794
0.006507311364202906
0.006502556347413702
0.006511588195508011
0.006462283999780993
0.006643472990390364
0.006317515578075472
0.005823956707672551
0.007795091365551343
0.019222768326017103
0.007794929587134902
0.008982489416212047
0.015417259945706974
0.008982554538533805
0.009920700427073825
0.012457788185884056
0.00992083936966992
0.009838870904559371
0.013223323251622787
0.00983889999361054
0.009915450100834278
0.013227847230609768
0.009915693113271118
0.0098983425618826
0.013241823460475644
0.009898450963419236
0.009903643349616686
0.013234390684601749
0.00990375401397614
0.009902141787051733
0.013236223889634857
0.009902206071956243
0.009902899209009774
0.013236060661029114
0.009903044380507708
0.009902762865749537
0.013236211856792579
0.009903005018259137
0.009902942382723268
0.013236208978469222
0.009903081143079362
0.00990291324512782
0.013236104616680677
0.009902975430577499
0.009903007985371914
0.013236079918101495
0.00990299720490384
0.009903030034706717
0.013236085942480713
0.009903172394388093
0.009902955371899225
0.01323582753127539
0.009902968855612926
0.009903141522272563
0.01323597300745405
0.009903358435053633
0.009903527361529996
0.013236121966656356
0.009903619054853152
0.009904147463885238
0.01323648744721595
0.009904151937121242
0.009904467901719727
0.013236546469101995
0.00990446955643165
0.009904309009129975
0.01323608249776953
0.00990434014636321
0.009905174667096617
0.013236562799420426
0.00990524286339678
0.009906535967616037
0.013237471927823208
0.009906641125098758
0.009907201784471908
0.01323734559798595
0.009907193018079852
0.009907775768510874
0.013237395218425263
0.009907771995358416
0.009909919310757687
0.01323734990523917
0.00990997859048548
0.009911116413718446
0.013240846702728959
0.009911245626881282
0.009920636014271622
0.013235438175684067
0.009920775177306496
0.009906763209187375
0.01325562022975646
0.009906907248023344
0.009996521508810474
0.013175855047848017
0.009996435286552696
0.009911469962389674
0.01382957596479173
0.009911436357015191
0.011578751967249445
0.014599094223740394
0.011578760089605566
0.012268235452211229
0.010821847127317596
0.012268414390973703
SCALARS disp_x float
LOOKUP_TABLE default
0.01391734056385259
0.0
0.0
-0.013917340563845196
0.013909724513253743
0.013878752807254691
0.013809633799918621
0.013714135187540217
0.013591220867572164
0.013441092857338025
0.013263637545212396
0.013058889092137153
0.01282683848239553
0.012567488662723492
0.012280838679076094
0.011966888757450138
0.011625638831628055
0.011257088612195867
0.010861238358741535
0.010438088768990097
0.009987638493271805
0.009509888186883862
0.009004838669340567
0.008472488353041981
0.007912838859241962
0.00732588866057033
0.006711637757108052
0.006070090147453179
0.005401233416086314
0.0047051059373558815
0.00398159374110421
0.0032310589532636644
0.0024516395676811207
0.0016499253646391312
0.0008331217862214342
0.0
0.0
0.0
-0.000833121786220408
-0.0016499253646373108
-0.002451639567678562
-0.003231058953260303
-0.003981593741100103
-0.004705105937351107
-0.0054012334160809545
-0.006070090147447308
-0.006711637757101737
-0.00732588866056362
-0.007912838859234933
-0.008472488353034697
-0.009004838669333064
-0.009509888186876193
-0.009987638493263997
-0.010438088768982196
-0.010861238358733587
-0.011257088612187905
-0.011625638831620082
-0.011966888757442206
-0.012280838679068212
-0.012567488662715665
-0.012826838482387777
-0.013058889092129506
-0.01326363754520485
-0.013441092857330566
-0.013591220867564782
-0.013714135187532861
-0.013809633799911332
-0.013878752807247383
-0.013909724513246333
-0.0069540401303625115
3.1689123750076926e-15
0.006954040130369713
0.006952311338772733
3.2122651157300223e-15
-0.006952311338765576
0.0069223098458077205
3.268038835520953e-15
-0.006922309845800525
0.006888096920528767
3.3069575108067918e-15
-0.006888096920521519
0.006840449893317815
3.3506816504485234e-15
-0.006840449893310534
0.006779052045846932
3.4227810829500883e-15
-0.006779052045839564
0.006703968510922586
3.5085078205663515e-15
-0.006703968510915124
0.006615244585910088
3.5864088922586895e-15
-0.006615244585902526
0.006512869266189926
3.657403337877518e-15
-0.006512869266182261
0.0063968443226384815
3.731713299050937e-15
-0.0063968443226307264
0.006267169308686601
3.800714832515009e-15
-0.006267169308678761
0.006123844346887588
3.8564529975562375e-15
-0.006123844346879659
0.005966869377878421
3.912767632856449e-15
-0.0059668693778704455
0.005796244417734343
3.947524643671359e-15
-0.005796244417726338
0.005611969305361285
3.9771393142062615e-15
-0.005611969305353268
0.005414044179949358
3.994181288088075e-15
-0.005414044179941357
0.005202469385365972
3.990868186425839e-15
-0.005202469385358015
0.0049772442463078236
3.9899257577756044e-15
-0.0049772442462999444
0.00473836909309128
3.9600237544195626e-15
-0.004738369093083507
0.004485844336986742
3.9024747157817505e-15
-0.004485844336979129
0.004219669169821906
3.818176949804743e-15
-0.004219669169814506
0.003939844457107721
3.704639541763447e-15
-0.003939844457100591
0.003646369238458589
3.570729279047437e-15
-0.003646369238451782
0.003339244181223406
3.4123285101811598e-15
-0.0033392441812169597
0.0030184690648139907
3.2229274813352987e-15
-0.0030184690648079764
0.0026840456389842404
2.998518180149919e-15
-0.002684045638978725
0.002335963907068264
2.7383540312215646e-15
-0.0023359639070633224
0.0019742469890292173
2.4379014907020134e-15
-0.001974246989024926
0.0015988709451438432
2.0902030779671e-15
-0.0015988709451402827
0.0012105966184777102
1.684793391250966e-15
-0.0012105966184749882
0.0008048802214776706
1.1992501285183018e-15
-0.0008048802214759148
0.0003638819691381932
5.741066691413094e-16
-0.00036388196913746243
SCALARS disp_y float
LOOKUP_TABLE default
-0.14998919244022463
0.0
0.0
-0.1499891924402243
-0.14301280765377622
-0.13602252279309904
-0.12905289792355742
-0.12212784835188518
-0.11525669637741585
-0.10845397459169315
-0.10173308985853377
-0.09510777571038323
-0.08859165138026844
-0.08219838363483786
-0.07594161540071179
-0.06983499723490219
-0.06389217896795794
-0.05812680620183189
-0.052552533655296545
-0.04718301950198128
-0.04203189714367575
-0.03711282505421714
-0.032439460315121786
-0.028025438412281202
-0.02388442317206818
-0.02003005115520794
-0.01647598117641632
-0.013235860521702919
-0.010323354972605135
-0.007752037442523948
-0.005535838632046295
-0.0036873201185303305
-0.0022238997213525563
-0.001151165682946226
-0.0005155452114229725
0.0
0.0
0.0
-0.000515545211422355
-0.0011511656829453845
-0.002223899721351734
-0.0036873201185296544
-0.005535838632045711
-0.007752037442523444
-0.010323354972604702
-0.013235860521702543
-0.01647598117641601
-0.02003005115520767
-0.023884423172067914
-0.028025438412280987
-0.03243946031512164
-0.03711282505421706
-0.042031897143675716
-0.047183019501981234
-0.052552533655296524
-0.058126806201831895
-0.06389217896795797
-0.06983499723490225
-0.07594161540071181
-0.08219838363483797
-0.08859165138026855
-0.09510777571038334
-0.10173308985853387
-0.1084539745916933
-0.11525669637741594
-0.1221278483518853
-0.1290528979235574
-0.1360225227930991
-0.14301280765377605
-0.14999900664239876
-0.15006651866448134
-0.14999900664239918
-0.14300834165504675
-0.14298916835510606
-0.14300834165504667
-0.13600143827619318
-0.13599678265955936
-0.13600143827619324
-0.12902739514189146
-0.12901810719710877
-0.1290273951418914
-0.12209255177248307
-0.12208107452671607
-0.12209255177248314
-0.11521288451763133
-0.115198199713667
-0.11521288451763141
-0.10840130532064425
-0.10838377137163727
-0.10840130532064433
-0.10167167035356074
-0.10165119050886462
-0.10167167035356081
-0.0950375741167908
-0.09501417556100866
-0.09503757411679084
-0.0885126768469966
-0.08848635142734307
-0.08851267684699665
-0.0821106334968308
-0.08208138361874975
-0.08211063349683086
-0.07584509044217569
-0.07581291540700921
-0.07584509044217573
-0.06972969722700412
-0.06969459723870323
-0.06972969722700416
-0.06377810397343553
-0.06374007897080482
-0.06377810397343553
-0.058003956195667304
-0.05796300619541708
-0.05800395619566734
-0.05242090865416104
-0.05237703365277474
-0.05242090865416101
-0.04704261950291913
-0.0469958195030351
-0.04704261950291914
-0.04188272213504494
-0.041832997134371594
-0.041882722135044945
-0.03695487505593678
-0.03690222505026016
-0.03695487505593674
-0.03227273529962062
-0.03221716031235684
-0.03227273529962055
-0.027849938458705592
-0.02779143841751442
-0.027849938458705478
-0.023700148019727033
-0.023638723159241887
-0.023700148019726898
-0.01983700167946795
-0.019772651203312508
-0.019837001679467826
-0.016274154360216116
-0.01620688097967788
-0.016274154360215978
-0.01302526677795584
-0.01295506129353422
-0.013025266777955662
-0.010103958653329395
-0.010030852622433355
-0.010103958653329193
-0.00752395840463672
-0.007447841144193536
-0.007523958404636479
-0.005298665460187713
-0.005219908020457344
-0.005298665460187428
-0.0034425530449978302
-0.0033600057580878582
-0.0034425530449974898
-0.0019665877563149435
-0.0018846638407119956
-0.0019665877563145224
-0.0008941191066201429
-0.0007927614591844772
-0.0008941191066195979
-0.0002019334826331955
-0.00012170860542190428
-0.00020193348263307888
SCALARS von_mises_stress float
LOOKUP_TABLE default
6736449579.478589
195383097777.46594
195383097893.52332
6736345712.990949
6682771478.949014
12285560411.173857
18846487588.565216
24538725820.04213
30367170889.913006
36208990134.91977
42078902620.16358
47958820549.53575
53848044312.46086
59743364012.55337
65643028585.10738
71545729783.36156
77450386766.0249
83356497179.2298
89263000211.98178
95169680813.49329
101075716079.63206
106980525904.7582
112883310970.67807
118783684518.02325
124680579368.96822
130572936301.16171
136458909999.62465
142337531745.81198
148202901559.65878
154059053631.57
159870450582.26797
165761253593.03555
171065546981.93213
175021802847.85013
178348119239.9843
96793457786.51962
32341897690.49221
96793601430.75731
178348145052.25235
175021901175.02454
171065533213.89417
165761078627.24472
159870424730.3054
154059193327.76755
148203000378.16382
142337469700.84625
136458829903.23936
130572844723.83356
124680668972.51329
118783734343.86737
112883328777.42921
106980438031.92859
101075699158.44809
95169690193.25914
89263165882.02383
83356408250.97447
77450505321.959
71545668714.06264
65642991010.71498
59743413974.07145
53848260222.8627
47958882313.20271
42078857326.50546
36209025335.567
30367217510.054993
24539088154.77225
18846403921.54508
12285613636.371616
6682739130.617593
9763372913.834978
12805696705.616053
9763617267.832764
6941292023.275622
10270568723.863802
6941369009.765022
9467626629.41415
8299046882.568484
9467633082.482231
11168074914.39212
8809026007.707438
11168132085.984116
13679661634.655529
8812040260.458193
13679532543.073774
16360559171.93532
8821350704.715876
16360553009.413412
19136511429.45364
8816398685.425959
19136497739.50218
21965519741.307274
8817620698.885115
21965581574.988213
24833060201.790634
8817511211.89511
24833095839.187046
27726277673.161953
8817612239.8984
27726230980.965168
30638014405.279537
8817610019.569485
30638048869.182323
33563466086.100796
8817540725.158064
33563484335.07317
36499345412.083534
8817524112.15642
36499364970.87779
39443333584.9677
8817527678.939417
39443249860.208755
42393551194.64535
8817356223.463564
42393582841.219246
45349022479.39898
8817452844.39252
45348957298.612305
48308529963.26724
8817552187.542112
48308558279.46955
51271531116.94437
8817795442.4239
51271492708.26758
54237226197.021126
8817834774.196114
54237237444.41863
57205220583.66441
8817525563.450617
57205161068.49021
60175187103.07492
8817845839.868021
60175194352.89004
63146805141.46679
8818451488.005096
63146770182.9468
66119543901.40655
8818367151.157244
66119551124.1694
69093284363.78436
8818401268.227
69093280015.863
72067756715.22935
8818370596.864162
72067731825.5631
75043127373.64769
8820700020.092155
75043086984.81805
78017933906.33803
8817096680.885363
78017898696.58185
80989456037.83438
8830541105.717785
80989419474.7322
83931402151.95299
8777403850.476023
83931436621.1502
87179068054.75412
9212895839.26402
87179077179.93521
91784542687.57785
9725528191.074657
91784534129.84164
88735516931.94835
7209226889.967433
88735503691.71371
